     Program PWSCF v.6.4.1 starts on 21Nov2019 at 15:33:33

     K-points division:     npool     =      40
     Reading input from scf.in

     Current dimensions of program PWSCF are:
     Max number of different atomic species (ntypx) = 10
     Max number of k-points (npk) =  40000
     Max angular momentum in pseudopotentials (lmaxx) =  3

     Subspace diagonalization in iterative solution of the eigenvalue problem:
     a serial algorithm will be used

     Message from routine setup:
     using ibrav=0 with symmetry is DISCOURAGED, use correct ibrav instead

     bravais-lattice index     =            0
     lattice parameter (alat)  =       9.8248  a.u.
     unit-cell volume          =    1410.1335 (a.u.)^3
     number of atoms/cell      =           16
     number of atomic types    =            2
     number of electrons       =       184.26
     number of Kohn-Sham states=          111
     kinetic-energy cutoff     =     120.0000  Ry
     charge density cutoff     =     480.0000  Ry
     convergence threshold     =      1.0E-08
     mixing beta               =       0.7000
     number of iterations used =            8  plain     mixing
     Exchange-correlation      = SLA PW NOGX NOGC ( 1  4  0  0 0 0)

     celldm(1)=   9.824750  celldm(2)=   0.000000  celldm(3)=   0.000000
     celldm(4)=   0.000000  celldm(5)=   0.000000  celldm(6)=   0.000000

     crystal axes: (cart. coord. in units of alat)
               a(1) = (   1.000000   0.000000   0.000000 )
               a(2) = (   0.000000   1.000000   0.000000 )
               a(3) = (   0.000000   0.000000   1.486948 )

     reciprocal axes: (cart. coord. in units 2 pi/alat)
               b(1) = (  1.000000  0.000000  0.000000 )
               b(2) = (  0.000000  1.000000  0.000000 )
               b(3) = (  0.000000  0.000000  0.672519 )

     PseudoPot. # 1 for W  read from file:
     /cluster/scratch/mnoe/QE/pps/W_ONCV_LDA-4.0.upf
     MD5 check sum: ba0307d5d4cd419d6f1d13dc49d7c13a
     Pseudo is Norm-conserving + core correction, Zval = 28.0
     Generated using ONCVPSP code by D. R. Hamann
     Using radial grid of 1380 points,  8 beta functions with:
                l(1) =   0
                l(2) =   0
                l(3) =   1
                l(4) =   1
                l(5) =   2
                l(6) =   2
                l(7) =   3
                l(8) =   3

     PseudoPot. # 2 for O  read from file:
     /cluster/scratch/mnoe/QE/pps/O_ONCV_LDA-3.0.upf
     MD5 check sum: b55cdb4f45ae2203d24ad12cf8d61a31
     Pseudo is Norm-conserving + core correction, Zval =  6.0
     Generated using ONCVPSP code by D. R. Hamann
     Using radial grid of  926 points,  5 beta functions with:
                l(1) =   0
                l(2) =   0
                l(3) =   1
                l(4) =   1
                l(5) =   2

     atomic species   valence    mass     pseudopotential
        W             28.00   183.84000     W ( 1.00)
        O              6.00    15.99940     O ( 1.00)

     16 Sym. Ops., with inversion, found (14 have fractional translation)

   Cartesian axes

     site n.     atom                  positions (alat units)
         1           W   tau(   1) = (   0.2500000   0.2500000   0.3223138  )
         2           W   tau(   2) = (   0.7500000   0.7500000   1.1646340  )
         3           W   tau(   3) = (   0.7500000   0.7500000   0.4211601  )
         4           W   tau(   4) = (   0.2500000   0.2500000   1.0657876  )
         5           O   tau(   5) = (   0.2500000   0.2500000   0.7272664  )
         6           O   tau(   6) = (   0.7500000   0.7500000   0.7596814  )
         7           O   tau(   7) = (   0.7500000   0.7500000   0.0162075  )
         8           O   tau(   8) = (   0.2500000   0.2500000   1.4707403  )
         9           O   tau(   9) = (   0.4564316   0.5435683   0.3717369  )
        10           O   tau(  10) = (   0.5435684   0.4564317   1.1152108  )
        11           O   tau(  11) = (   0.0435684   0.9564317   0.3717369  )
        12           O   tau(  12) = (   0.9564316   0.0435684   1.1152108  )
        13           O   tau(  13) = (   0.9564317   0.4564316   0.3717369  )
        14           O   tau(  14) = (   0.0435684   0.5435684   1.1152108  )
        15           O   tau(  15) = (   0.5435683   0.0435684   0.3717369  )
        16           O   tau(  16) = (   0.4564317   0.9564316   1.1152108  )

     number of k points=    40  gaussian smearing, width (Ry)=  0.0007
                       cart. coord. in units 2pi/alat
        k(    1) = (   0.0000000   0.0000000   0.0000000), wk =   0.0092593
        k(    2) = (   0.0000000   0.0000000   0.1120864), wk =   0.0185185
        k(    3) = (   0.0000000   0.0000000   0.2241729), wk =   0.0185185
        k(    4) = (   0.0000000   0.0000000  -0.3362593), wk =   0.0092593
        k(    5) = (   0.0000000   0.1666667   0.0000000), wk =   0.0370370
        k(    6) = (   0.0000000   0.1666667   0.1120864), wk =   0.0740741
        k(    7) = (   0.0000000   0.1666667   0.2241729), wk =   0.0740741
        k(    8) = (   0.0000000   0.1666667  -0.3362593), wk =   0.0370370
        k(    9) = (   0.0000000   0.3333333   0.0000000), wk =   0.0370370
        k(   10) = (   0.0000000   0.3333333   0.1120864), wk =   0.0740741
        k(   11) = (   0.0000000   0.3333333   0.2241729), wk =   0.0740741
        k(   12) = (   0.0000000   0.3333333  -0.3362593), wk =   0.0370370
        k(   13) = (   0.0000000  -0.5000000   0.0000000), wk =   0.0185185
        k(   14) = (   0.0000000  -0.5000000   0.1120864), wk =   0.0370370
        k(   15) = (   0.0000000  -0.5000000   0.2241729), wk =   0.0370370
        k(   16) = (   0.0000000  -0.5000000  -0.3362593), wk =   0.0185185
        k(   17) = (   0.1666667   0.1666667   0.0000000), wk =   0.0370370
        k(   18) = (   0.1666667   0.1666667   0.1120864), wk =   0.0740741
        k(   19) = (   0.1666667   0.1666667   0.2241729), wk =   0.0740741
        k(   20) = (   0.1666667   0.1666667  -0.3362593), wk =   0.0370370
        k(   21) = (   0.1666667   0.3333333   0.0000000), wk =   0.0740741
        k(   22) = (   0.1666667   0.3333333   0.1120864), wk =   0.1481481
        k(   23) = (   0.1666667   0.3333333   0.2241729), wk =   0.1481481
        k(   24) = (   0.1666667   0.3333333  -0.3362593), wk =   0.0740741
        k(   25) = (   0.1666667  -0.5000000   0.0000000), wk =   0.0370370
        k(   26) = (   0.1666667  -0.5000000   0.1120864), wk =   0.0740741
        k(   27) = (   0.1666667  -0.5000000   0.2241729), wk =   0.0740741
        k(   28) = (   0.1666667  -0.5000000  -0.3362593), wk =   0.0370370
        k(   29) = (   0.3333333   0.3333333   0.0000000), wk =   0.0370370
        k(   30) = (   0.3333333   0.3333333   0.1120864), wk =   0.0740741
        k(   31) = (   0.3333333   0.3333333   0.2241729), wk =   0.0740741
        k(   32) = (   0.3333333   0.3333333  -0.3362593), wk =   0.0370370
        k(   33) = (   0.3333333  -0.5000000   0.0000000), wk =   0.0370370
        k(   34) = (   0.3333333  -0.5000000   0.1120864), wk =   0.0740741
        k(   35) = (   0.3333333  -0.5000000   0.2241729), wk =   0.0740741
        k(   36) = (   0.3333333  -0.5000000  -0.3362593), wk =   0.0370370
        k(   37) = (  -0.5000000  -0.5000000   0.0000000), wk =   0.0092593
        k(   38) = (  -0.5000000  -0.5000000   0.1120864), wk =   0.0185185
        k(   39) = (  -0.5000000  -0.5000000   0.2241729), wk =   0.0185185
        k(   40) = (  -0.5000000  -0.5000000  -0.3362593), wk =   0.0092593

     Initial potential from superposition of free atoms

     starting charge  183.99828, renormalised to  184.26000
     Starting wfcs are  116 randomized atomic wfcs

     Self-consistent Calculation

     iteration #  1     ecut=   120.00 Ry     beta= 0.70
     Davidson diagonalization with overlap
     ethr =  1.00E-02,  avg # of iterations =  4.8

     total energy              =   -3126.75429807 Ry
     Harris-Foulkes estimate   =   -3132.16177792 Ry
     estimated scf accuracy    <       6.81638141 Ry

[...]

     total energy              =   -3130.37221855 Ry
     Harris-Foulkes estimate   =   -3130.37221857 Ry
     estimated scf accuracy    <       0.00000005 Ry

     iteration # 12     ecut=   120.00 Ry     beta= 0.70
     Davidson diagonalization with overlap
     ethr =  2.81E-11,  avg # of iterations =  2.0

     End of self-consistent calculation

          k = 0.0000 0.0000 0.0000 ( 31263 PWs)   bands (ev):

   -66.1467 -66.1463 -66.1449 -66.1445 -30.5734 -30.5674 -30.5116 -30.5068
   -30.4816 -30.4816 -30.4782 -30.4782 -30.3893 -30.3893 -30.3865 -30.3865
   -20.2975 -20.2974 -20.2973 -20.2972 -20.2962 -20.2958 -20.2905 -20.2901
   -20.2843 -20.2843 -20.2833 -20.2833 -20.2817 -20.2817 -20.2808 -20.2808
   -20.2741 -20.2740 -20.2735 -20.2734 -20.2528 -20.2528 -20.2528 -20.2528
   -20.2483 -20.2483 -20.2482 -20.2482 -10.0036  -9.6979  -9.1740  -9.0741
    -9.0596  -8.9404  -7.9198  -7.8087  -7.6858  -7.6858  -7.6637  -7.6637
     1.1445   1.1447   1.2825   1.5307   1.5603   1.7478   2.3925   2.4747
     2.6270   2.6270   4.0890   4.0890   4.9268   4.9268   4.9986   5.4849
     5.4849   5.5005   5.5005   5.7537   5.7537   5.8899   5.9088   6.7065
     6.7065   6.8267   6.9955   6.9991   7.3033   7.3033   7.3383   7.3383
     7.8997   7.9111   8.0482   8.0482   9.1750   9.1798   9.9155   9.9155
    12.2948  12.2948  13.0262  13.0273  13.3678  13.3678  13.7075  14.1499
    14.1499  14.7576  15.2307  15.2400  15.4647  16.7179  17.3171

[...]

          k = 0.3333-0.5000-0.3363 ( 31328 PWs)   bands (ev):

[...]

          k =-0.5000-0.5000 0.0000 ( 31352 PWs)   bands (ev):

[...]

          k =-0.5000-0.5000-0.3363 ( 31360 PWs)   bands (ev):

   -66.1456 -66.1456 -66.1456 -66.1456 -30.5399 -30.5399 -30.5399 -30.5399
   -30.4851 -30.4851 -30.4851 -30.4851 -30.3836 -30.3836 -30.3836 -30.3836
   -20.2974 -20.2974 -20.2973 -20.2973 -20.2932 -20.2932 -20.2932 -20.2932
   -20.2839 -20.2839 -20.2839 -20.2839 -20.2812 -20.2812 -20.2812 -20.2812
   -20.2738 -20.2738 -20.2738 -20.2738 -20.2543 -20.2543 -20.2543 -20.2543
   -20.2468 -20.2468 -20.2468 -20.2468  -9.3761  -9.3761  -9.3761  -9.3761
    -8.5165  -8.5165  -8.5165  -8.5165  -7.7964  -7.7964  -7.7964  -7.7964
     1.2521   1.2521   1.2521   1.2521   3.1232   3.1232   3.1232   3.1232
     3.3767   3.3767   3.3767   3.3767   4.7816   4.7817   4.7817   4.7817
     5.2576   5.2576   5.2577   5.2577   5.9814   5.9814   5.9814   5.9814
     6.1358   6.1358   6.1358   6.1358   6.6825   6.6825   6.6825   6.6825
     7.4089   7.4089   7.4089   7.4089  11.2700  11.2700  11.2700  11.2700
    12.3361  12.3361  12.3361  12.3361  13.5637  13.5637  13.5637  13.5637
    15.5281  15.5281  15.5281  15.5281  18.1486  18.1486  18.1487

     the Fermi energy is     9.7976 ev

!    total energy              =   -3130.37221855 Ry
     Harris-Foulkes estimate   =   -3130.37221855 Ry
     estimated scf accuracy    <          3.4E-09 Ry

     The total energy is the sum of the following terms:

     one-electron contribution =   -2372.71332226 Ry
     hartree contribution      =    1304.89925457 Ry
     xc contribution           =    -483.12578597 Ry
     ewald contribution        =   -1579.43234526 Ry
     smearing contrib. (-TS)   =      -0.00001963 Ry

     convergence has been achieved in  12 iterations

     Writing output data file Landau_4.save/

     General routines

     Parallel routines

   This run was terminated on:  15:36:20  21Nov2019

   JOB DONE.