     Program PWSCF v.6.2 (svn rev. 14038) starts on 25Mar2020 at  2: 0:16

     K-points division:     npool     =      40
     Reading input from scf.in

     Current dimensions of program PWSCF are:
     Max number of different atomic species (ntypx) = 10
     Max number of k-points (npk) =  40000
     Max angular momentum in pseudopotentials (lmaxx) =  3

     Subspace diagonalization in iterative solution of the eigenvalue problem:
     a serial algorithm will be used

     bravais-lattice index     =            0
     lattice parameter (alat)  =      13.9441  a.u.
     unit-cell volume          =    2813.2192 (a.u.)^3
     number of atoms/cell      =           32
     number of atomic types    =            2
     number of electrons       =       368.20
     number of Kohn-Sham states=          221
     kinetic-energy cutoff     =     120.0000  Ry
     charge density cutoff     =     480.0000  Ry
     convergence threshold     =      1.0E-08
     mixing beta               =       0.7000
     number of iterations used =            8  plain     mixing
     Exchange-correlation      = SLA PW NOGX NOGC ( 1  4  0  0 0 0)

     celldm(1)=  13.944115  celldm(2)=   0.000000  celldm(3)=   0.000000
     celldm(4)=   0.000000  celldm(5)=   0.000000  celldm(6)=   0.000000

     crystal axes: (cart. coord. in units of alat)
               a(1) = (   1.000000   0.000000   0.000000 )
               a(2) = (   0.000000   1.036317   0.000000 )
               a(3) = (   0.000000   0.000000   1.001240 )

     reciprocal axes: (cart. coord. in units 2 pi/alat)
               b(1) = (  1.000000  0.000000  0.000000 )
               b(2) = (  0.000000  0.964956  0.000000 )
               b(3) = (  0.000000  0.000000  0.998761 )

     PseudoPot. # 1 for W  read from file:
     /cluster/scratch/mnoe/QE/pps/W_ONCV_LDA-4.0.upf
     MD5 check sum: ba0307d5d4cd419d6f1d13dc49d7c13a
     Pseudo is Norm-conserving + core correction, Zval = 28.0
     Generated using ONCVPSP code by D. R. Hamann
     Using radial grid of 1380 points,  8 beta functions with:
                l(1) =   0
                l(2) =   0
                l(3) =   1
                l(4) =   1
                l(5) =   2
                l(6) =   2
                l(7) =   3
                l(8) =   3

     PseudoPot. # 2 for O  read from file:
     /cluster/scratch/mnoe/QE/pps/O_ONCV_LDA-3.0.upf
     MD5 check sum: a1bd6164e7280c17a38c229939bfbd54
     Pseudo is Norm-conserving + core correction, Zval =  6.0
     Generated using ONCVPSP code by D. R. Hamann
     Using radial grid of  926 points,  5 beta functions with:
                l(1) =   0
                l(2) =   0
                l(3) =   1
                l(4) =   1
                l(5) =   2

     atomic species   valence    mass     pseudopotential
        W             28.00   183.84000     W ( 1.00)
        O              6.00    15.99940     O ( 1.00)

      4 Sym. Ops. (no inversion) found ( 3 have fractional translation)

   Cartesian axes

     site n.     atom                  positions (alat units)
         1           W   tau(   1) = (   0.2334266   0.2887367   0.0028364  )
         2           W   tau(   2) = (   0.7537766   0.7475798  -0.0164045  )
         3           W   tau(   3) = (   0.2665734   0.2294215   0.5034565  )
         4           W   tau(   4) = (   0.7462234   0.8068950   0.4842156  )
         5           W   tau(   5) = (   0.7665734   0.2887367   0.4977837  )
         6           W   tau(   6) = (   0.2462234   0.7475798   0.5170246  )
         7           W   tau(   7) = (   0.7334266   0.2294215  -0.0028364  )
         8           W   tau(   8) = (   0.2537766   0.8068950   0.0164045  )
         9           O   tau(   9) = (   0.2292397   0.0077069  -0.0095255  )
        10           O   tau(  10) = (   0.7667827  -0.0077069  -0.0155059  )
        11           O   tau(  11) = (   0.2707602   0.5104513   0.4910946  )
        12           O   tau(  12) = (   0.7332172   0.5258652   0.4851142  )
        13           O   tau(  13) = (   0.7707602   0.0077069   0.5101456  )
        14           O   tau(  14) = (   0.2332172  -0.0077069   0.5161260  )
        15           O   tau(  15) = (   0.7292398   0.5104513   0.0095254  )
        16           O   tau(  16) = (   0.2667827   0.5258652   0.0155059  )
        17           O   tau(  17) = (   0.5055921   0.2362246   0.4580340  )
        18           O   tau(  18) = (   0.5000261   0.7942924   0.5432062  )
        19           O   tau(  19) = (  -0.0055921   0.2819337   0.9586541  )
        20           O   tau(  20) = (  -0.0000261   0.7601824   0.0425861  )
        21           O   tau(  21) = (   0.4944079   0.2362246   0.0425861  )
        22           O   tau(  22) = (   0.4999739   0.7942924   0.9586541  )
        23           O   tau(  23) = (   0.0055921   0.2819337   0.5432062  )
        24           O   tau(  24) = (   0.0000261   0.7601824   0.4580340  )
        25           O   tau(  25) = (   0.7074666   0.2680127   0.7485620  )
        26           O   tau(  26) = (   0.2925334   0.7948802   0.2563893  )
        27           O   tau(  27) = (   0.7925334   0.2501456   0.2479419  )
        28           O   tau(  28) = (   0.2074666   0.7595947   0.7570094  )
        29           O   tau(  29) = (   0.2925334   0.2680127   0.7532983  )
        30           O   tau(  30) = (   0.7074666   0.7948802   0.2442308  )
        31           O   tau(  31) = (   0.2074666   0.2501456   0.2526782  )
        32           O   tau(  32) = (   0.7925334   0.7595947   0.7448509  )

     number of k points=    64  gaussian smearing, width (Ry)=  0.0007
                       cart. coord. in units 2pi/alat
        k(    1) = (   0.0000000   0.0000000   0.0000000), wk =   0.0092593
        k(    2) = (   0.0000000   0.0000000   0.1664602), wk =   0.0185185
        k(    3) = (   0.0000000   0.0000000   0.3329204), wk =   0.0185185
        k(    4) = (   0.0000000   0.0000000  -0.4993807), wk =   0.0092593
        k(    5) = (   0.0000000   0.1608260   0.0000000), wk =   0.0185185
        k(    6) = (   0.0000000   0.1608260   0.1664602), wk =   0.0370370
        k(    7) = (   0.0000000   0.1608260   0.3329204), wk =   0.0370370
        k(    8) = (   0.0000000   0.1608260  -0.4993807), wk =   0.0185185
        k(    9) = (   0.0000000   0.3216520   0.0000000), wk =   0.0185185
        k(   10) = (   0.0000000   0.3216520   0.1664602), wk =   0.0370370
        k(   11) = (   0.0000000   0.3216520   0.3329204), wk =   0.0370370
        k(   12) = (   0.0000000   0.3216520  -0.4993807), wk =   0.0185185
        k(   13) = (   0.0000000  -0.4824781   0.0000000), wk =   0.0092593
        k(   14) = (   0.0000000  -0.4824781   0.1664602), wk =   0.0185185
        k(   15) = (   0.0000000  -0.4824781   0.3329204), wk =   0.0185185
        k(   16) = (   0.0000000  -0.4824781  -0.4993807), wk =   0.0092593
        k(   17) = (   0.1666667   0.0000000   0.0000000), wk =   0.0185185
        k(   18) = (   0.1666667   0.0000000   0.1664602), wk =   0.0370370
        k(   19) = (   0.1666667   0.0000000   0.3329204), wk =   0.0370370
        k(   20) = (   0.1666667   0.0000000  -0.4993807), wk =   0.0185185
        k(   21) = (   0.1666667   0.1608260   0.0000000), wk =   0.0370370
        k(   22) = (   0.1666667   0.1608260   0.1664602), wk =   0.0740741
        k(   23) = (   0.1666667   0.1608260   0.3329204), wk =   0.0740741
        k(   24) = (   0.1666667   0.1608260  -0.4993807), wk =   0.0370370
        k(   25) = (   0.1666667   0.3216520   0.0000000), wk =   0.0370370
        k(   26) = (   0.1666667   0.3216520   0.1664602), wk =   0.0740741
        k(   27) = (   0.1666667   0.3216520   0.3329204), wk =   0.0740741
        k(   28) = (   0.1666667   0.3216520  -0.4993807), wk =   0.0370370
        k(   29) = (   0.1666667  -0.4824781   0.0000000), wk =   0.0185185
        k(   30) = (   0.1666667  -0.4824781   0.1664602), wk =   0.0370370
        k(   31) = (   0.1666667  -0.4824781   0.3329204), wk =   0.0370370
        k(   32) = (   0.1666667  -0.4824781  -0.4993807), wk =   0.0185185
        k(   33) = (   0.3333333   0.0000000   0.0000000), wk =   0.0185185
        k(   34) = (   0.3333333   0.0000000   0.1664602), wk =   0.0370370
        k(   35) = (   0.3333333   0.0000000   0.3329204), wk =   0.0370370
        k(   36) = (   0.3333333   0.0000000  -0.4993807), wk =   0.0185185
        k(   37) = (   0.3333333   0.1608260   0.0000000), wk =   0.0370370
        k(   38) = (   0.3333333   0.1608260   0.1664602), wk =   0.0740741
        k(   39) = (   0.3333333   0.1608260   0.3329204), wk =   0.0740741
        k(   40) = (   0.3333333   0.1608260  -0.4993807), wk =   0.0370370
        k(   41) = (   0.3333333   0.3216520   0.0000000), wk =   0.0370370
        k(   42) = (   0.3333333   0.3216520   0.1664602), wk =   0.0740741
        k(   43) = (   0.3333333   0.3216520   0.3329204), wk =   0.0740741
        k(   44) = (   0.3333333   0.3216520  -0.4993807), wk =   0.0370370
        k(   45) = (   0.3333333  -0.4824781   0.0000000), wk =   0.0185185
        k(   46) = (   0.3333333  -0.4824781   0.1664602), wk =   0.0370370
        k(   47) = (   0.3333333  -0.4824781   0.3329204), wk =   0.0370370
        k(   48) = (   0.3333333  -0.4824781  -0.4993807), wk =   0.0185185
        k(   49) = (  -0.5000000   0.0000000   0.0000000), wk =   0.0092593
        k(   50) = (  -0.5000000   0.0000000   0.1664602), wk =   0.0185185
        k(   51) = (  -0.5000000   0.0000000   0.3329204), wk =   0.0185185
        k(   52) = (  -0.5000000   0.0000000  -0.4993807), wk =   0.0092593
        k(   53) = (  -0.5000000   0.1608260   0.0000000), wk =   0.0185185
        k(   54) = (  -0.5000000   0.1608260   0.1664602), wk =   0.0370370
        k(   55) = (  -0.5000000   0.1608260   0.3329204), wk =   0.0370370
        k(   56) = (  -0.5000000   0.1608260  -0.4993807), wk =   0.0185185
        k(   57) = (  -0.5000000   0.3216520   0.0000000), wk =   0.0185185
        k(   58) = (  -0.5000000   0.3216520   0.1664602), wk =   0.0370370
        k(   59) = (  -0.5000000   0.3216520   0.3329204), wk =   0.0370370
        k(   60) = (  -0.5000000   0.3216520  -0.4993807), wk =   0.0185185
        k(   61) = (  -0.5000000  -0.4824781   0.0000000), wk =   0.0092593
        k(   62) = (  -0.5000000  -0.4824781   0.1664602), wk =   0.0185185
        k(   63) = (  -0.5000000  -0.4824781   0.3329204), wk =   0.0185185
        k(   64) = (  -0.5000000  -0.4824781  -0.4993807), wk =   0.0092593

     Initial potential from superposition of free atoms

     starting charge  367.99656, renormalised to  368.20000
     Starting wfc are  232 randomized atomic wfcs

     Self-consistent Calculation

     iteration #  1     ecut=   120.00 Ry     beta= 0.70
     Davidson diagonalization with overlap
     ethr =  1.00E-02,  avg # of iterations =  5.2

     total energy              =   -6253.81830644 Ry
     Harris-Foulkes estimate   =   -6264.47629320 Ry
     estimated scf accuracy    <      13.47399371 Ry

[...]

     total energy              =   -6260.96976525 Ry
     Harris-Foulkes estimate   =   -6260.96976525 Ry
     estimated scf accuracy    <       0.00000001 Ry

     iteration # 15     ecut=   120.00 Ry     beta= 0.70
     Davidson diagonalization with overlap
     ethr =  3.76E-12,  avg # of iterations =  2.7

     End of self-consistent calculation

          k = 0.0000 0.0000 0.0000 ( 62347 PWs)   bands (ev):

   -66.1734 -66.1725 -66.1725 -66.1721 -66.1717 -66.1713 -66.1712 -66.1704
   -30.5844 -30.5756 -30.5747 -30.5651 -30.5617 -30.5461 -30.5453 -30.5378
   -30.5021 -30.4996 -30.4973 -30.4973 -30.4943 -30.4899 -30.4846 -30.4837
   -30.4552 -30.4537 -30.4480 -30.4466 -30.4033 -30.4027 -30.3988 -30.3973
   -20.3306 -20.3304 -20.3304 -20.3302 -20.3295 -20.3293 -20.3292 -20.3291
   -20.3143 -20.3138 -20.3138 -20.3132 -20.3124 -20.3118 -20.3117 -20.3113
   -20.3106 -20.3104 -20.3102 -20.3099 -20.3091 -20.3088 -20.3078 -20.3074
   -20.3069 -20.3061 -20.3058 -20.3049 -20.3046 -20.3040 -20.3038 -20.3030
   -20.3008 -20.3001 -20.2996 -20.2984 -20.2981 -20.2969 -20.2960 -20.2951
   -20.2944 -20.2919 -20.2910 -20.2895 -20.2887 -20.2884 -20.2882 -20.2882
   -20.2881 -20.2874 -20.2857 -20.2845 -20.2838 -20.2836 -20.2828 -20.2826
    -9.9752  -9.6709  -9.5690  -9.5686  -9.2613  -9.2537  -9.1532  -9.0347
    -9.0296  -8.9305  -8.9066  -8.9051  -7.9181  -7.8547  -7.8178  -7.8105
    -7.8099  -7.7437  -7.7411  -7.7314  -7.7311  -7.7268  -7.6280  -7.6277
     1.1740   1.1880   1.2301   1.2444   1.3127   1.3158   1.3303   1.5051
     1.5531   1.5688   1.5792   1.8021   2.4038   2.4992   2.5029   2.5620
     2.6603   2.6781   4.1622   4.1856   4.3859   4.4309   4.6392   4.6798
     4.6933   4.7377   4.7430   4.7755   4.9565   4.9648   5.1657   5.4065
     5.4296   5.4390   5.4588   5.5470   5.5503   5.6232   5.6518   5.7563
     5.7740   5.7755   5.8333   5.8663   5.9465   5.9718   5.9797   6.0647
     6.0826   6.3025   6.3416   6.4218   6.4258   6.6838   6.8244   6.8593
     6.8731   6.8978   6.9290   7.0028   7.0153   7.0221   7.1211   7.1435
     7.3065   7.3293   7.8586   7.8766   8.0019   8.0389   8.0477   8.1318
     9.4014   9.4330   9.8805   9.8865   9.9018   9.9113  12.2681  12.2757
    12.3132  12.3419  12.5213  12.5323  12.5374  12.6172  12.6376  12.8328
    13.1331  13.1812  13.2093  13.3469  13.6804  13.8197  13.9379  14.0539
    14.4004  14.5380  14.6256  14.8404  15.2496  15.2560  15.5793  15.9179
    15.9493  16.7967  16.9740  17.0092  17.3614

[...]

          k = 0.3333-0.4825-0.4994 ( 62436 PWs)   bands (ev):

[...]

          k =-0.5000 0.0000 0.0000 ( 62452 PWs)   bands (ev):

[...]

          k =-0.5000-0.4825-0.4994 ( 62344 PWs)   bands (ev):

   -66.1725 -66.1725 -66.1725 -66.1725 -66.1713 -66.1713 -66.1713 -66.1713
   -30.5448 -30.5448 -30.5440 -30.5440 -30.5423 -30.5423 -30.5422 -30.5422
   -30.4939 -30.4939 -30.4934 -30.4934 -30.4922 -30.4922 -30.4918 -30.4918
   -30.4459 -30.4459 -30.4455 -30.4455 -30.4449 -30.4449 -30.4447 -30.4446
   -20.3304 -20.3304 -20.3304 -20.3304 -20.3293 -20.3293 -20.3293 -20.3293
   -20.3124 -20.3124 -20.3124 -20.3124 -20.3123 -20.3123 -20.3123 -20.3123
   -20.3102 -20.3101 -20.3101 -20.3101 -20.3085 -20.3085 -20.3085 -20.3085
   -20.3062 -20.3062 -20.3062 -20.3062 -20.3043 -20.3043 -20.3042 -20.3042
   -20.2982 -20.2982 -20.2982 -20.2982 -20.2977 -20.2977 -20.2975 -20.2975
   -20.2915 -20.2914 -20.2912 -20.2912 -20.2878 -20.2878 -20.2875 -20.2875
   -20.2860 -20.2860 -20.2859 -20.2859 -20.2858 -20.2858 -20.2857 -20.2857
    -8.9960  -8.9960  -8.9667  -8.9667  -8.9659  -8.9659  -8.9623  -8.9623
    -8.4880  -8.4879  -8.4412  -8.4412  -8.4331  -8.4331  -8.4325  -8.4325
    -8.3938  -8.3938  -8.3804  -8.3804  -8.3561  -8.3561  -8.3368  -8.3368
     2.8909   2.8909   2.9063   2.9063   2.9269   2.9269   2.9373   2.9373
     3.1441   3.1441   3.1524   3.1524   3.1842   3.1842   3.1987   3.1987
     3.2678   3.2679   3.3978   3.3978   3.4487   3.4487   3.4973   3.4973
     4.0821   4.0821   4.1088   4.1088   4.1206   4.1206   4.1293   4.1293
     4.2799   4.2799   4.3038   4.3038   4.3128   4.3128   4.3526   4.3526
     4.4234   4.4234   4.4525   4.4525   4.4588   4.4588   4.4851   4.4851
     7.0359   7.0359   7.1192   7.1192   7.1553   7.1553   7.2654   7.2654
     7.3053   7.3053   7.3121   7.3121   7.3377   7.3377   7.3643   7.3643
     7.5132   7.5132   7.5305   7.5305   7.5514   7.5514   7.5957   7.5957
    11.8457  11.8457  11.8568  11.8568  11.8634  11.8634  11.8680  11.8680
    12.0942  12.0942  12.1490  12.1490  12.1954  12.1954  12.3288  12.3288
    12.3806  12.3806  12.4556  12.4556  12.4879  12.4879  12.5057  12.5057
    17.0810  17.0810  17.0913  17.0913  17.1270  17.1270  17.1799  17.1800
    17.3843  17.3843  17.4105  17.4105  17.4857

     the Fermi energy is     9.7211 ev

!    total energy              =   -6260.96976525 Ry
     Harris-Foulkes estimate   =   -6260.96976525 Ry
     estimated scf accuracy    <          3.8E-09 Ry

     The total energy is the sum of the following terms:

     one-electron contribution =   -4728.88596748 Ry
     hartree contribution      =    2601.11237906 Ry
     xc contribution           =    -965.88349808 Ry
     ewald contribution        =   -3167.31265741 Ry
     smearing contrib. (-TS)   =      -0.00002135 Ry

     convergence has been achieved in  15 iterations

     Writing output data file Landau_11.save

     General routines

     Parallel routines

   This run was terminated on:   2:33: 4  25Mar2020

   JOB DONE.