     Program PWSCF v.6.4.1 starts on 17Dec2019 at 16:41:19

     K-points division:     npool     =      40
     Reading input from scf.in

     Current dimensions of program PWSCF are:
     Max number of different atomic species (ntypx) = 10
     Max number of k-points (npk) =  40000
     Max angular momentum in pseudopotentials (lmaxx) =  3

     Subspace diagonalization in iterative solution of the eigenvalue problem:
     a serial algorithm will be used

     Message from routine setup:
     using ibrav=0 with symmetry is DISCOURAGED, use correct ibrav instead

     bravais-lattice index     =            0
     lattice parameter (alat)  =      14.0840  a.u.
     unit-cell volume          =    2830.8264 (a.u.)^3
     number of atoms/cell      =           32
     number of atomic types    =            2
     number of electrons       =       368.60
     number of Kohn-Sham states=          221
     kinetic-energy cutoff     =     120.0000  Ry
     charge density cutoff     =     480.0000  Ry
     convergence threshold     =      1.0E-08
     mixing beta               =       0.7000
     number of iterations used =            8  plain     mixing
     Exchange-correlation      = SLA PW NOGX NOGC ( 1  4  0  0 0 0)

     celldm(1)=  14.084020  celldm(2)=   0.000000  celldm(3)=   0.000000
     celldm(4)=   0.000000  celldm(5)=   0.000000  celldm(6)=   0.000000

     crystal axes: (cart. coord. in units of alat)
               a(1) = (   1.000000   0.000000   0.000000 )
               a(2) = (   0.000000   1.015663   0.000000 )
               a(3) = (   0.000000   0.000000   0.997663 )

     reciprocal axes: (cart. coord. in units 2 pi/alat)
               b(1) = (  1.000000  0.000000  0.000000 )
               b(2) = (  0.000000  0.984579  0.000000 )
               b(3) = (  0.000000  0.000000  1.002342 )

     PseudoPot. # 1 for W  read from file:
     /cluster/scratch/mnoe/QE/pps/W_ONCV_LDA-4.0.upf
     MD5 check sum: ba0307d5d4cd419d6f1d13dc49d7c13a
     Pseudo is Norm-conserving + core correction, Zval = 28.0
     Generated using ONCVPSP code by D. R. Hamann
     Using radial grid of 1380 points,  8 beta functions with:
                l(1) =   0
                l(2) =   0
                l(3) =   1
                l(4) =   1
                l(5) =   2
                l(6) =   2
                l(7) =   3
                l(8) =   3

     PseudoPot. # 2 for O  read from file:
     /cluster/scratch/mnoe/QE/pps/O_ONCV_LDA-3.0.upf
     MD5 check sum: b55cdb4f45ae2203d24ad12cf8d61a31
     Pseudo is Norm-conserving + core correction, Zval =  6.0
     Generated using ONCVPSP code by D. R. Hamann
     Using radial grid of  926 points,  5 beta functions with:
                l(1) =   0
                l(2) =   0
                l(3) =   1
                l(4) =   1
                l(5) =   2

     atomic species   valence    mass     pseudopotential
        W             28.00   183.84000     W ( 1.00)
        O              6.00    15.99940     O ( 1.00)

      8 Sym. Ops., with inversion, found ( 6 have fractional translation)

   Cartesian axes

     site n.     atom                  positions (alat units)
         1           W   tau(   1) = (   0.2365900   0.2962773   0.0126404  )
         2           W   tau(   2) = (   0.7634100   0.7193854   0.9850226  )
         3           W   tau(   3) = (   0.2634100   0.2115540   0.5114719  )
         4           W   tau(   4) = (   0.7365900   0.8041086   0.4861911  )
         5           W   tau(   5) = (   0.7634100   0.2962773   0.4861911  )
         6           W   tau(   6) = (   0.2365900   0.7193854   0.5114719  )
         7           W   tau(   7) = (   0.7365900   0.2115540   0.9850226  )
         8           W   tau(   8) = (   0.2634100   0.8041086   0.0126404  )
         9           O   tau(   9) = (   0.2252600   0.0273776   0.0039308  )
        10           O   tau(  10) = (   0.7747400   0.9882851   0.9937322  )
        11           O   tau(  11) = (   0.2747400   0.4804537   0.5027623  )
        12           O   tau(  12) = (   0.7252600   0.5352089   0.4949007  )
        13           O   tau(  13) = (   0.7747400   0.0273776   0.4949007  )
        14           O   tau(  14) = (   0.2252600   0.9882851   0.5027623  )
        15           O   tau(  15) = (   0.7252600   0.4804537   0.9937322  )
        16           O   tau(  16) = (   0.2747400   0.5352089   0.0039308  )
        17           O   tau(  17) = (   0.5036700   0.2281382   0.4992742  )
        18           O   tau(  18) = (   0.4963300   0.7875245   0.4983888  )
        19           O   tau(  19) = (   0.9963300   0.2796932   0.9981057  )
        20           O   tau(  20) = (   0.0036700   0.7359695  -0.0004426  )
        21           O   tau(  21) = (   0.4963300   0.2281382  -0.0004426  )
        22           O   tau(  22) = (   0.5036700   0.7875245   0.9981057  )
        23           O   tau(  23) = (   0.0036700   0.2796932   0.4983888  )
        24           O   tau(  24) = (   0.9963300   0.7359695   0.4992742  )
        25           O   tau(  25) = (   0.7504438   0.2482889   0.7427003  )
        26           O   tau(  26) = (   0.2495563   0.7673738   0.2549627  )
        27           O   tau(  27) = (   0.7495563   0.2595425   0.2438688  )
        28           O   tau(  28) = (   0.2504438   0.7561202   0.7537942  )
        29           O   tau(  29) = (   0.2495563   0.2482889   0.7537942  )
        30           O   tau(  30) = (   0.7504438   0.7673738   0.2438688  )
        31           O   tau(  31) = (   0.2504438   0.2595425   0.2549627  )
        32           O   tau(  32) = (   0.7495563   0.7561202   0.7427003  )

     number of k points=    64  gaussian smearing, width (Ry)=  0.0007
                       cart. coord. in units 2pi/alat
        k(    1) = (   0.0000000   0.0000000   0.0000000), wk =   0.0092593
        k(    2) = (   0.0000000   0.0000000   0.1670571), wk =   0.0185185
        k(    3) = (   0.0000000   0.0000000   0.3341142), wk =   0.0185185
        k(    4) = (   0.0000000   0.0000000  -0.5011712), wk =   0.0092593
        k(    5) = (   0.0000000   0.1640965   0.0000000), wk =   0.0185185
        k(    6) = (   0.0000000   0.1640965   0.1670571), wk =   0.0370370
        k(    7) = (   0.0000000   0.1640965   0.3341142), wk =   0.0370370
        k(    8) = (   0.0000000   0.1640965  -0.5011712), wk =   0.0185185
        k(    9) = (   0.0000000   0.3281929   0.0000000), wk =   0.0185185
        k(   10) = (   0.0000000   0.3281929   0.1670571), wk =   0.0370370
        k(   11) = (   0.0000000   0.3281929   0.3341142), wk =   0.0370370
        k(   12) = (   0.0000000   0.3281929  -0.5011712), wk =   0.0185185
        k(   13) = (   0.0000000  -0.4922894   0.0000000), wk =   0.0092593
        k(   14) = (   0.0000000  -0.4922894   0.1670571), wk =   0.0185185
        k(   15) = (   0.0000000  -0.4922894   0.3341142), wk =   0.0185185
        k(   16) = (   0.0000000  -0.4922894  -0.5011712), wk =   0.0092593
        k(   17) = (   0.1666667   0.0000000   0.0000000), wk =   0.0185185
        k(   18) = (   0.1666667   0.0000000   0.1670571), wk =   0.0370370
        k(   19) = (   0.1666667   0.0000000   0.3341142), wk =   0.0370370
        k(   20) = (   0.1666667   0.0000000  -0.5011712), wk =   0.0185185
        k(   21) = (   0.1666667   0.1640965   0.0000000), wk =   0.0370370
        k(   22) = (   0.1666667   0.1640965   0.1670571), wk =   0.0740741
        k(   23) = (   0.1666667   0.1640965   0.3341142), wk =   0.0740741
        k(   24) = (   0.1666667   0.1640965  -0.5011712), wk =   0.0370370
        k(   25) = (   0.1666667   0.3281929   0.0000000), wk =   0.0370370
        k(   26) = (   0.1666667   0.3281929   0.1670571), wk =   0.0740741
        k(   27) = (   0.1666667   0.3281929   0.3341142), wk =   0.0740741
        k(   28) = (   0.1666667   0.3281929  -0.5011712), wk =   0.0370370
        k(   29) = (   0.1666667  -0.4922894   0.0000000), wk =   0.0185185
        k(   30) = (   0.1666667  -0.4922894   0.1670571), wk =   0.0370370
        k(   31) = (   0.1666667  -0.4922894   0.3341142), wk =   0.0370370
        k(   32) = (   0.1666667  -0.4922894  -0.5011712), wk =   0.0185185
        k(   33) = (   0.3333333   0.0000000   0.0000000), wk =   0.0185185
        k(   34) = (   0.3333333   0.0000000   0.1670571), wk =   0.0370370
        k(   35) = (   0.3333333   0.0000000   0.3341142), wk =   0.0370370
        k(   36) = (   0.3333333   0.0000000  -0.5011712), wk =   0.0185185
        k(   37) = (   0.3333333   0.1640965   0.0000000), wk =   0.0370370
        k(   38) = (   0.3333333   0.1640965   0.1670571), wk =   0.0740741
        k(   39) = (   0.3333333   0.1640965   0.3341142), wk =   0.0740741
        k(   40) = (   0.3333333   0.1640965  -0.5011712), wk =   0.0370370
        k(   41) = (   0.3333333   0.3281929   0.0000000), wk =   0.0370370
        k(   42) = (   0.3333333   0.3281929   0.1670571), wk =   0.0740741
        k(   43) = (   0.3333333   0.3281929   0.3341142), wk =   0.0740741
        k(   44) = (   0.3333333   0.3281929  -0.5011712), wk =   0.0370370
        k(   45) = (   0.3333333  -0.4922894   0.0000000), wk =   0.0185185
        k(   46) = (   0.3333333  -0.4922894   0.1670571), wk =   0.0370370
        k(   47) = (   0.3333333  -0.4922894   0.3341142), wk =   0.0370370
        k(   48) = (   0.3333333  -0.4922894  -0.5011712), wk =   0.0185185
        k(   49) = (  -0.5000000   0.0000000   0.0000000), wk =   0.0092593
        k(   50) = (  -0.5000000   0.0000000   0.1670571), wk =   0.0185185
        k(   51) = (  -0.5000000   0.0000000   0.3341142), wk =   0.0185185
        k(   52) = (  -0.5000000   0.0000000  -0.5011712), wk =   0.0092593
        k(   53) = (  -0.5000000   0.1640965   0.0000000), wk =   0.0185185
        k(   54) = (  -0.5000000   0.1640965   0.1670571), wk =   0.0370370
        k(   55) = (  -0.5000000   0.1640965   0.3341142), wk =   0.0370370
        k(   56) = (  -0.5000000   0.1640965  -0.5011712), wk =   0.0185185
        k(   57) = (  -0.5000000   0.3281929   0.0000000), wk =   0.0185185
        k(   58) = (  -0.5000000   0.3281929   0.1670571), wk =   0.0370370
        k(   59) = (  -0.5000000   0.3281929   0.3341142), wk =   0.0370370
        k(   60) = (  -0.5000000   0.3281929  -0.5011712), wk =   0.0185185
        k(   61) = (  -0.5000000  -0.4922894   0.0000000), wk =   0.0092593
        k(   62) = (  -0.5000000  -0.4922894   0.1670571), wk =   0.0185185
        k(   63) = (  -0.5000000  -0.4922894   0.3341142), wk =   0.0185185
        k(   64) = (  -0.5000000  -0.4922894  -0.5011712), wk =   0.0092593

     Initial potential from superposition of free atoms

     starting charge  367.99656, renormalised to  368.60000
     Starting wfcs are  232 randomized atomic wfcs

     Self-consistent Calculation

     iteration #  1     ecut=   120.00 Ry     beta= 0.70
     Davidson diagonalization with overlap
     ethr =  1.00E-02,  avg # of iterations =  5.1

     total energy              =   -6253.20012822 Ry
     Harris-Foulkes estimate   =   -6264.23916617 Ry
     estimated scf accuracy    <      13.89721122 Ry

[...]

     total energy              =   -6260.59489495 Ry
     Harris-Foulkes estimate   =   -6260.59489496 Ry
     estimated scf accuracy    <       0.00000003 Ry

     iteration # 13     ecut=   120.00 Ry     beta= 0.70
     Davidson diagonalization with overlap
     ethr =  7.78E-12,  avg # of iterations =  2.6

     End of self-consistent calculation

          k = 0.0000 0.0000 0.0000 ( 62837 PWs)   bands (ev):

   -66.1722 -66.1716 -66.1716 -66.1716 -66.1710 -66.1710 -66.1710 -66.1704
   -30.5669 -30.5626 -30.5511 -30.5465 -30.5461 -30.5428 -30.5322 -30.5219
   -30.5197 -30.5162 -30.5101 -30.5025 -30.4866 -30.4832 -30.4639 -30.4616
   -30.4607 -30.4526 -30.4505 -30.4380 -30.4302 -30.4285 -30.4249 -30.4213
   -20.3264 -20.3262 -20.3260 -20.3258 -20.3258 -20.3258 -20.3254 -20.3253
   -20.3175 -20.3175 -20.3174 -20.3174 -20.3167 -20.3167 -20.3167 -20.3167
   -20.3095 -20.3093 -20.3089 -20.3087 -20.3046 -20.3045 -20.3039 -20.3039
   -20.3032 -20.3030 -20.3030 -20.3029 -20.2998 -20.2991 -20.2984 -20.2983
   -20.2979 -20.2976 -20.2972 -20.2972 -20.2970 -20.2966 -20.2961 -20.2961
   -20.2953 -20.2949 -20.2946 -20.2945 -20.2902 -20.2898 -20.2897 -20.2892
   -20.2835 -20.2834 -20.2830 -20.2829 -20.2825 -20.2825 -20.2821 -20.2820
   -10.0723  -9.6930  -9.6872  -9.6519  -9.2953  -9.2728  -9.2670  -8.9934
    -8.9600  -8.9004  -8.8967  -8.8959  -7.9889  -7.9058  -7.8983  -7.8522
    -7.8507  -7.8350  -7.8307  -7.8137  -7.7565  -7.7314  -7.7064  -7.6920
     1.1779   1.1820   1.1821   1.2200   1.2393   1.2693   1.3380   1.3597
     1.3653   1.4363   1.4758   1.5739   2.3564   2.3877   2.4165   2.4617
     2.4701   2.5974   3.9957   4.0857   4.1738   4.2968   4.5413   4.5744
     4.6049   4.6335   4.6445   4.7320   4.7816   4.8067   5.1305   5.4618
     5.4735   5.4910   5.5229   5.6002   5.6099   5.7007   5.7607   5.7961
     5.8112   5.8186   5.8888   5.9218   5.9383   5.9452   6.0647   6.0879
     6.1344   6.3517   6.3560   6.3855   6.3901   6.6254   6.6507   6.6925
     6.7021   6.7068   6.9918   6.9961   7.0244   7.0314   7.0465   7.0608
     7.1002   7.1024   8.0855   8.1310   8.2647   8.2863   8.3136   8.3401
     9.3353   9.3476   9.6467   9.7345   9.7886   9.8938  12.4364  12.5156
    12.5306  12.6067  12.6460  12.6541  12.6727  12.7318  12.7367  12.8217
    13.1196  13.1705  13.2080  13.3739  13.8224  13.9043  13.9999  14.0172
    14.1035  14.1056  14.4025  14.6125  14.7177  14.7255  15.3071  15.4534
    15.7183  16.3241  16.8330  16.9272  16.9643

[...]

          k = 0.3333-0.4923-0.5012 ( 62788 PWs)   bands (ev):

[...]

          k =-0.5000 0.0000 0.0000 ( 62746 PWs)   bands (ev):

[...]

          k =-0.5000-0.4923-0.5012 ( 62760 PWs)   bands (ev):

   -66.1713 -66.1713 -66.1713 -66.1713 -66.1713 -66.1713 -66.1713 -66.1713
   -30.5273 -30.5273 -30.5273 -30.5273 -30.5253 -30.5253 -30.5253 -30.5253
   -30.4932 -30.4932 -30.4932 -30.4932 -30.4915 -30.4915 -30.4914 -30.4914
   -30.4602 -30.4602 -30.4602 -30.4602 -30.4590 -30.4590 -30.4590 -30.4590
   -20.3259 -20.3259 -20.3259 -20.3259 -20.3258 -20.3258 -20.3258 -20.3258
   -20.3173 -20.3173 -20.3173 -20.3173 -20.3172 -20.3172 -20.3172 -20.3172
   -20.3066 -20.3066 -20.3066 -20.3066 -20.3065 -20.3065 -20.3065 -20.3065
   -20.3004 -20.3004 -20.3004 -20.3004 -20.3003 -20.3003 -20.3003 -20.3003
   -20.2977 -20.2977 -20.2977 -20.2977 -20.2976 -20.2976 -20.2976 -20.2976
   -20.2924 -20.2924 -20.2924 -20.2924 -20.2923 -20.2923 -20.2923 -20.2923
   -20.2828 -20.2828 -20.2828 -20.2828 -20.2828 -20.2827 -20.2827 -20.2827
    -9.0941  -9.0941  -9.0941  -9.0941  -9.0593  -9.0593  -9.0593  -9.0593
    -8.4759  -8.4759  -8.4759  -8.4759  -8.4544  -8.4544  -8.4544  -8.4544
    -8.3927  -8.3927  -8.3927  -8.3927  -8.3443  -8.3443  -8.3442  -8.3442
     2.6865   2.6865   2.6865   2.6865   2.8061   2.8061   2.8061   2.8061
     2.9380   2.9380   2.9380   2.9381   3.1167   3.1167   3.1168   3.1168
     3.2228   3.2229   3.2229   3.2229   3.3772   3.3772   3.3772   3.3772
     4.0903   4.0903   4.0903   4.0903   4.1634   4.1634   4.1634   4.1634
     4.2588   4.2588   4.2588   4.2588   4.3202   4.3202   4.3202   4.3202
     4.4469   4.4469   4.4469   4.4469   4.5390   4.5390   4.5390   4.5390
     7.1065   7.1065   7.1065   7.1065   7.2331   7.2331   7.2331   7.2331
     7.3123   7.3124   7.3124   7.3124   7.3992   7.3992   7.3992   7.3992
     7.5345   7.5345   7.5345   7.5345   7.6163   7.6163   7.6163   7.6163
    11.8236  11.8236  11.8236  11.8236  11.9538  11.9538  11.9538  11.9538
    12.1408  12.1408  12.1408  12.1408  12.2316  12.2316  12.2316  12.2316
    12.3321  12.3321  12.3321  12.3321  12.4326  12.4326  12.4326  12.4326
    16.7302  16.7303  16.7303  16.7303  16.9090  16.9090  16.9090  16.9090
    17.3611  17.3611  17.3611  17.3612  17.4255

     the Fermi energy is     9.6921 ev

!    total energy              =   -6260.59489495 Ry
     Harris-Foulkes estimate   =   -6260.59489495 Ry
     estimated scf accuracy    <          1.4E-09 Ry

     The total energy is the sum of the following terms:

     one-electron contribution =   -4759.27489823 Ry
     hartree contribution      =    2616.52407273 Ry
     xc contribution           =    -966.36709662 Ry
     ewald contribution        =   -3151.47696201 Ry
     smearing contrib. (-TS)   =      -0.00001083 Ry

     convergence has been achieved in  13 iterations

     Writing output data file chempot_6.save/

     General routines

     Parallel routines

   This run was terminated on:  17: 7: 6  17Dec2019

   JOB DONE.