     Program PWSCF v.6.4.1 starts on 16Dec2019 at 17: 3: 2

     K-points division:     npool     =      40
     Reading input from scf.in

     Current dimensions of program PWSCF are:
     Max number of different atomic species (ntypx) = 10
     Max number of k-points (npk) =  40000
     Max angular momentum in pseudopotentials (lmaxx) =  3

     Subspace diagonalization in iterative solution of the eigenvalue problem:
     a serial algorithm will be used

     Message from routine setup:
     using ibrav=0 with symmetry is DISCOURAGED, use correct ibrav instead

     bravais-lattice index     =            0
     lattice parameter (alat)  =      14.0732  a.u.
     unit-cell volume          =    2837.1936 (a.u.)^3
     number of atoms/cell      =           32
     number of atomic types    =            2
     number of electrons       =       368.40
     number of Kohn-Sham states=          221
     kinetic-energy cutoff     =     120.0000  Ry
     charge density cutoff     =     480.0000  Ry
     convergence threshold     =      1.0E-08
     mixing beta               =       0.7000
     number of iterations used =            8  plain     mixing
     Exchange-correlation      = SLA PW NOGX NOGC ( 1  4  0  0 0 0)

     celldm(1)=  14.073194  celldm(2)=   0.000000  celldm(3)=   0.000000
     celldm(4)=   0.000000  celldm(5)=   0.000000  celldm(6)=   0.000000

     crystal axes: (cart. coord. in units of alat)
               a(1) = (   1.000000   0.000000   0.000000 )
               a(2) = (   0.000000   1.019270   0.000000 )
               a(3) = (   0.000000   0.000000   0.998669 )

     reciprocal axes: (cart. coord. in units 2 pi/alat)
               b(1) = (  1.000000  0.000000  0.000000 )
               b(2) = (  0.000000  0.981094  0.000000 )
               b(3) = (  0.000000  0.000000  1.001332 )

     PseudoPot. # 1 for W  read from file:
     /cluster/scratch/mnoe/QE/pps/W_ONCV_LDA-4.0.upf
     MD5 check sum: ba0307d5d4cd419d6f1d13dc49d7c13a
     Pseudo is Norm-conserving + core correction, Zval = 28.0
     Generated using ONCVPSP code by D. R. Hamann
     Using radial grid of 1380 points,  8 beta functions with:
                l(1) =   0
                l(2) =   0
                l(3) =   1
                l(4) =   1
                l(5) =   2
                l(6) =   2
                l(7) =   3
                l(8) =   3

     PseudoPot. # 2 for O  read from file:
     /cluster/scratch/mnoe/QE/pps/O_ONCV_LDA-3.0.upf
     MD5 check sum: b55cdb4f45ae2203d24ad12cf8d61a31
     Pseudo is Norm-conserving + core correction, Zval =  6.0
     Generated using ONCVPSP code by D. R. Hamann
     Using radial grid of  926 points,  5 beta functions with:
                l(1) =   0
                l(2) =   0
                l(3) =   1
                l(4) =   1
                l(5) =   2

     atomic species   valence    mass     pseudopotential
        W             28.00   183.84000     W ( 1.00)
        O              6.00    15.99940     O ( 1.00)

      8 Sym. Ops., with inversion, found ( 6 have fractional translation)

   Cartesian axes

     site n.     atom                  positions (alat units)
         1           W   tau(   1) = (   0.2379800   0.2962912   0.0113449  )
         2           W   tau(   2) = (   0.7620200   0.7229788   0.9873245  )
         3           W   tau(   3) = (   0.2620200   0.2133438   0.5106795  )
         4           W   tau(   4) = (   0.7379800   0.8059261   0.4879898  )
         5           W   tau(   5) = (   0.7620200   0.2962912   0.4879898  )
         6           W   tau(   6) = (   0.2379800   0.7229788   0.5106795  )
         7           W   tau(   7) = (   0.7379800   0.2133438   0.9873245  )
         8           W   tau(   8) = (   0.2620200   0.8059261   0.0113449  )
         9           O   tau(   9) = (   0.2278200   0.0255099   0.0035253  )
        10           O   tau(  10) = (   0.7721800   0.9937601   0.9951440  )
        11           O   tau(  11) = (   0.2721800   0.4841251   0.5028600  )
        12           O   tau(  12) = (   0.7278200   0.5351449   0.4958094  )
        13           O   tau(  13) = (   0.7721800   0.0255099   0.4958094  )
        14           O   tau(  14) = (   0.2278200   0.9937601   0.5028600  )
        15           O   tau(  15) = (   0.7278200   0.4841251   0.9951440  )
        16           O   tau(  16) = (   0.2721800   0.5351449   0.0035253  )
        17           O   tau(  17) = (   0.5032900   0.2316189   0.4945189  )
        18           O   tau(  18) = (   0.4967100   0.7876511   0.5041505  )
        19           O   tau(  19) = (   0.9967100   0.2780161   0.9938536  )
        20           O   tau(  20) = (   0.0032899   0.7412538   0.0048158  )
        21           O   tau(  21) = (   0.4967100   0.2316189   0.0048158  )
        22           O   tau(  22) = (   0.5032900   0.7876511   0.9938536  )
        23           O   tau(  23) = (   0.0032899   0.2780161   0.5041505  )
        24           O   tau(  24) = (   0.9967100   0.7412538   0.4945189  )
        25           O   tau(  25) = (   0.7451779   0.2497517   0.7440187  )
        26           O   tau(  26) = (   0.2548222   0.7695183   0.2546507  )
        27           O   tau(  27) = (   0.7548222   0.2598833   0.2446840  )
        28           O   tau(  28) = (   0.2451779   0.7593867   0.7539854  )
        29           O   tau(  29) = (   0.2548222   0.2497517   0.7539854  )
        30           O   tau(  30) = (   0.7451779   0.7695183   0.2446840  )
        31           O   tau(  31) = (   0.2451779   0.2598833   0.2546507  )
        32           O   tau(  32) = (   0.7548222   0.7593867   0.7440187  )

     number of k points=    64  gaussian smearing, width (Ry)=  0.0007
                       cart. coord. in units 2pi/alat
        k(    1) = (   0.0000000   0.0000000   0.0000000), wk =   0.0092593
        k(    2) = (   0.0000000   0.0000000   0.1668887), wk =   0.0185185
        k(    3) = (   0.0000000   0.0000000   0.3337775), wk =   0.0185185
        k(    4) = (   0.0000000   0.0000000  -0.5006662), wk =   0.0092593
        k(    5) = (   0.0000000   0.1635157   0.0000000), wk =   0.0185185
        k(    6) = (   0.0000000   0.1635157   0.1668887), wk =   0.0370370
        k(    7) = (   0.0000000   0.1635157   0.3337775), wk =   0.0370370
        k(    8) = (   0.0000000   0.1635157  -0.5006662), wk =   0.0185185
        k(    9) = (   0.0000000   0.3270314   0.0000000), wk =   0.0185185
        k(   10) = (   0.0000000   0.3270314   0.1668887), wk =   0.0370370
        k(   11) = (   0.0000000   0.3270314   0.3337775), wk =   0.0370370
        k(   12) = (   0.0000000   0.3270314  -0.5006662), wk =   0.0185185
        k(   13) = (   0.0000000  -0.4905472   0.0000000), wk =   0.0092593
        k(   14) = (   0.0000000  -0.4905472   0.1668887), wk =   0.0185185
        k(   15) = (   0.0000000  -0.4905472   0.3337775), wk =   0.0185185
        k(   16) = (   0.0000000  -0.4905472  -0.5006662), wk =   0.0092593
        k(   17) = (   0.1666667   0.0000000   0.0000000), wk =   0.0185185
        k(   18) = (   0.1666667   0.0000000   0.1668887), wk =   0.0370370
        k(   19) = (   0.1666667   0.0000000   0.3337775), wk =   0.0370370
        k(   20) = (   0.1666667   0.0000000  -0.5006662), wk =   0.0185185
        k(   21) = (   0.1666667   0.1635157   0.0000000), wk =   0.0370370
        k(   22) = (   0.1666667   0.1635157   0.1668887), wk =   0.0740741
        k(   23) = (   0.1666667   0.1635157   0.3337775), wk =   0.0740741
        k(   24) = (   0.1666667   0.1635157  -0.5006662), wk =   0.0370370
        k(   25) = (   0.1666667   0.3270314   0.0000000), wk =   0.0370370
        k(   26) = (   0.1666667   0.3270314   0.1668887), wk =   0.0740741
        k(   27) = (   0.1666667   0.3270314   0.3337775), wk =   0.0740741
        k(   28) = (   0.1666667   0.3270314  -0.5006662), wk =   0.0370370
        k(   29) = (   0.1666667  -0.4905472   0.0000000), wk =   0.0185185
        k(   30) = (   0.1666667  -0.4905472   0.1668887), wk =   0.0370370
        k(   31) = (   0.1666667  -0.4905472   0.3337775), wk =   0.0370370
        k(   32) = (   0.1666667  -0.4905472  -0.5006662), wk =   0.0185185
        k(   33) = (   0.3333333   0.0000000   0.0000000), wk =   0.0185185
        k(   34) = (   0.3333333   0.0000000   0.1668887), wk =   0.0370370
        k(   35) = (   0.3333333   0.0000000   0.3337775), wk =   0.0370370
        k(   36) = (   0.3333333   0.0000000  -0.5006662), wk =   0.0185185
        k(   37) = (   0.3333333   0.1635157   0.0000000), wk =   0.0370370
        k(   38) = (   0.3333333   0.1635157   0.1668887), wk =   0.0740741
        k(   39) = (   0.3333333   0.1635157   0.3337775), wk =   0.0740741
        k(   40) = (   0.3333333   0.1635157  -0.5006662), wk =   0.0370370
        k(   41) = (   0.3333333   0.3270314   0.0000000), wk =   0.0370370
        k(   42) = (   0.3333333   0.3270314   0.1668887), wk =   0.0740741
        k(   43) = (   0.3333333   0.3270314   0.3337775), wk =   0.0740741
        k(   44) = (   0.3333333   0.3270314  -0.5006662), wk =   0.0370370
        k(   45) = (   0.3333333  -0.4905472   0.0000000), wk =   0.0185185
        k(   46) = (   0.3333333  -0.4905472   0.1668887), wk =   0.0370370
        k(   47) = (   0.3333333  -0.4905472   0.3337775), wk =   0.0370370
        k(   48) = (   0.3333333  -0.4905472  -0.5006662), wk =   0.0185185
        k(   49) = (  -0.5000000   0.0000000   0.0000000), wk =   0.0092593
        k(   50) = (  -0.5000000   0.0000000   0.1668887), wk =   0.0185185
        k(   51) = (  -0.5000000   0.0000000   0.3337775), wk =   0.0185185
        k(   52) = (  -0.5000000   0.0000000  -0.5006662), wk =   0.0092593
        k(   53) = (  -0.5000000   0.1635157   0.0000000), wk =   0.0185185
        k(   54) = (  -0.5000000   0.1635157   0.1668887), wk =   0.0370370
        k(   55) = (  -0.5000000   0.1635157   0.3337775), wk =   0.0370370
        k(   56) = (  -0.5000000   0.1635157  -0.5006662), wk =   0.0185185
        k(   57) = (  -0.5000000   0.3270314   0.0000000), wk =   0.0185185
        k(   58) = (  -0.5000000   0.3270314   0.1668887), wk =   0.0370370
        k(   59) = (  -0.5000000   0.3270314   0.3337775), wk =   0.0370370
        k(   60) = (  -0.5000000   0.3270314  -0.5006662), wk =   0.0185185
        k(   61) = (  -0.5000000  -0.4905472   0.0000000), wk =   0.0092593
        k(   62) = (  -0.5000000  -0.4905472   0.1668887), wk =   0.0185185
        k(   63) = (  -0.5000000  -0.4905472   0.3337775), wk =   0.0185185
        k(   64) = (  -0.5000000  -0.4905472  -0.5006662), wk =   0.0092593

     Initial potential from superposition of free atoms

     starting charge  367.99656, renormalised to  368.40000
     Starting wfcs are  232 randomized atomic wfcs

     Self-consistent Calculation

     iteration #  1     ecut=   120.00 Ry     beta= 0.70
     Davidson diagonalization with overlap
     ethr =  1.00E-02,  avg # of iterations =  5.1

     total energy              =   -6253.41900948 Ry
     Harris-Foulkes estimate   =   -6264.36077158 Ry
     estimated scf accuracy    <      13.79960498 Ry

[...]

     total energy              =   -6260.75718284 Ry
     Harris-Foulkes estimate   =   -6260.75718286 Ry
     estimated scf accuracy    <       0.00000003 Ry

     iteration # 13     ecut=   120.00 Ry     beta= 0.70
     Davidson diagonalization with overlap
     ethr =  8.08E-12,  avg # of iterations =  2.6

     End of self-consistent calculation

          k = 0.0000 0.0000 0.0000 ( 62907 PWs)   bands (ev):

   -66.2567 -66.2561 -66.2560 -66.2560 -66.2555 -66.2554 -66.2554 -66.2548
   -30.6405 -30.6363 -30.6257 -30.6231 -30.6217 -30.6178 -30.6130 -30.6048
   -30.6014 -30.6011 -30.5939 -30.5876 -30.5604 -30.5579 -30.5452 -30.5373
   -30.5370 -30.5353 -30.5305 -30.5192 -30.5158 -30.5144 -30.5099 -30.5058
   -20.4149 -20.4148 -20.4147 -20.4146 -20.4143 -20.4141 -20.4141 -20.4140
   -20.4026 -20.4025 -20.4025 -20.4024 -20.4022 -20.4021 -20.4020 -20.4020
   -20.3937 -20.3934 -20.3928 -20.3924 -20.3914 -20.3912 -20.3911 -20.3906
   -20.3890 -20.3884 -20.3884 -20.3882 -20.3875 -20.3874 -20.3874 -20.3871
   -20.3866 -20.3865 -20.3859 -20.3858 -20.3849 -20.3846 -20.3839 -20.3837
   -20.3835 -20.3834 -20.3832 -20.3830 -20.3792 -20.3788 -20.3786 -20.3782
   -20.3724 -20.3723 -20.3721 -20.3721 -20.3714 -20.3714 -20.3712 -20.3711
   -10.1139  -9.7350  -9.7330  -9.7099  -9.3576  -9.3339  -9.3108  -9.0601
    -9.0290  -8.9602  -8.9596  -8.9552  -8.0137  -7.9317  -7.9299  -7.8958
    -7.8953  -7.8758  -7.8631  -7.8607  -7.8208  -7.7920  -7.7723  -7.7575
     1.0950   1.0964   1.1245   1.1525   1.1748   1.1929   1.2684   1.2989
     1.3143   1.3682   1.4029   1.5139   2.3267   2.3478   2.3876   2.4199
     2.4216   2.5413   3.9648   4.0391   4.1387   4.2432   4.4981   4.5292
     4.5535   4.5890   4.6011   4.6971   4.7267   4.7408   5.0625   5.4202
     5.4292   5.4527   5.4574   5.5377   5.5491   5.6259   5.7052   5.7262
     5.7802   5.7897   5.8399   5.8482   5.8679   5.8841   6.0499   6.0592
     6.0728   6.2862   6.3186   6.3387   6.3395   6.5701   6.5933   6.6397
     6.6442   6.6591   6.9787   6.9797   6.9877   6.9983   7.0120   7.0220
     7.0393   7.0427   8.0580   8.0952   8.2247   8.2339   8.2442   8.2574
     9.1985   9.2152   9.5897   9.6489   9.7255   9.8022  12.3791  12.4561
    12.4746  12.5243  12.5420  12.5732  12.6127  12.6291  12.6920  12.8765
    13.0923  13.1341  13.2381  13.3933  13.6970  13.8503  13.9394  14.0176
    14.0208  14.0584  14.3432  14.5676  14.5860  14.6116  15.2815  15.4026
    15.6196  16.3092  16.8036  16.8825  16.9401

[...]

          k = 0.3333-0.4905-0.5007 ( 62948 PWs)   bands (ev):

[...]

          k =-0.5000 0.0000 0.0000 ( 62938 PWs)   bands (ev):

[...]

          k =-0.5000-0.4905-0.5007 ( 62904 PWs)   bands (ev):

   -66.2557 -66.2557 -66.2557 -66.2557 -66.2557 -66.2557 -66.2557 -66.2557
   -30.6017 -30.6017 -30.6017 -30.6017 -30.5997 -30.5997 -30.5997 -30.5997
   -30.5735 -30.5735 -30.5735 -30.5735 -30.5719 -30.5719 -30.5719 -30.5719
   -30.5449 -30.5449 -30.5449 -30.5449 -30.5435 -30.5435 -30.5435 -30.5435
   -20.4145 -20.4145 -20.4145 -20.4145 -20.4144 -20.4144 -20.4144 -20.4144
   -20.4024 -20.4024 -20.4024 -20.4024 -20.4024 -20.4024 -20.4024 -20.4023
   -20.3908 -20.3908 -20.3908 -20.3908 -20.3905 -20.3905 -20.3905 -20.3905
   -20.3884 -20.3884 -20.3884 -20.3884 -20.3883 -20.3883 -20.3883 -20.3883
   -20.3861 -20.3861 -20.3861 -20.3861 -20.3859 -20.3859 -20.3859 -20.3859
   -20.3813 -20.3813 -20.3813 -20.3813 -20.3813 -20.3813 -20.3812 -20.3812
   -20.3718 -20.3718 -20.3718 -20.3717 -20.3717 -20.3717 -20.3717 -20.3717
    -9.1339  -9.1339  -9.1339  -9.1339  -9.1041  -9.1041  -9.1041  -9.1041
    -8.5286  -8.5285  -8.5285  -8.5285  -8.5092  -8.5092  -8.5091  -8.5091
    -8.4513  -8.4513  -8.4513  -8.4513  -8.4062  -8.4062  -8.4062  -8.4062
     2.6543   2.6543   2.6543   2.6543   2.7761   2.7761   2.7761   2.7762
     2.8750   2.8750   2.8750   2.8750   3.0525   3.0525   3.0525   3.0525
     3.1758   3.1758   3.1758   3.1758   3.3250   3.3250   3.3250   3.3251
     4.0371   4.0371   4.0371   4.0371   4.1023   4.1023   4.1023   4.1023
     4.2113   4.2113   4.2113   4.2113   4.2677   4.2677   4.2677   4.2677
     4.3876   4.3876   4.3876   4.3876   4.4717   4.4717   4.4717   4.4717
     7.0601   7.0601   7.0601   7.0601   7.1922   7.1922   7.1922   7.1922
     7.2492   7.2492   7.2492   7.2493   7.3321   7.3321   7.3321   7.3321
     7.4832   7.4832   7.4832   7.4832   7.5598   7.5598   7.5598   7.5598
    11.7544  11.7544  11.7544  11.7544  11.8657  11.8657  11.8657  11.8657
    12.0726  12.0726  12.0726  12.0726  12.1891  12.1891  12.1891  12.1891
    12.2666  12.2666  12.2666  12.2666  12.3754  12.3754  12.3754  12.3754
    16.7263  16.7263  16.7263  16.7264  16.8784  16.8785  16.8785  16.8785
    17.3477  17.3477  17.3477  17.3477  17.4328

     the Fermi energy is     9.5410 ev

!    total energy              =   -6260.75718285 Ry
     Harris-Foulkes estimate   =   -6260.75718285 Ry
     estimated scf accuracy    <          1.1E-09 Ry

     The total energy is the sum of the following terms:

     one-electron contribution =   -4769.01598887 Ry
     hartree contribution      =    2620.26105138 Ry
     xc contribution           =    -966.14954348 Ry
     ewald contribution        =   -3145.85267044 Ry
     smearing contrib. (-TS)   =      -0.00003144 Ry

     convergence has been achieved in  13 iterations

     Writing output data file chempot_4.save/

     General routines

     Parallel routines

   This run was terminated on:  17:35:14  16Dec2019

   JOB DONE.