     Program PWSCF v.6.2 (svn rev. 14038) starts on 11Mar2020 at  7:35:48

     K-points division:     npool     =      40
     Reading input from rscf.in

     Current dimensions of program PWSCF are:
     Max number of different atomic species (ntypx) = 10
     Max number of k-points (npk) =  40000
     Max angular momentum in pseudopotentials (lmaxx) =  3

     Subspace diagonalization in iterative solution of the eigenvalue problem:
     a serial algorithm will be used

     bravais-lattice index     =            0
     lattice parameter (alat)  =      13.8397  a.u.
     unit-cell volume          =    2804.9816 (a.u.)^3
     number of atoms/cell      =           32
     number of atomic types    =            2
     number of electrons       =       368.00
     number of Kohn-Sham states=          221
     kinetic-energy cutoff     =     120.0000  Ry
     charge density cutoff     =     480.0000  Ry
     convergence threshold     =      1.0E-08
     mixing beta               =       0.7000
     number of iterations used =            8  plain     mixing
     Exchange-correlation      = SLA PW NOGX NOGC ( 1  4  0  0 0 0)
     nstep                     =           50

     celldm(1)=  13.839685  celldm(2)=   0.000000  celldm(3)=   0.000000
     celldm(4)=   0.000000  celldm(5)=   0.000000  celldm(6)=   0.000000

     crystal axes: (cart. coord. in units of alat)
               a(1) = (   1.000000   0.000000   0.000000 )
               a(2) = (   0.000000   1.058160   0.000000 )
               a(3) = (   0.000000   0.000000   1.000000 )

     reciprocal axes: (cart. coord. in units 2 pi/alat)
               b(1) = (  1.000000  0.000000  0.000000 )
               b(2) = (  0.000000  0.945037  0.000000 )
               b(3) = (  0.000000  0.000000  1.000000 )

     PseudoPot. # 1 for W  read from file:
     /cluster/scratch/mnoe/QE/pps/W_ONCV_LDA-4.0.upf
     MD5 check sum: ba0307d5d4cd419d6f1d13dc49d7c13a
     Pseudo is Norm-conserving + core correction, Zval = 28.0
     Generated using ONCVPSP code by D. R. Hamann
     Using radial grid of 1380 points,  8 beta functions with:
                l(1) =   0
                l(2) =   0
                l(3) =   1
                l(4) =   1
                l(5) =   2
                l(6) =   2
                l(7) =   3
                l(8) =   3

     PseudoPot. # 2 for O  read from file:
     /cluster/scratch/mnoe/QE/pps/O_ONCV_LDA-3.0.upf
     MD5 check sum: a1bd6164e7280c17a38c229939bfbd54
     Pseudo is Norm-conserving + core correction, Zval =  6.0
     Generated using ONCVPSP code by D. R. Hamann
     Using radial grid of  926 points,  5 beta functions with:
                l(1) =   0
                l(2) =   0
                l(3) =   1
                l(4) =   1
                l(5) =   2

     atomic species   valence    mass     pseudopotential
        W             28.00   183.84000     W ( 1.00)
        O              6.00    15.99940     O ( 1.00)

      8 Sym. Ops., with inversion, found ( 6 have fractional translation)

   Cartesian axes

     site n.     atom                  positions (alat units)
         1           W   tau(   1) = (   0.2375100   0.2968381   0.0117900  )
         2           W   tau(   2) = (   0.7624900   0.7613220   0.9882100  )
         3           W   tau(   3) = (   0.2624900   0.2322420   0.5117900  )
         4           W   tau(   4) = (   0.7375100   0.8259181   0.4882100  )
         5           W   tau(   5) = (   0.7624900   0.2968381   0.4882100  )
         6           W   tau(   6) = (   0.2375100   0.7613220   0.5117900  )
         7           W   tau(   7) = (   0.7375100   0.2322420   0.9882100  )
         8           W   tau(   8) = (   0.2624900   0.8259181   0.0117900  )
         9           O   tau(   9) = (   0.2269700   0.0084184   0.0036700  )
        10           O   tau(  10) = (   0.7730300   1.0497417   0.9963300  )
        11           O   tau(  11) = (   0.2730300   0.5206616   0.5036700  )
        12           O   tau(  12) = (   0.7269700   0.5374985   0.4963300  )
        13           O   tau(  13) = (   0.7730300   0.0084184   0.4963300  )
        14           O   tau(  14) = (   0.2269700   1.0497417   0.5036700  )
        15           O   tau(  15) = (   0.7269700   0.5206616   0.9963300  )
        16           O   tau(  16) = (   0.2730300   0.5374985   0.0036700  )
        17           O   tau(  17) = (   0.5034100   0.2395357   0.4528096  )
        18           O   tau(  18) = (   0.4965900   0.8186244   0.5471904  )
        19           O   tau(  19) = (   0.9965900   0.2895443   0.9528096  )
        20           O   tau(  20) = (   0.0034100   0.7686157   0.0471904  )
        21           O   tau(  21) = (   0.4965900   0.2395357   0.0471904  )
        22           O   tau(  22) = (   0.5034100   0.8186244   0.9528096  )
        23           O   tau(  23) = (   0.0034100   0.2895443   0.5471904  )
        24           O   tau(  24) = (   0.9965900   0.7686157   0.4528096  )
        25           O   tau(  25) = (   0.7028096   0.2590799   0.7448200  )
        26           O   tau(  26) = (   0.2971904   0.7990801   0.2551800  )
        27           O   tau(  27) = (   0.7971904   0.2700001   0.2448200  )
        28           O   tau(  28) = (   0.2028096   0.7881600   0.7551800  )
        29           O   tau(  29) = (   0.2971904   0.2590799   0.7551800  )
        30           O   tau(  30) = (   0.7028096   0.7990801   0.2448200  )
        31           O   tau(  31) = (   0.2028096   0.2700001   0.2551800  )
        32           O   tau(  32) = (   0.7971904   0.7881600   0.7448200  )

     number of k points=    64  gaussian smearing, width (Ry)=  0.0007
                       cart. coord. in units 2pi/alat
        k(    1) = (   0.0000000   0.0000000   0.0000000), wk =   0.0092593
        k(    2) = (   0.0000000   0.0000000   0.1666667), wk =   0.0185185
        k(    3) = (   0.0000000   0.0000000   0.3333333), wk =   0.0185185
        k(    4) = (   0.0000000   0.0000000  -0.5000000), wk =   0.0092593
        k(    5) = (   0.0000000   0.1575061   0.0000000), wk =   0.0185185
        k(    6) = (   0.0000000   0.1575061   0.1666667), wk =   0.0370370
        k(    7) = (   0.0000000   0.1575061   0.3333333), wk =   0.0370370
        k(    8) = (   0.0000000   0.1575061  -0.5000000), wk =   0.0185185
        k(    9) = (   0.0000000   0.3150122   0.0000000), wk =   0.0185185
        k(   10) = (   0.0000000   0.3150122   0.1666667), wk =   0.0370370
        k(   11) = (   0.0000000   0.3150122   0.3333333), wk =   0.0370370
        k(   12) = (   0.0000000   0.3150122  -0.5000000), wk =   0.0185185
        k(   13) = (   0.0000000  -0.4725183   0.0000000), wk =   0.0092593
        k(   14) = (   0.0000000  -0.4725183   0.1666667), wk =   0.0185185
        k(   15) = (   0.0000000  -0.4725183   0.3333333), wk =   0.0185185
        k(   16) = (   0.0000000  -0.4725183  -0.5000000), wk =   0.0092593
        k(   17) = (   0.1666667   0.0000000   0.1666667), wk =   0.0370370
        k(   18) = (   0.1666667   0.0000000   0.3333333), wk =   0.0370370
        k(   19) = (   0.1666667   0.0000000  -0.5000000), wk =   0.0185185
        k(   20) = (   0.1666667   0.1575061   0.1666667), wk =   0.0740741
        k(   21) = (   0.1666667   0.1575061   0.3333333), wk =   0.0740741
        k(   22) = (   0.1666667   0.1575061  -0.5000000), wk =   0.0370370
        k(   23) = (   0.1666667   0.3150122   0.1666667), wk =   0.0740741
        k(   24) = (   0.1666667   0.3150122   0.3333333), wk =   0.0740741
        k(   25) = (   0.1666667   0.3150122  -0.5000000), wk =   0.0370370
        k(   26) = (   0.1666667  -0.4725183   0.1666667), wk =   0.0370370
        k(   27) = (   0.1666667  -0.4725183   0.3333333), wk =   0.0370370
        k(   28) = (   0.1666667  -0.4725183  -0.5000000), wk =   0.0185185
        k(   29) = (   0.3333333   0.0000000   0.3333333), wk =   0.0370370
        k(   30) = (   0.3333333   0.0000000  -0.5000000), wk =   0.0185185
        k(   31) = (   0.3333333   0.1575061   0.3333333), wk =   0.0740741
        k(   32) = (   0.3333333   0.1575061  -0.5000000), wk =   0.0370370
        k(   33) = (   0.3333333   0.3150122   0.3333333), wk =   0.0740741
        k(   34) = (   0.3333333   0.3150122  -0.5000000), wk =   0.0370370
        k(   35) = (   0.3333333  -0.4725183   0.3333333), wk =   0.0370370
        k(   36) = (   0.3333333  -0.4725183  -0.5000000), wk =   0.0185185
        k(   37) = (  -0.5000000   0.0000000  -0.5000000), wk =   0.0092593
        k(   38) = (  -0.5000000   0.1575061  -0.5000000), wk =   0.0185185
        k(   39) = (  -0.5000000   0.3150122  -0.5000000), wk =   0.0185185
        k(   40) = (  -0.5000000  -0.4725183  -0.5000000), wk =   0.0092593
        k(   41) = (   0.1666667   0.0000000   0.0000000), wk =   0.0185185
        k(   42) = (   0.3333333   0.0000000   0.0000000), wk =   0.0185185
        k(   43) = (  -0.5000000   0.0000000   0.0000000), wk =   0.0092593
        k(   44) = (   0.1666667  -0.1575061   0.0000000), wk =   0.0370370
        k(   45) = (   0.3333333  -0.1575061   0.0000000), wk =   0.0370370
        k(   46) = (  -0.5000000  -0.1575061   0.0000000), wk =   0.0185185
        k(   47) = (   0.1666667  -0.3150122   0.0000000), wk =   0.0370370
        k(   48) = (   0.3333333  -0.3150122   0.0000000), wk =   0.0370370
        k(   49) = (  -0.5000000  -0.3150122   0.0000000), wk =   0.0185185
        k(   50) = (   0.1666667   0.4725183   0.0000000), wk =   0.0185185
        k(   51) = (   0.3333333   0.4725183   0.0000000), wk =   0.0185185
        k(   52) = (  -0.5000000   0.4725183   0.0000000), wk =   0.0092593
        k(   53) = (   0.3333333   0.0000000   0.1666667), wk =   0.0370370
        k(   54) = (  -0.5000000   0.0000000   0.1666667), wk =   0.0185185
        k(   55) = (   0.3333333  -0.1575061   0.1666667), wk =   0.0740741
        k(   56) = (  -0.5000000  -0.1575061   0.1666667), wk =   0.0370370
        k(   57) = (   0.3333333  -0.3150122   0.1666667), wk =   0.0740741
        k(   58) = (  -0.5000000  -0.3150122   0.1666667), wk =   0.0370370
        k(   59) = (   0.3333333   0.4725183   0.1666667), wk =   0.0370370
        k(   60) = (  -0.5000000   0.4725183   0.1666667), wk =   0.0185185
        k(   61) = (  -0.5000000   0.0000000   0.3333333), wk =   0.0185185
        k(   62) = (  -0.5000000  -0.1575061   0.3333333), wk =   0.0370370
        k(   63) = (  -0.5000000  -0.3150122   0.3333333), wk =   0.0370370
        k(   64) = (  -0.5000000   0.4725183   0.3333333), wk =   0.0185185

     Initial potential from superposition of free atoms

     starting charge  367.99656, renormalised to  368.00000
     Starting wfc are  232 randomized atomic wfcs

     Self-consistent Calculation

     iteration #  1     ecut=   120.00 Ry     beta= 0.70
     Davidson diagonalization with overlap
     ethr =  1.00E-02,  avg # of iterations =  5.1

     total energy              =   -6253.97478683 Ry
     Harris-Foulkes estimate   =   -6264.56521645 Ry
     estimated scf accuracy    <      13.40818595 Ry

[...]

     End of self-consistent calculation

[...]
End final coordinates

     A final scf calculation at the relaxed structure.
     The G-vectors are recalculated for the final unit cell
     Results may differ from those at the preceding step.

     bravais-lattice index     =            0
     lattice parameter (alat)  =      13.8397  a.u.
     unit-cell volume          =    2797.5611 (a.u.)^3
     number of atoms/cell      =           32
     number of atomic types    =            2
     number of electrons       =       368.00
     number of Kohn-Sham states=          221
     kinetic-energy cutoff     =     120.0000  Ry
     charge density cutoff     =     480.0000  Ry
     convergence threshold     =      1.0E-10
     mixing beta               =       0.7000
     number of iterations used =            8  plain     mixing
     Exchange-correlation      = SLA PW NOGX NOGC ( 1  4  0  0 0 0)

     celldm(1)=  13.839685  celldm(2)=   0.000000  celldm(3)=   0.000000
     celldm(4)=   0.000000  celldm(5)=   0.000000  celldm(6)=   0.000000

     crystal axes: (cart. coord. in units of alat)
               a(1) = (   1.002333   0.000000   0.000000 )
               a(2) = (   0.000000   1.046696   0.000000 )
               a(3) = (   0.000000   0.000000   1.005932 )

     reciprocal axes: (cart. coord. in units 2 pi/alat)
               b(1) = (  0.997673  0.000000  0.000000 )
               b(2) = (  0.000000  0.955388  0.000000 )
               b(3) = (  0.000000  0.000000  0.994103 )

     PseudoPot. # 1 for W  read from file:
     /cluster/scratch/mnoe/QE/pps/W_ONCV_LDA-4.0.upf
     MD5 check sum: ba0307d5d4cd419d6f1d13dc49d7c13a
     Pseudo is Norm-conserving + core correction, Zval = 28.0
     Generated using ONCVPSP code by D. R. Hamann
     Using radial grid of 1380 points,  8 beta functions with:
                l(1) =   0
                l(2) =   0
                l(3) =   1
                l(4) =   1
                l(5) =   2
                l(6) =   2
                l(7) =   3
                l(8) =   3

     PseudoPot. # 2 for O  read from file:
     /cluster/scratch/mnoe/QE/pps/O_ONCV_LDA-3.0.upf
     MD5 check sum: a1bd6164e7280c17a38c229939bfbd54
     Pseudo is Norm-conserving + core correction, Zval =  6.0
     Generated using ONCVPSP code by D. R. Hamann
     Using radial grid of  926 points,  5 beta functions with:
                l(1) =   0
                l(2) =   0
                l(3) =   1
                l(4) =   1
                l(5) =   2

     atomic species   valence    mass     pseudopotential
        W             28.00   183.84000     W ( 1.00)
        O              6.00    15.99940     O ( 1.00)

      8 Sym. Ops., with inversion, found ( 6 have fractional translation)

   Cartesian axes

     site n.     atom                  positions (alat units)
         1           W   tau(   1) = (   0.2380640   0.2936220   0.0118599  )
         2           W   tau(   2) = (   0.7642686   0.7530735   0.9940721  )
         3           W   tau(   3) = (   0.2631023   0.2297258   0.5148260  )
         4           W   tau(   4) = (   0.7392303   0.8169698   0.4911061  )
         5           W   tau(   5) = (   0.7642686   0.2936220   0.4911061  )
         6           W   tau(   6) = (   0.2380640   0.7530735   0.5148260  )
         7           W   tau(   7) = (   0.7392303   0.2297258   0.9940721  )
         8           W   tau(   8) = (   0.2631023   0.8169698   0.0118599  )
         9           O   tau(   9) = (   0.2274994   0.0083272   0.0036918  )
        10           O   tau(  10) = (   0.7748332   1.0383684   1.0022403  )
        11           O   tau(  11) = (   0.2736669   0.5150206   0.5066578  )
        12           O   tau(  12) = (   0.7286657   0.5316750   0.4992743  )
        13           O   tau(  13) = (   0.7748332   0.0083272   0.4992743  )
        14           O   tau(  14) = (   0.2274994   1.0383684   0.5066578  )
        15           O   tau(  15) = (   0.7286657   0.5150206   1.0022403  )
        16           O   tau(  16) = (   0.2736669   0.5316750   0.0036918  )
        17           O   tau(  17) = (   0.5045843   0.2369405   0.4554957  )
        18           O   tau(  18) = (   0.4977484   0.8097551   0.5504364  )
        19           O   tau(  19) = (   0.9989147   0.2864073   0.9584618  )
        20           O   tau(  20) = (   0.0034179   0.7602882   0.0474704  )
        21           O   tau(  21) = (   0.4977484   0.2369405   0.0474704  )
        22           O   tau(  22) = (   0.5045843   0.8097551   0.9584618  )
        23           O   tau(  23) = (   0.0034179   0.2864073   0.5504364  )
        24           O   tau(  24) = (   0.9989147   0.7602882   0.4554957  )
        25           O   tau(  25) = (   0.7044490   0.2562730   0.7492383  )
        26           O   tau(  26) = (   0.2978837   0.7904226   0.2566937  )
        27           O   tau(  27) = (   0.7990500   0.2670748   0.2462723  )
        28           O   tau(  28) = (   0.2032827   0.7796208   0.7596598  )
        29           O   tau(  29) = (   0.2978837   0.2562730   0.7596598  )
        30           O   tau(  30) = (   0.7044490   0.7904226   0.2462723  )
        31           O   tau(  31) = (   0.2032827   0.2670748   0.2566937  )
        32           O   tau(  32) = (   0.7990500   0.7796208   0.7492383  )

     number of k points=    64  gaussian smearing, width (Ry)=  0.0007
                       cart. coord. in units 2pi/alat
        k(    1) = (   0.0000000   0.0000000   0.0000000), wk =   0.0092593
        k(    2) = (   0.0000000   0.0000000   0.1656838), wk =   0.0185185
        k(    3) = (   0.0000000   0.0000000   0.3313676), wk =   0.0185185
        k(    4) = (   0.0000000   0.0000000  -0.4970515), wk =   0.0092593
        k(    5) = (   0.0000000   0.1592313   0.0000000), wk =   0.0185185
        k(    6) = (   0.0000000   0.1592313   0.1656838), wk =   0.0370370
        k(    7) = (   0.0000000   0.1592313   0.3313676), wk =   0.0370370
        k(    8) = (   0.0000000   0.1592313  -0.4970515), wk =   0.0185185
        k(    9) = (   0.0000000   0.3184625   0.0000000), wk =   0.0185185
        k(   10) = (   0.0000000   0.3184625   0.1656838), wk =   0.0370370
        k(   11) = (   0.0000000   0.3184625   0.3313676), wk =   0.0370370
        k(   12) = (   0.0000000   0.3184625  -0.4970515), wk =   0.0185185
        k(   13) = (   0.0000000  -0.4776938   0.0000000), wk =   0.0092593
        k(   14) = (   0.0000000  -0.4776938   0.1656838), wk =   0.0185185
        k(   15) = (   0.0000000  -0.4776938   0.3313676), wk =   0.0185185
        k(   16) = (   0.0000000  -0.4776938  -0.4970515), wk =   0.0092593
        k(   17) = (   0.1662788   0.0000000   0.1656838), wk =   0.0370370
        k(   18) = (   0.1662788   0.0000000   0.3313676), wk =   0.0370370
        k(   19) = (   0.1662788   0.0000000  -0.4970515), wk =   0.0185185
        k(   20) = (   0.1662788   0.1592313   0.1656838), wk =   0.0740741
        k(   21) = (   0.1662788   0.1592313   0.3313676), wk =   0.0740741
        k(   22) = (   0.1662788   0.1592313  -0.4970515), wk =   0.0370370
        k(   23) = (   0.1662788   0.3184625   0.1656838), wk =   0.0740741
        k(   24) = (   0.1662788   0.3184625   0.3313676), wk =   0.0740741
        k(   25) = (   0.1662788   0.3184625  -0.4970515), wk =   0.0370370
        k(   26) = (   0.1662788  -0.4776938   0.1656838), wk =   0.0370370
        k(   27) = (   0.1662788  -0.4776938   0.3313676), wk =   0.0370370
        k(   28) = (   0.1662788  -0.4776938  -0.4970515), wk =   0.0185185
        k(   29) = (   0.3325576   0.0000000   0.3313676), wk =   0.0370370
        k(   30) = (   0.3325576   0.0000000  -0.4970515), wk =   0.0185185
        k(   31) = (   0.3325576   0.1592313   0.3313676), wk =   0.0740741
        k(   32) = (   0.3325576   0.1592313  -0.4970515), wk =   0.0370370
        k(   33) = (   0.3325576   0.3184625   0.3313676), wk =   0.0740741
        k(   34) = (   0.3325576   0.3184625  -0.4970515), wk =   0.0370370
        k(   35) = (   0.3325576  -0.4776938   0.3313676), wk =   0.0370370
        k(   36) = (   0.3325576  -0.4776938  -0.4970515), wk =   0.0185185
        k(   37) = (  -0.4988364   0.0000000  -0.4970515), wk =   0.0092593
        k(   38) = (  -0.4988364   0.1592313  -0.4970515), wk =   0.0185185
        k(   39) = (  -0.4988364   0.3184625  -0.4970515), wk =   0.0185185
        k(   40) = (  -0.4988364  -0.4776938  -0.4970515), wk =   0.0092593
        k(   41) = (   0.1662788   0.0000000   0.0000000), wk =   0.0185185
        k(   42) = (   0.3325576   0.0000000   0.0000000), wk =   0.0185185
        k(   43) = (  -0.4988364   0.0000000   0.0000000), wk =   0.0092593
        k(   44) = (   0.1662788  -0.1592313   0.0000000), wk =   0.0370370
        k(   45) = (   0.3325576  -0.1592313   0.0000000), wk =   0.0370370
        k(   46) = (  -0.4988364  -0.1592313   0.0000000), wk =   0.0185185
        k(   47) = (   0.1662788  -0.3184625   0.0000000), wk =   0.0370370
        k(   48) = (   0.3325576  -0.3184625   0.0000000), wk =   0.0370370
        k(   49) = (  -0.4988364  -0.3184625   0.0000000), wk =   0.0185185
        k(   50) = (   0.1662788   0.4776938   0.0000000), wk =   0.0185185
        k(   51) = (   0.3325576   0.4776938   0.0000000), wk =   0.0185185
        k(   52) = (  -0.4988364   0.4776938   0.0000000), wk =   0.0092593
        k(   53) = (   0.3325576   0.0000000   0.1656838), wk =   0.0370370
        k(   54) = (  -0.4988364   0.0000000   0.1656838), wk =   0.0185185
        k(   55) = (   0.3325576  -0.1592313   0.1656838), wk =   0.0740741
        k(   56) = (  -0.4988364  -0.1592313   0.1656838), wk =   0.0370370
        k(   57) = (   0.3325576  -0.3184625   0.1656838), wk =   0.0740741
        k(   58) = (  -0.4988364  -0.3184625   0.1656838), wk =   0.0370370
        k(   59) = (   0.3325576   0.4776938   0.1656838), wk =   0.0370370
        k(   60) = (  -0.4988364   0.4776938   0.1656838), wk =   0.0185185
        k(   61) = (  -0.4988364   0.0000000   0.3313676), wk =   0.0185185
        k(   62) = (  -0.4988364  -0.1592313   0.3313676), wk =   0.0370370
        k(   63) = (  -0.4988364  -0.3184625   0.3313676), wk =   0.0370370
        k(   64) = (  -0.4988364   0.4776938   0.3313676), wk =   0.0185185

     Initial potential from superposition of free atoms

     starting charge  367.99656, renormalised to  368.00000
     Starting wfc are  232 randomized atomic wfcs

     Writing output data file Landau_27.save

     Self-consistent Calculation

[...]

     total energy              =   -6261.11305191 Ry
     Harris-Foulkes estimate   =   -6261.11305191 Ry
     estimated scf accuracy    <          1.3E-10 Ry

     iteration # 15     ecut=   120.00 Ry     beta= 0.70
     Davidson diagonalization with overlap
     ethr =  1.00E-13,  avg # of iterations =  2.0

     End of self-consistent calculation

[...]

          k = 0.3326 0.4777 0.1657 ( 62124 PWs)   bands (ev):

[...]

          k =-0.4988 0.4777 0.3314 ( 62072 PWs)   bands (ev):

   -66.1137 -66.1137 -66.1137 -66.1137 -66.1132 -66.1132 -66.1132 -66.1132
   -30.4755 -30.4755 -30.4748 -30.4748 -30.4699 -30.4699 -30.4688 -30.4688
   -30.4456 -30.4456 -30.4451 -30.4451 -30.4176 -30.4176 -30.4171 -30.4171
   -30.4091 -30.4091 -30.4077 -30.4077 -30.3925 -30.3925 -30.3920 -30.3920
   -20.2760 -20.2760 -20.2760 -20.2760 -20.2758 -20.2758 -20.2758 -20.2758
   -20.2553 -20.2553 -20.2553 -20.2553 -20.2549 -20.2549 -20.2549 -20.2549
   -20.2508 -20.2508 -20.2508 -20.2508 -20.2506 -20.2506 -20.2505 -20.2505
   -20.2461 -20.2461 -20.2460 -20.2460 -20.2460 -20.2459 -20.2458 -20.2458
   -20.2388 -20.2388 -20.2388 -20.2388 -20.2378 -20.2378 -20.2378 -20.2378
   -20.2377 -20.2377 -20.2376 -20.2376 -20.2355 -20.2355 -20.2355 -20.2355
   -20.2268 -20.2268 -20.2268 -20.2268 -20.2260 -20.2260 -20.2260 -20.2260
    -9.1450  -9.1450  -9.1336  -9.1336  -8.7537  -8.7537  -8.7254  -8.7254
    -8.5029  -8.5029  -8.4758  -8.4758  -8.3525  -8.3525  -8.3224  -8.3224
    -8.2866  -8.2866  -8.2645  -8.2644  -8.0791  -8.0791  -8.0783  -8.0783
     2.3004   2.3004   2.3161   2.3161   2.9855   2.9855   3.0441   3.0441
     3.1295   3.1295   3.1572   3.1572   3.2425   3.2425   3.2845   3.2845
     3.4892   3.4892   3.5415   3.5415   3.6438   3.6438   3.7004   3.7004
     3.8609   3.8609   4.0079   4.0079   4.2802   4.2802   4.2949   4.2949
     4.3557   4.3557   4.4244   4.4244   4.5342   4.5342   4.6396   4.6396
     4.7364   4.7364   4.8705   4.8705   5.0779   5.0779   5.1136   5.1136
     7.0020   7.0020   7.1090   7.1090   7.1828   7.1828   7.2102   7.2102
     7.2845   7.2845   7.3506   7.3506   7.4235   7.4235   7.4543   7.4543
     7.5208   7.5209   7.5983   7.5983   7.6317   7.6317   7.6755   7.6755
    11.5545  11.5545  11.5967  11.5967  11.7409  11.7409  11.8459  11.8459
    12.2448  12.2448  12.2938  12.2938  12.3274  12.3274  12.4564  12.4564
    12.5580  12.5580  12.6891  12.6891  12.9557  12.9557  13.0369  13.0369
    16.4679  16.4679  16.5172  16.5172  17.0534  17.0534  17.1775  17.1776
    17.3036  17.3037  17.4226  17.4234  17.4754

     the Fermi energy is     9.0289 ev

!    total energy              =   -6261.11305191 Ry
     Harris-Foulkes estimate   =   -6261.11305191 Ry
     estimated scf accuracy    <          6.2E-12 Ry

     The total energy is the sum of the following terms:

     one-electron contribution =   -4704.19476327 Ry
     hartree contribution      =    2589.47985860 Ry
     xc contribution           =    -965.66342918 Ry
     ewald contribution        =   -3180.73471806 Ry
     smearing contrib. (-TS)   =      -0.00000000 Ry

     convergence has been achieved in  15 iterations

     Forces acting on atoms (cartesian axes, Ry/au):

     atom    1 type  1   force =    -0.00026323   -0.00190497   -0.00034142
     atom    2 type  1   force =     0.00026323    0.00190497    0.00034142
     atom    3 type  1   force =     0.00026323    0.00190497   -0.00034142
     atom    4 type  1   force =    -0.00026323   -0.00190497    0.00034142
     atom    5 type  1   force =     0.00026323   -0.00190497    0.00034142
     atom    6 type  1   force =    -0.00026323    0.00190497   -0.00034142
     atom    7 type  1   force =    -0.00026323    0.00190497    0.00034142
     atom    8 type  1   force =     0.00026323   -0.00190497   -0.00034142
     atom    9 type  2   force =    -0.00028248    0.00113713    0.00030260
     atom   10 type  2   force =     0.00028248   -0.00113713   -0.00030260
     atom   11 type  2   force =     0.00028248   -0.00113713    0.00030260
     atom   12 type  2   force =    -0.00028248    0.00113713   -0.00030260
     atom   13 type  2   force =     0.00028248    0.00113713   -0.00030260
     atom   14 type  2   force =    -0.00028248   -0.00113713    0.00030260
     atom   15 type  2   force =    -0.00028248   -0.00113713   -0.00030260
     atom   16 type  2   force =     0.00028248    0.00113713    0.00030260
     atom   17 type  2   force =    -0.00021323    0.00024499    0.00145599
     atom   18 type  2   force =     0.00021323   -0.00024499   -0.00145599
     atom   19 type  2   force =     0.00021323   -0.00024499    0.00145599
     atom   20 type  2   force =    -0.00021323    0.00024499   -0.00145599
     atom   21 type  2   force =     0.00021323    0.00024499   -0.00145599
     atom   22 type  2   force =    -0.00021323   -0.00024499    0.00145599
     atom   23 type  2   force =    -0.00021323   -0.00024499   -0.00145599
     atom   24 type  2   force =     0.00021323    0.00024499    0.00145599
     atom   25 type  2   force =    -0.00061913   -0.00088598   -0.00047045
     atom   26 type  2   force =     0.00061913    0.00088598    0.00047045
     atom   27 type  2   force =     0.00061913    0.00088598   -0.00047045
     atom   28 type  2   force =    -0.00061913   -0.00088598    0.00047045
     atom   29 type  2   force =     0.00061913   -0.00088598    0.00047045
     atom   30 type  2   force =    -0.00061913    0.00088598   -0.00047045
     atom   31 type  2   force =    -0.00061913    0.00088598    0.00047045
     atom   32 type  2   force =     0.00061913   -0.00088598   -0.00047045

     Total force =     0.000000     Total SCF correction =     0.000000

     Computing stress (Cartesian axis) and pressure

          total   stress  (Ry/bohr**3)                   (kbar)     P=    0.01
   0.00000039   0.00000000   0.00000000          0.06      0.00      0.00
   0.00000000  -0.00000144   0.00000000          0.00     -0.21      0.00
   0.00000000   0.00000000   0.00000127          0.00      0.00      0.19

     Writing output data file Landau_27.save

     General routines

     Parallel routines

   This run was terminated on:  10:30: 8  11Mar2020

   JOB DONE.