     Program PWSCF v.6.2 (svn rev. 14038) starts on 28Aug2019 at 12:45:35

     K-points division:     npool     =      64
     Reading input from scf.in

     Current dimensions of program PWSCF are:
     Max number of different atomic species (ntypx) = 10
     Max number of k-points (npk) =  40000
     Max angular momentum in pseudopotentials (lmaxx) =  3

     Subspace diagonalization in iterative solution of the eigenvalue problem:
     a serial algorithm will be used

     bravais-lattice index     =            0
     lattice parameter (alat)  =      13.8296  a.u.
     unit-cell volume          =    2787.8206 (a.u.)^3
     number of atoms/cell      =           32
     number of atomic types    =            2
     number of electrons       =       368.52
     number of Kohn-Sham states=          221
     kinetic-energy cutoff     =     120.0000  Ry
     charge density cutoff     =     480.0000  Ry
     convergence threshold     =      1.0E-08
     mixing beta               =       0.7000
     number of iterations used =            8  plain     mixing
     Exchange-correlation      = SLA PW NOGX NOGC ( 1  4  0  0 0 0)

     celldm(1)=  13.829597  celldm(2)=   0.000000  celldm(3)=   0.000000
     celldm(4)=   0.000000  celldm(5)=   0.000000  celldm(6)=   0.000000

     crystal axes: (cart. coord. in units of alat)
               a(1) = (   1.000000   0.000000   0.000000 )
               a(2) = (   0.000000   1.050315   0.000000 )
               a(3) = (   0.000000   0.000000   1.003498 )

     reciprocal axes: (cart. coord. in units 2 pi/alat)
               b(1) = (  1.000000  0.000000  0.000000 )
               b(2) = (  0.000000  0.952095  0.000000 )
               b(3) = (  0.000000  0.000000  0.996514 )

     PseudoPot. # 1 for W  read from file:
     /cluster/scratch/mnoe/QE/pps/W_ONCV_LDA-4.0.upf
     MD5 check sum: ba0307d5d4cd419d6f1d13dc49d7c13a
     Pseudo is Norm-conserving + core correction, Zval = 28.0
     Generated using ONCVPSP code by D. R. Hamann
     Using radial grid of 1380 points,  8 beta functions with:
                l(1) =   0
                l(2) =   0
                l(3) =   1
                l(4) =   1
                l(5) =   2
                l(6) =   2
                l(7) =   3
                l(8) =   3

     PseudoPot. # 2 for O  read from file:
     /cluster/scratch/mnoe/QE/pps/O_ONCV_LDA-3.0.upf
     MD5 check sum: b55cdb4f45ae2203d24ad12cf8d61a31
     Pseudo is Norm-conserving + core correction, Zval =  6.0
     Generated using ONCVPSP code by D. R. Hamann
     Using radial grid of  926 points,  5 beta functions with:
                l(1) =   0
                l(2) =   0
                l(3) =   1
                l(4) =   1
                l(5) =   2

     atomic species   valence    mass     pseudopotential
        W             28.00   183.84000     W ( 1.00)
        O              6.00    15.99940     O ( 1.00)

      8 Sym. Ops., with inversion, found ( 6 have fractional translation)

   Cartesian axes

     site n.     atom                  positions (alat units)
         1           W   tau(   1) = (   0.2379800   0.2960418   0.0113997  )
         2           W   tau(   2) = (   0.7620200   0.7542731   0.9920987  )
         3           W   tau(   3) = (   0.2620200   0.2291157   0.5131490  )
         4           W   tau(   4) = (   0.7379800   0.8211992   0.4903495  )
         5           W   tau(   5) = (   0.7620200   0.2960418   0.4903495  )
         6           W   tau(   6) = (   0.2379800   0.7542731   0.5131490  )
         7           W   tau(   7) = (   0.7379800   0.2291157   0.9920987  )
         8           W   tau(   8) = (   0.2620200   0.8211992   0.0113997  )
         9           O   tau(   9) = (   0.2278200   0.0087386   0.0035423  )
        10           O   tau(  10) = (   0.7721800   1.0415763   0.9999561  )
        11           O   tau(  11) = (   0.2721800   0.5164188   0.5052916  )
        12           O   tau(  12) = (   0.7278200   0.5338961   0.4982069  )
        13           O   tau(  13) = (   0.7721800   0.0087386   0.4982069  )
        14           O   tau(  14) = (   0.2278200   1.0415763   0.5052916  )
        15           O   tau(  15) = (   0.7278200   0.5164188   0.9999561  )
        16           O   tau(  16) = (   0.2721800   0.5338961   0.0035423  )
        17           O   tau(  17) = (   0.5032900   0.2386735   0.4511127  )
        18           O   tau(  18) = (   0.4967100   0.8116414   0.5523857  )
        19           O   tau(  19) = (   0.9967100   0.2864839   0.9528620  )
        20           O   tau(  20) = (   0.0032899   0.7638310   0.0506365  )
        21           O   tau(  21) = (   0.4967100   0.2386735   0.0506365  )
        22           O   tau(  22) = (   0.5032900   0.8116414   0.9528620  )
        23           O   tau(  23) = (   0.0032899   0.2864839   0.5523857  )
        24           O   tau(  24) = (   0.9967100   0.7638310   0.4511127  )
        25           O   tau(  25) = (   0.6995400   0.2573587   0.7476164  )
        26           O   tau(  26) = (   0.3004600   0.7929563   0.2558821  )
        27           O   tau(  27) = (   0.8004600   0.2677988   0.2458672  )
        28           O   tau(  28) = (   0.1995400   0.7825161   0.7576313  )
        29           O   tau(  29) = (   0.3004600   0.2573587   0.7576313  )
        30           O   tau(  30) = (   0.6995400   0.7929563   0.2458672  )
        31           O   tau(  31) = (   0.1995400   0.2677988   0.2558821  )
        32           O   tau(  32) = (   0.8004600   0.7825161   0.7476164  )

     number of k points=    64  gaussian smearing, width (Ry)=  0.0007
                       cart. coord. in units 2pi/alat
        k(    1) = (   0.0000000   0.0000000   0.0000000), wk =   0.0092593
        k(    2) = (   0.0000000   0.0000000   0.1660856), wk =   0.0185185
        k(    3) = (   0.0000000   0.0000000   0.3321712), wk =   0.0185185
        k(    4) = (   0.0000000   0.0000000  -0.4982569), wk =   0.0092593
        k(    5) = (   0.0000000   0.1586826   0.0000000), wk =   0.0185185
        k(    6) = (   0.0000000   0.1586826   0.1660856), wk =   0.0370370
        k(    7) = (   0.0000000   0.1586826   0.3321712), wk =   0.0370370
        k(    8) = (   0.0000000   0.1586826  -0.4982569), wk =   0.0185185
        k(    9) = (   0.0000000   0.3173651   0.0000000), wk =   0.0185185
        k(   10) = (   0.0000000   0.3173651   0.1660856), wk =   0.0370370
        k(   11) = (   0.0000000   0.3173651   0.3321712), wk =   0.0370370
        k(   12) = (   0.0000000   0.3173651  -0.4982569), wk =   0.0185185
        k(   13) = (   0.0000000  -0.4760477   0.0000000), wk =   0.0092593
        k(   14) = (   0.0000000  -0.4760477   0.1660856), wk =   0.0185185
        k(   15) = (   0.0000000  -0.4760477   0.3321712), wk =   0.0185185
        k(   16) = (   0.0000000  -0.4760477  -0.4982569), wk =   0.0092593
        k(   17) = (   0.1666667   0.0000000   0.0000000), wk =   0.0185185
        k(   18) = (   0.1666667   0.0000000   0.1660856), wk =   0.0370370
        k(   19) = (   0.1666667   0.0000000   0.3321712), wk =   0.0370370
        k(   20) = (   0.1666667   0.0000000  -0.4982569), wk =   0.0185185
        k(   21) = (   0.1666667   0.1586826   0.0000000), wk =   0.0370370
        k(   22) = (   0.1666667   0.1586826   0.1660856), wk =   0.0740741
        k(   23) = (   0.1666667   0.1586826   0.3321712), wk =   0.0740741
        k(   24) = (   0.1666667   0.1586826  -0.4982569), wk =   0.0370370
        k(   25) = (   0.1666667   0.3173651   0.0000000), wk =   0.0370370
        k(   26) = (   0.1666667   0.3173651   0.1660856), wk =   0.0740741
        k(   27) = (   0.1666667   0.3173651   0.3321712), wk =   0.0740741
        k(   28) = (   0.1666667   0.3173651  -0.4982569), wk =   0.0370370
        k(   29) = (   0.1666667  -0.4760477   0.0000000), wk =   0.0185185
        k(   30) = (   0.1666667  -0.4760477   0.1660856), wk =   0.0370370
        k(   31) = (   0.1666667  -0.4760477   0.3321712), wk =   0.0370370
        k(   32) = (   0.1666667  -0.4760477  -0.4982569), wk =   0.0185185
        k(   33) = (   0.3333333   0.0000000   0.0000000), wk =   0.0185185
        k(   34) = (   0.3333333   0.0000000   0.1660856), wk =   0.0370370
        k(   35) = (   0.3333333   0.0000000   0.3321712), wk =   0.0370370
        k(   36) = (   0.3333333   0.0000000  -0.4982569), wk =   0.0185185
        k(   37) = (   0.3333333   0.1586826   0.0000000), wk =   0.0370370
        k(   38) = (   0.3333333   0.1586826   0.1660856), wk =   0.0740741
        k(   39) = (   0.3333333   0.1586826   0.3321712), wk =   0.0740741
        k(   40) = (   0.3333333   0.1586826  -0.4982569), wk =   0.0370370
        k(   41) = (   0.3333333   0.3173651   0.0000000), wk =   0.0370370
        k(   42) = (   0.3333333   0.3173651   0.1660856), wk =   0.0740741
        k(   43) = (   0.3333333   0.3173651   0.3321712), wk =   0.0740741
        k(   44) = (   0.3333333   0.3173651  -0.4982569), wk =   0.0370370
        k(   45) = (   0.3333333  -0.4760477   0.0000000), wk =   0.0185185
        k(   46) = (   0.3333333  -0.4760477   0.1660856), wk =   0.0370370
        k(   47) = (   0.3333333  -0.4760477   0.3321712), wk =   0.0370370
        k(   48) = (   0.3333333  -0.4760477  -0.4982569), wk =   0.0185185
        k(   49) = (  -0.5000000   0.0000000   0.0000000), wk =   0.0092593
        k(   50) = (  -0.5000000   0.0000000   0.1660856), wk =   0.0185185
        k(   51) = (  -0.5000000   0.0000000   0.3321712), wk =   0.0185185
        k(   52) = (  -0.5000000   0.0000000  -0.4982569), wk =   0.0092593
        k(   53) = (  -0.5000000   0.1586826   0.0000000), wk =   0.0185185
        k(   54) = (  -0.5000000   0.1586826   0.1660856), wk =   0.0370370
        k(   55) = (  -0.5000000   0.1586826   0.3321712), wk =   0.0370370
        k(   56) = (  -0.5000000   0.1586826  -0.4982569), wk =   0.0185185
        k(   57) = (  -0.5000000   0.3173651   0.0000000), wk =   0.0185185
        k(   58) = (  -0.5000000   0.3173651   0.1660856), wk =   0.0370370
        k(   59) = (  -0.5000000   0.3173651   0.3321712), wk =   0.0370370
        k(   60) = (  -0.5000000   0.3173651  -0.4982569), wk =   0.0185185
        k(   61) = (  -0.5000000  -0.4760477   0.0000000), wk =   0.0092593
        k(   62) = (  -0.5000000  -0.4760477   0.1660856), wk =   0.0185185
        k(   63) = (  -0.5000000  -0.4760477   0.3321712), wk =   0.0185185
        k(   64) = (  -0.5000000  -0.4760477  -0.4982569), wk =   0.0092593

     Initial potential from superposition of free atoms

     starting charge  367.99656, renormalised to  368.52000
     Starting wfc are  232 randomized atomic wfcs

     Self-consistent Calculation

     iteration #  1     ecut=   120.00 Ry     beta= 0.70
     Davidson diagonalization with overlap
     ethr =  1.00E-02,  avg # of iterations =  5.1

     total energy              =   -6253.53555963 Ry
     Harris-Foulkes estimate   =   -6264.27705511 Ry
     estimated scf accuracy    <      13.54279507 Ry

[...]

     total energy              =   -6260.73412132 Ry
     Harris-Foulkes estimate   =   -6260.73412133 Ry
     estimated scf accuracy    <       0.00000002 Ry

     iteration # 13     ecut=   120.00 Ry     beta= 0.70
     Davidson diagonalization with overlap
     ethr =  5.80E-12,  avg # of iterations =  2.4

     End of self-consistent calculation

          k = 0.0000 0.0000 0.0000 ( 61831 PWs)   bands (ev):

   -65.9320 -65.9315 -65.9310 -65.9310 -65.9306 -65.9305 -65.9300 -65.9295
   -30.3706 -30.3650 -30.3639 -30.3586 -30.3203 -30.3114 -30.3106 -30.2980
   -30.2916 -30.2903 -30.2786 -30.2740 -30.2735 -30.2705 -30.2621 -30.2548
   -30.1904 -30.1886 -30.1885 -30.1876 -30.1806 -30.1759 -30.1733 -30.1691
   -20.0830 -20.0828 -20.0825 -20.0824 -20.0817 -20.0816 -20.0811 -20.0811
   -20.0728 -20.0726 -20.0723 -20.0721 -20.0703 -20.0701 -20.0694 -20.0691
   -20.0686 -20.0678 -20.0678 -20.0667 -20.0666 -20.0665 -20.0651 -20.0649
   -20.0648 -20.0648 -20.0643 -20.0638 -20.0636 -20.0633 -20.0633 -20.0628
   -20.0529 -20.0527 -20.0524 -20.0523 -20.0508 -20.0506 -20.0503 -20.0502
   -20.0340 -20.0340 -20.0327 -20.0327 -20.0285 -20.0284 -20.0282 -20.0282
   -20.0270 -20.0270 -20.0268 -20.0268 -20.0236 -20.0235 -20.0223 -20.0222
    -9.8227  -9.5156  -9.3781  -9.3761  -9.0840  -9.0609  -8.9635  -8.8735
    -8.8568  -8.7543  -8.7150  -8.7110  -7.7743  -7.6902  -7.6825  -7.6684
    -7.6500  -7.6378  -7.6333  -7.6131  -7.5246  -7.5091  -7.4960  -7.4887
     1.4156   1.4225   1.4762   1.4865   1.4994   1.5325   1.5372   1.7481
     1.7523   1.7929   1.8270   2.0301   2.5229   2.6109   2.6703   2.6953
     2.8171   2.8598   4.2382   4.2964   4.4760   4.5932   4.8222   4.9166
     4.9410   4.9548   4.9684   4.9743   5.1833   5.2005   5.2847   5.5096
     5.6034   5.6048   5.6697   5.6744   5.7175   5.7420   5.8381   5.9133
     5.9484   5.9690   5.9810   6.0038   6.0742   6.0839   6.1326   6.2351
     6.2515   6.3426   6.3775   6.6426   6.6602   6.8931   6.9125   6.9471
     6.9951   7.0112   7.0278   7.0871   7.1074   7.1635   7.3952   7.4396
     7.4678   7.5084   7.8627   7.8824   8.0896   8.1534   8.2002   8.2595
     9.6781   9.6939  10.2162  10.2379  10.2551  10.2810  12.3529  12.3929
    12.5029  12.5527  12.5996  12.6124  12.7254  12.7302  12.7816  12.9438
    13.3770  13.4464  13.4472  13.5239  13.8099  13.9728  14.2493  14.2520
    14.5560  14.6197  14.8427  14.9982  15.5874  15.6140  15.6887  16.1404
    16.2085  16.9026  17.0835  17.1742  17.6139

[...]

          k = 0.3333-0.4760-0.4983 ( 61848 PWs)   bands (ev):

[...]

          k =-0.5000 0.0000 0.0000 ( 61868 PWs)   bands (ev):

[...]

          k =-0.5000-0.4760-0.4983 ( 61920 PWs)   bands (ev):

   -65.9308 -65.9308 -65.9308 -65.9308 -65.9308 -65.9308 -65.9307 -65.9307
   -30.3351 -30.3350 -30.3350 -30.3350 -30.3344 -30.3344 -30.3344 -30.3343
   -30.2426 -30.2426 -30.2426 -30.2426 -30.2400 -30.2400 -30.2400 -30.2400
   -30.2196 -30.2196 -30.2195 -30.2195 -30.2170 -30.2170 -30.2169 -30.2169
   -20.0819 -20.0819 -20.0819 -20.0819 -20.0819 -20.0819 -20.0819 -20.0819
   -20.0712 -20.0712 -20.0712 -20.0712 -20.0710 -20.0710 -20.0710 -20.0710
   -20.0670 -20.0670 -20.0670 -20.0670 -20.0666 -20.0666 -20.0666 -20.0666
   -20.0642 -20.0642 -20.0642 -20.0641 -20.0637 -20.0637 -20.0637 -20.0637
   -20.0516 -20.0516 -20.0516 -20.0516 -20.0514 -20.0514 -20.0514 -20.0514
   -20.0306 -20.0306 -20.0306 -20.0306 -20.0305 -20.0305 -20.0305 -20.0305
   -20.0255 -20.0255 -20.0255 -20.0254 -20.0254 -20.0254 -20.0254 -20.0253
    -8.8224  -8.8224  -8.8224  -8.8224  -8.7995  -8.7995  -8.7995  -8.7995
    -8.2939  -8.2939  -8.2939  -8.2939  -8.2568  -8.2568  -8.2568  -8.2568
    -8.2152  -8.2152  -8.2152  -8.2152  -8.1857  -8.1857  -8.1857  -8.1857
     3.0340   3.0340   3.0340   3.0340   3.1214   3.1214   3.1214   3.1214
     3.2779   3.2779   3.2779   3.2779   3.4015   3.4015   3.4015   3.4015
     3.4794   3.4794   3.4794   3.4794   3.6593   3.6593   3.6593   3.6593
     4.2738   4.2738   4.2738   4.2738   4.2922   4.2922   4.2922   4.2922
     4.4761   4.4761   4.4761   4.4762   4.5398   4.5398   4.5398   4.5398
     4.6155   4.6155   4.6155   4.6155   4.6818   4.6818   4.6818   4.6818
     7.1959   7.1959   7.1959   7.1959   7.3786   7.3786   7.3786   7.3786
     7.4356   7.4356   7.4356   7.4356   7.4946   7.4947   7.4947   7.4947
     7.6694   7.6694   7.6694   7.6694   7.7384   7.7385   7.7385   7.7385
    12.0253  12.0253  12.0253  12.0253  12.0456  12.0456  12.0456  12.0456
    12.3448  12.3448  12.3448  12.3448  12.5181  12.5181  12.5181  12.5181
    12.6818  12.6818  12.6818  12.6818  12.7775  12.7775  12.7775  12.7775
    17.1803  17.1803  17.1803  17.1803  17.2692  17.2692  17.2693  17.2693
    17.4924  17.4924  17.4924  17.4924  17.5485

     the Fermi energy is    10.0207 ev

!    total energy              =   -6260.73412132 Ry
     Harris-Foulkes estimate   =   -6260.73412132 Ry
     estimated scf accuracy    <          1.1E-09 Ry

     The total energy is the sum of the following terms:

     one-electron contribution =   -4690.81783505 Ry
     hartree contribution      =    2585.16593053 Ry
     xc contribution           =    -966.23888194 Ry
     ewald contribution        =   -3188.84331157 Ry
     smearing contrib. (-TS)   =      -0.00002329 Ry

     convergence has been achieved in  13 iterations

     Writing output data file chempot_2.save

     General routines

     Parallel routines

   This run was terminated on:  12:56:25  28Aug2019

   JOB DONE.