     Program PWSCF v.6.4.1 starts on 16Dec2019 at 17: 3: 4

     K-points division:     npool     =      40
     Reading input from scf.in

     Current dimensions of program PWSCF are:
     Max number of different atomic species (ntypx) = 10
     Max number of k-points (npk) =  40000
     Max angular momentum in pseudopotentials (lmaxx) =  3

     Subspace diagonalization in iterative solution of the eigenvalue problem:
     a serial algorithm will be used

     Message from routine setup:
     using ibrav=0 with symmetry is DISCOURAGED, use correct ibrav instead

     bravais-lattice index     =            0
     lattice parameter (alat)  =      14.0732  a.u.
     unit-cell volume          =    2837.1936 (a.u.)^3
     number of atoms/cell      =           32
     number of atomic types    =            2
     number of electrons       =       368.20
     number of Kohn-Sham states=          221
     kinetic-energy cutoff     =     120.0000  Ry
     charge density cutoff     =     480.0000  Ry
     convergence threshold     =      1.0E-08
     mixing beta               =       0.7000
     number of iterations used =            8  plain     mixing
     Exchange-correlation      = SLA PW NOGX NOGC ( 1  4  0  0 0 0)

     celldm(1)=  14.073194  celldm(2)=   0.000000  celldm(3)=   0.000000
     celldm(4)=   0.000000  celldm(5)=   0.000000  celldm(6)=   0.000000

     crystal axes: (cart. coord. in units of alat)
               a(1) = (   1.000000   0.000000   0.000000 )
               a(2) = (   0.000000   1.019270   0.000000 )
               a(3) = (   0.000000   0.000000   0.998669 )

     reciprocal axes: (cart. coord. in units 2 pi/alat)
               b(1) = (  1.000000  0.000000  0.000000 )
               b(2) = (  0.000000  0.981094  0.000000 )
               b(3) = (  0.000000  0.000000  1.001332 )

     PseudoPot. # 1 for W  read from file:
     /cluster/scratch/mnoe/QE/pps/W_ONCV_LDA-4.0.upf
     MD5 check sum: ba0307d5d4cd419d6f1d13dc49d7c13a
     Pseudo is Norm-conserving + core correction, Zval = 28.0
     Generated using ONCVPSP code by D. R. Hamann
     Using radial grid of 1380 points,  8 beta functions with:
                l(1) =   0
                l(2) =   0
                l(3) =   1
                l(4) =   1
                l(5) =   2
                l(6) =   2
                l(7) =   3
                l(8) =   3

     PseudoPot. # 2 for O  read from file:
     /cluster/scratch/mnoe/QE/pps/O_ONCV_LDA-3.0.upf
     MD5 check sum: b55cdb4f45ae2203d24ad12cf8d61a31
     Pseudo is Norm-conserving + core correction, Zval =  6.0
     Generated using ONCVPSP code by D. R. Hamann
     Using radial grid of  926 points,  5 beta functions with:
                l(1) =   0
                l(2) =   0
                l(3) =   1
                l(4) =   1
                l(5) =   2

     atomic species   valence    mass     pseudopotential
        W             28.00   183.84000     W ( 1.00)
        O              6.00    15.99940     O ( 1.00)

      8 Sym. Ops., with inversion, found ( 6 have fractional translation)

   Cartesian axes

     site n.     atom                  positions (alat units)
         1           W   tau(   1) = (   0.2379800   0.2962912   0.0113449  )
         2           W   tau(   2) = (   0.7620200   0.7229788   0.9873245  )
         3           W   tau(   3) = (   0.2620200   0.2133438   0.5106795  )
         4           W   tau(   4) = (   0.7379800   0.8059261   0.4879898  )
         5           W   tau(   5) = (   0.7620200   0.2962912   0.4879898  )
         6           W   tau(   6) = (   0.2379800   0.7229788   0.5106795  )
         7           W   tau(   7) = (   0.7379800   0.2133438   0.9873245  )
         8           W   tau(   8) = (   0.2620200   0.8059261   0.0113449  )
         9           O   tau(   9) = (   0.2278200   0.0255099   0.0035253  )
        10           O   tau(  10) = (   0.7721800   0.9937601   0.9951440  )
        11           O   tau(  11) = (   0.2721800   0.4841251   0.5028600  )
        12           O   tau(  12) = (   0.7278200   0.5351449   0.4958094  )
        13           O   tau(  13) = (   0.7721800   0.0255099   0.4958094  )
        14           O   tau(  14) = (   0.2278200   0.9937601   0.5028600  )
        15           O   tau(  15) = (   0.7278200   0.4841251   0.9951440  )
        16           O   tau(  16) = (   0.2721800   0.5351449   0.0035253  )
        17           O   tau(  17) = (   0.5032900   0.2316189   0.4945189  )
        18           O   tau(  18) = (   0.4967100   0.7876511   0.5041505  )
        19           O   tau(  19) = (   0.9967100   0.2780161   0.9938536  )
        20           O   tau(  20) = (   0.0032899   0.7412538   0.0048158  )
        21           O   tau(  21) = (   0.4967100   0.2316189   0.0048158  )
        22           O   tau(  22) = (   0.5032900   0.7876511   0.9938536  )
        23           O   tau(  23) = (   0.0032899   0.2780161   0.5041505  )
        24           O   tau(  24) = (   0.9967100   0.7412538   0.4945189  )
        25           O   tau(  25) = (   0.7451779   0.2497517   0.7440187  )
        26           O   tau(  26) = (   0.2548222   0.7695183   0.2546507  )
        27           O   tau(  27) = (   0.7548222   0.2598833   0.2446840  )
        28           O   tau(  28) = (   0.2451779   0.7593867   0.7539854  )
        29           O   tau(  29) = (   0.2548222   0.2497517   0.7539854  )
        30           O   tau(  30) = (   0.7451779   0.7695183   0.2446840  )
        31           O   tau(  31) = (   0.2451779   0.2598833   0.2546507  )
        32           O   tau(  32) = (   0.7548222   0.7593867   0.7440187  )

     number of k points=    64  gaussian smearing, width (Ry)=  0.0007
                       cart. coord. in units 2pi/alat
        k(    1) = (   0.0000000   0.0000000   0.0000000), wk =   0.0092593
        k(    2) = (   0.0000000   0.0000000   0.1668887), wk =   0.0185185
        k(    3) = (   0.0000000   0.0000000   0.3337775), wk =   0.0185185
        k(    4) = (   0.0000000   0.0000000  -0.5006662), wk =   0.0092593
        k(    5) = (   0.0000000   0.1635157   0.0000000), wk =   0.0185185
        k(    6) = (   0.0000000   0.1635157   0.1668887), wk =   0.0370370
        k(    7) = (   0.0000000   0.1635157   0.3337775), wk =   0.0370370
        k(    8) = (   0.0000000   0.1635157  -0.5006662), wk =   0.0185185
        k(    9) = (   0.0000000   0.3270314   0.0000000), wk =   0.0185185
        k(   10) = (   0.0000000   0.3270314   0.1668887), wk =   0.0370370
        k(   11) = (   0.0000000   0.3270314   0.3337775), wk =   0.0370370
        k(   12) = (   0.0000000   0.3270314  -0.5006662), wk =   0.0185185
        k(   13) = (   0.0000000  -0.4905472   0.0000000), wk =   0.0092593
        k(   14) = (   0.0000000  -0.4905472   0.1668887), wk =   0.0185185
        k(   15) = (   0.0000000  -0.4905472   0.3337775), wk =   0.0185185
        k(   16) = (   0.0000000  -0.4905472  -0.5006662), wk =   0.0092593
        k(   17) = (   0.1666667   0.0000000   0.0000000), wk =   0.0185185
        k(   18) = (   0.1666667   0.0000000   0.1668887), wk =   0.0370370
        k(   19) = (   0.1666667   0.0000000   0.3337775), wk =   0.0370370
        k(   20) = (   0.1666667   0.0000000  -0.5006662), wk =   0.0185185
        k(   21) = (   0.1666667   0.1635157   0.0000000), wk =   0.0370370
        k(   22) = (   0.1666667   0.1635157   0.1668887), wk =   0.0740741
        k(   23) = (   0.1666667   0.1635157   0.3337775), wk =   0.0740741
        k(   24) = (   0.1666667   0.1635157  -0.5006662), wk =   0.0370370
        k(   25) = (   0.1666667   0.3270314   0.0000000), wk =   0.0370370
        k(   26) = (   0.1666667   0.3270314   0.1668887), wk =   0.0740741
        k(   27) = (   0.1666667   0.3270314   0.3337775), wk =   0.0740741
        k(   28) = (   0.1666667   0.3270314  -0.5006662), wk =   0.0370370
        k(   29) = (   0.1666667  -0.4905472   0.0000000), wk =   0.0185185
        k(   30) = (   0.1666667  -0.4905472   0.1668887), wk =   0.0370370
        k(   31) = (   0.1666667  -0.4905472   0.3337775), wk =   0.0370370
        k(   32) = (   0.1666667  -0.4905472  -0.5006662), wk =   0.0185185
        k(   33) = (   0.3333333   0.0000000   0.0000000), wk =   0.0185185
        k(   34) = (   0.3333333   0.0000000   0.1668887), wk =   0.0370370
        k(   35) = (   0.3333333   0.0000000   0.3337775), wk =   0.0370370
        k(   36) = (   0.3333333   0.0000000  -0.5006662), wk =   0.0185185
        k(   37) = (   0.3333333   0.1635157   0.0000000), wk =   0.0370370
        k(   38) = (   0.3333333   0.1635157   0.1668887), wk =   0.0740741
        k(   39) = (   0.3333333   0.1635157   0.3337775), wk =   0.0740741
        k(   40) = (   0.3333333   0.1635157  -0.5006662), wk =   0.0370370
        k(   41) = (   0.3333333   0.3270314   0.0000000), wk =   0.0370370
        k(   42) = (   0.3333333   0.3270314   0.1668887), wk =   0.0740741
        k(   43) = (   0.3333333   0.3270314   0.3337775), wk =   0.0740741
        k(   44) = (   0.3333333   0.3270314  -0.5006662), wk =   0.0370370
        k(   45) = (   0.3333333  -0.4905472   0.0000000), wk =   0.0185185
        k(   46) = (   0.3333333  -0.4905472   0.1668887), wk =   0.0370370
        k(   47) = (   0.3333333  -0.4905472   0.3337775), wk =   0.0370370
        k(   48) = (   0.3333333  -0.4905472  -0.5006662), wk =   0.0185185
        k(   49) = (  -0.5000000   0.0000000   0.0000000), wk =   0.0092593
        k(   50) = (  -0.5000000   0.0000000   0.1668887), wk =   0.0185185
        k(   51) = (  -0.5000000   0.0000000   0.3337775), wk =   0.0185185
        k(   52) = (  -0.5000000   0.0000000  -0.5006662), wk =   0.0092593
        k(   53) = (  -0.5000000   0.1635157   0.0000000), wk =   0.0185185
        k(   54) = (  -0.5000000   0.1635157   0.1668887), wk =   0.0370370
        k(   55) = (  -0.5000000   0.1635157   0.3337775), wk =   0.0370370
        k(   56) = (  -0.5000000   0.1635157  -0.5006662), wk =   0.0185185
        k(   57) = (  -0.5000000   0.3270314   0.0000000), wk =   0.0185185
        k(   58) = (  -0.5000000   0.3270314   0.1668887), wk =   0.0370370
        k(   59) = (  -0.5000000   0.3270314   0.3337775), wk =   0.0370370
        k(   60) = (  -0.5000000   0.3270314  -0.5006662), wk =   0.0185185
        k(   61) = (  -0.5000000  -0.4905472   0.0000000), wk =   0.0092593
        k(   62) = (  -0.5000000  -0.4905472   0.1668887), wk =   0.0185185
        k(   63) = (  -0.5000000  -0.4905472   0.3337775), wk =   0.0185185
        k(   64) = (  -0.5000000  -0.4905472  -0.5006662), wk =   0.0092593

     Initial potential from superposition of free atoms

     starting charge  367.99656, renormalised to  368.20000
     Starting wfcs are  232 randomized atomic wfcs

     Self-consistent Calculation

     iteration #  1     ecut=   120.00 Ry     beta= 0.70
     Davidson diagonalization with overlap
     ethr =  1.00E-02,  avg # of iterations =  5.1

     total energy              =   -6253.59566436 Ry
     Harris-Foulkes estimate   =   -6264.46483621 Ry
     estimated scf accuracy    <      13.73139031 Ry

[...]

     total energy              =   -6260.89703185 Ry
     Harris-Foulkes estimate   =   -6260.89703187 Ry
     estimated scf accuracy    <       0.00000004 Ry

     iteration # 13     ecut=   120.00 Ry     beta= 0.70
     Davidson diagonalization with overlap
     ethr =  9.56E-12,  avg # of iterations =  2.6

     End of self-consistent calculation

          k = 0.0000 0.0000 0.0000 ( 62907 PWs)   bands (ev):

   -66.3011 -66.3005 -66.3005 -66.3005 -66.2999 -66.2999 -66.2998 -66.2993
   -30.6776 -30.6731 -30.6678 -30.6622 -30.6560 -30.6545 -30.6505 -30.6494
   -30.6465 -30.6395 -30.6384 -30.6297 -30.5970 -30.5934 -30.5832 -30.5816
   -30.5800 -30.5737 -30.5691 -30.5620 -30.5587 -30.5567 -30.5562 -30.5489
   -20.4657 -20.4657 -20.4653 -20.4653 -20.4647 -20.4647 -20.4644 -20.4644
   -20.4533 -20.4531 -20.4527 -20.4525 -20.4520 -20.4518 -20.4515 -20.4513
   -20.4416 -20.4415 -20.4405 -20.4405 -20.4399 -20.4397 -20.4395 -20.4392
   -20.4388 -20.4387 -20.4386 -20.4383 -20.4352 -20.4348 -20.4343 -20.4335
   -20.4320 -20.4320 -20.4317 -20.4315 -20.4281 -20.4278 -20.4275 -20.4273
   -20.4253 -20.4253 -20.4253 -20.4253 -20.4249 -20.4246 -20.4245 -20.4242
   -20.4170 -20.4169 -20.4168 -20.4167 -20.4159 -20.4158 -20.4157 -20.4156
   -10.1239  -9.7441  -9.7412  -9.7263  -9.3739  -9.3524  -9.3116  -9.0783
    -9.0475  -8.9685  -8.9675  -8.9654  -8.0267  -7.9473  -7.9469  -7.9133
    -7.9106  -7.8865  -7.8818  -7.8771  -7.8280  -7.7963  -7.7790  -7.7585
     1.0687   1.0701   1.1131   1.1340   1.1580   1.1691   1.2431   1.2921
     1.3024   1.3532   1.3806   1.4970   2.3199   2.3403   2.3803   2.4052
     2.4152   2.5241   3.9496   4.0226   4.1247   4.2274   4.4778   4.5106
     4.5358   4.5670   4.5959   4.6905   4.7222   4.7348   5.0575   5.4121
     5.4271   5.4499   5.4508   5.5206   5.5351   5.6145   5.6959   5.7238
     5.7635   5.7825   5.8239   5.8491   5.8566   5.8683   6.0364   6.0516
     6.0613   6.2738   6.3140   6.3283   6.3329   6.5654   6.5884   6.6343
     6.6389   6.6518   6.9608   6.9645   6.9785   6.9819   7.0022   7.0065
     7.0315   7.0357   8.0527   8.0897   8.2087   8.2272   8.2285   8.2527
     9.1640   9.1812   9.5703   9.6284   9.7061   9.7821  12.3565  12.4383
    12.4419  12.4965  12.5195  12.5554  12.5809  12.6019  12.6677  12.8544
    13.0701  13.1136  13.2157  13.3680  13.6672  13.8160  13.9136  13.9873
    13.9945  14.0366  14.3147  14.5560  14.5622  14.6085  15.2519  15.3729
    15.5989  16.2911  16.7873  16.8656  16.9638

[...]

          k = 0.3333-0.4905-0.5007 ( 62948 PWs)   bands (ev):

[...]

          k =-0.5000 0.0000 0.0000 ( 62938 PWs)   bands (ev):

[...]

          k =-0.5000-0.4905-0.5007 ( 62904 PWs)   bands (ev):

   -66.3002 -66.3002 -66.3002 -66.3002 -66.3002 -66.3002 -66.3002 -66.3002
   -30.6380 -30.6380 -30.6380 -30.6380 -30.6360 -30.6360 -30.6360 -30.6359
   -30.6161 -30.6161 -30.6161 -30.6161 -30.6150 -30.6150 -30.6150 -30.6150
   -30.5870 -30.5870 -30.5870 -30.5870 -30.5856 -30.5856 -30.5856 -30.5856
   -20.4651 -20.4651 -20.4651 -20.4650 -20.4650 -20.4650 -20.4650 -20.4650
   -20.4523 -20.4523 -20.4523 -20.4523 -20.4522 -20.4522 -20.4522 -20.4522
   -20.4401 -20.4401 -20.4401 -20.4401 -20.4400 -20.4400 -20.4400 -20.4400
   -20.4369 -20.4369 -20.4369 -20.4369 -20.4366 -20.4366 -20.4366 -20.4366
   -20.4290 -20.4290 -20.4290 -20.4290 -20.4288 -20.4288 -20.4288 -20.4288
   -20.4260 -20.4260 -20.4260 -20.4259 -20.4258 -20.4258 -20.4258 -20.4258
   -20.4163 -20.4163 -20.4163 -20.4163 -20.4163 -20.4163 -20.4163 -20.4163
    -9.1452  -9.1452  -9.1452  -9.1452  -9.1150  -9.1150  -9.1150  -9.1150
    -8.5458  -8.5458  -8.5458  -8.5458  -8.5271  -8.5271  -8.5271  -8.5271
    -8.4589  -8.4589  -8.4589  -8.4589  -8.4131  -8.4131  -8.4131  -8.4131
     2.6361   2.6361   2.6361   2.6361   2.7605   2.7605   2.7605   2.7605
     2.8531   2.8531   2.8531   2.8531   3.0347   3.0347   3.0347   3.0347
     3.1631   3.1631   3.1631   3.1631   3.3144   3.3144   3.3144   3.3144
     4.0200   4.0200   4.0200   4.0200   4.0869   4.0869   4.0869   4.0869
     4.2030   4.2030   4.2030   4.2030   4.2589   4.2589   4.2589   4.2589
     4.3796   4.3796   4.3796   4.3796   4.4634   4.4634   4.4634   4.4634
     7.0547   7.0547   7.0547   7.0547   7.1806   7.1806   7.1806   7.1806
     7.2411   7.2411   7.2411   7.2411   7.3255   7.3255   7.3255   7.3256
     7.4730   7.4730   7.4730   7.4730   7.5507   7.5507   7.5508   7.5508
    11.7260  11.7260  11.7260  11.7260  11.8373  11.8373  11.8373  11.8373
    12.0505  12.0505  12.0505  12.0505  12.1675  12.1675  12.1675  12.1675
    12.2469  12.2469  12.2469  12.2469  12.3550  12.3550  12.3551  12.3551
    16.7311  16.7311  16.7311  16.7311  16.8819  16.8819  16.8819  16.8819
    17.3245  17.3245  17.3245  17.3245  17.4083

     the Fermi energy is     9.4862 ev

!    total energy              =   -6260.89703185 Ry
     Harris-Foulkes estimate   =   -6260.89703185 Ry
     estimated scf accuracy    <          1.5E-09 Ry

     The total energy is the sum of the following terms:

     one-electron contribution =   -4768.55702353 Ry
     hartree contribution      =    2619.44332437 Ry
     xc contribution           =    -965.93063330 Ry
     ewald contribution        =   -3145.85267044 Ry
     smearing contrib. (-TS)   =      -0.00002896 Ry

     convergence has been achieved in  13 iterations

     Writing output data file chempot_2.save/

     General routines

     Parallel routines

   This run was terminated on:  17:34: 7  16Dec2019

   JOB DONE.