     Program PWSCF v.6.2 (svn rev. 14038) starts on 21Mar2020 at 22:30:12

     K-points division:     npool     =      40
     Reading input from scf.in

     Current dimensions of program PWSCF are:
     Max number of different atomic species (ntypx) = 10
     Max number of k-points (npk) =  40000
     Max angular momentum in pseudopotentials (lmaxx) =  3

     Subspace diagonalization in iterative solution of the eigenvalue problem:
     a serial algorithm will be used

     bravais-lattice index     =            0
     lattice parameter (alat)  =      13.9267  a.u.
     unit-cell volume          =    2818.8763 (a.u.)^3
     number of atoms/cell      =           32
     number of atomic types    =            2
     number of electrons       =       369.00
     number of Kohn-Sham states=          222
     kinetic-energy cutoff     =     120.0000  Ry
     charge density cutoff     =     480.0000  Ry
     convergence threshold     =      1.0E-08
     mixing beta               =       0.7000
     number of iterations used =            8  plain     mixing
     Exchange-correlation      = SLA PW NOGX NOGC ( 1  4  0  0 0 0)

     celldm(1)=  13.926691  celldm(2)=   0.000000  celldm(3)=   0.000000
     celldm(4)=   0.000000  celldm(5)=   0.000000  celldm(6)=   0.000000

     crystal axes: (cart. coord. in units of alat)
               a(1) = (   1.000000   0.000000   0.000000 )
               a(2) = (   0.000000   1.041682   0.000000 )
               a(3) = (   0.000000   0.000000   1.001837 )

     reciprocal axes: (cart. coord. in units 2 pi/alat)
               b(1) = (  1.000000  0.000000  0.000000 )
               b(2) = (  0.000000  0.959986  0.000000 )
               b(3) = (  0.000000  0.000000  0.998166 )

     PseudoPot. # 1 for W  read from file:
     /cluster/scratch/mnoe/QE/pps/W_ONCV_LDA-4.0.upf
     MD5 check sum: ba0307d5d4cd419d6f1d13dc49d7c13a
     Pseudo is Norm-conserving + core correction, Zval = 28.0
     Generated using ONCVPSP code by D. R. Hamann
     Using radial grid of 1380 points,  8 beta functions with:
                l(1) =   0
                l(2) =   0
                l(3) =   1
                l(4) =   1
                l(5) =   2
                l(6) =   2
                l(7) =   3
                l(8) =   3

     PseudoPot. # 2 for O  read from file:
     /cluster/scratch/mnoe/QE/pps/O_ONCV_LDA-3.0.upf
     MD5 check sum: a1bd6164e7280c17a38c229939bfbd54
     Pseudo is Norm-conserving + core correction, Zval =  6.0
     Generated using ONCVPSP code by D. R. Hamann
     Using radial grid of  926 points,  5 beta functions with:
                l(1) =   0
                l(2) =   0
                l(3) =   1
                l(4) =   1
                l(5) =   2

     atomic species   valence    mass     pseudopotential
        W             28.00   183.84000     W ( 1.00)
        O              6.00    15.99940     O ( 1.00)

      8 Sym. Ops., with inversion, found ( 6 have fractional translation)

   Cartesian axes

     site n.     atom                  positions (alat units)
         1           W   tau(   1) = (   0.2407500   0.2905132   0.0087561  )
         2           W   tau(   2) = (   0.7592500   0.7511687   0.9930810  )
         3           W   tau(   3) = (   0.2592500   0.2303278   0.5096746  )
         4           W   tau(   4) = (   0.7407500   0.8113541   0.4921625  )
         5           W   tau(   5) = (   0.7592500   0.2905132   0.4921625  )
         6           W   tau(   6) = (   0.2407500   0.7511687   0.5096746  )
         7           W   tau(   7) = (   0.7407500   0.2303278   0.9930810  )
         8           W   tau(   8) = (   0.2592500   0.8113541   0.0087561  )
         9           O   tau(   9) = (   0.2329400   0.0078235   0.0027250  )
        10           O   tau(  10) = (   0.7670600   1.0338583   0.9991122  )
        11           O   tau(  11) = (   0.2670600   0.5130174   0.5036436  )
        12           O   tau(  12) = (   0.7329400   0.5286645   0.4981936  )
        13           O   tau(  13) = (   0.7670600   0.0078235   0.4981936  )
        14           O   tau(  14) = (   0.2329400   1.0338583   0.5036436  )
        15           O   tau(  15) = (   0.7329400   0.5130174   0.9991122  )
        16           O   tau(  16) = (   0.2670600   0.5286645   0.0027250  )
        17           O   tau(  17) = (   0.5025300   0.2421910   0.4576449  )
        18           O   tau(  18) = (   0.4974700   0.7994908   0.5441922  )
        19           O   tau(  19) = (   0.9974700   0.2786499   0.9585635  )
        20           O   tau(  20) = (   0.0025300   0.7630320   0.0432736  )
        21           O   tau(  21) = (   0.4974700   0.2421910   0.0432736  )
        22           O   tau(  22) = (   0.5025300   0.7994908   0.9585635  )
        23           O   tau(  23) = (   0.0025300   0.2786499   0.5441922  )
        24           O   tau(  24) = (   0.9974700   0.7630320   0.4576449  )
        25           O   tau(  25) = (   0.7068057   0.2564412   0.7475307  )
        26           O   tau(  26) = (   0.2931943   0.7852406   0.2543064  )
        27           O   tau(  27) = (   0.7931943   0.2643997   0.2466123  )
        28           O   tau(  28) = (   0.2068057   0.7772822   0.7552249  )
        29           O   tau(  29) = (   0.2931943   0.2564412   0.7552249  )
        30           O   tau(  30) = (   0.7068057   0.7852406   0.2466123  )
        31           O   tau(  31) = (   0.2068057   0.2643997   0.2543064  )
        32           O   tau(  32) = (   0.7931943   0.7772822   0.7475307  )

     number of k points=    64  gaussian smearing, width (Ry)=  0.0007
                       cart. coord. in units 2pi/alat
        k(    1) = (   0.0000000   0.0000000   0.0000000), wk =   0.0092593
        k(    2) = (   0.0000000   0.0000000   0.1663610), wk =   0.0185185
        k(    3) = (   0.0000000   0.0000000   0.3327221), wk =   0.0185185
        k(    4) = (   0.0000000   0.0000000  -0.4990831), wk =   0.0092593
        k(    5) = (   0.0000000   0.1599977   0.0000000), wk =   0.0185185
        k(    6) = (   0.0000000   0.1599977   0.1663610), wk =   0.0370370
        k(    7) = (   0.0000000   0.1599977   0.3327221), wk =   0.0370370
        k(    8) = (   0.0000000   0.1599977  -0.4990831), wk =   0.0185185
        k(    9) = (   0.0000000   0.3199953   0.0000000), wk =   0.0185185
        k(   10) = (   0.0000000   0.3199953   0.1663610), wk =   0.0370370
        k(   11) = (   0.0000000   0.3199953   0.3327221), wk =   0.0370370
        k(   12) = (   0.0000000   0.3199953  -0.4990831), wk =   0.0185185
        k(   13) = (   0.0000000  -0.4799930   0.0000000), wk =   0.0092593
        k(   14) = (   0.0000000  -0.4799930   0.1663610), wk =   0.0185185
        k(   15) = (   0.0000000  -0.4799930   0.3327221), wk =   0.0185185
        k(   16) = (   0.0000000  -0.4799930  -0.4990831), wk =   0.0092593
        k(   17) = (   0.1666667   0.0000000   0.0000000), wk =   0.0185185
        k(   18) = (   0.1666667   0.0000000   0.1663610), wk =   0.0370370
        k(   19) = (   0.1666667   0.0000000   0.3327221), wk =   0.0370370
        k(   20) = (   0.1666667   0.0000000  -0.4990831), wk =   0.0185185
        k(   21) = (   0.1666667   0.1599977   0.0000000), wk =   0.0370370
        k(   22) = (   0.1666667   0.1599977   0.1663610), wk =   0.0740741
        k(   23) = (   0.1666667   0.1599977   0.3327221), wk =   0.0740741
        k(   24) = (   0.1666667   0.1599977  -0.4990831), wk =   0.0370370
        k(   25) = (   0.1666667   0.3199953   0.0000000), wk =   0.0370370
        k(   26) = (   0.1666667   0.3199953   0.1663610), wk =   0.0740741
        k(   27) = (   0.1666667   0.3199953   0.3327221), wk =   0.0740741
        k(   28) = (   0.1666667   0.3199953  -0.4990831), wk =   0.0370370
        k(   29) = (   0.1666667  -0.4799930   0.0000000), wk =   0.0185185
        k(   30) = (   0.1666667  -0.4799930   0.1663610), wk =   0.0370370
        k(   31) = (   0.1666667  -0.4799930   0.3327221), wk =   0.0370370
        k(   32) = (   0.1666667  -0.4799930  -0.4990831), wk =   0.0185185
        k(   33) = (   0.3333333   0.0000000   0.0000000), wk =   0.0185185
        k(   34) = (   0.3333333   0.0000000   0.1663610), wk =   0.0370370
        k(   35) = (   0.3333333   0.0000000   0.3327221), wk =   0.0370370
        k(   36) = (   0.3333333   0.0000000  -0.4990831), wk =   0.0185185
        k(   37) = (   0.3333333   0.1599977   0.0000000), wk =   0.0370370
        k(   38) = (   0.3333333   0.1599977   0.1663610), wk =   0.0740741
        k(   39) = (   0.3333333   0.1599977   0.3327221), wk =   0.0740741
        k(   40) = (   0.3333333   0.1599977  -0.4990831), wk =   0.0370370
        k(   41) = (   0.3333333   0.3199953   0.0000000), wk =   0.0370370
        k(   42) = (   0.3333333   0.3199953   0.1663610), wk =   0.0740741
        k(   43) = (   0.3333333   0.3199953   0.3327221), wk =   0.0740741
        k(   44) = (   0.3333333   0.3199953  -0.4990831), wk =   0.0370370
        k(   45) = (   0.3333333  -0.4799930   0.0000000), wk =   0.0185185
        k(   46) = (   0.3333333  -0.4799930   0.1663610), wk =   0.0370370
        k(   47) = (   0.3333333  -0.4799930   0.3327221), wk =   0.0370370
        k(   48) = (   0.3333333  -0.4799930  -0.4990831), wk =   0.0185185
        k(   49) = (  -0.5000000   0.0000000   0.0000000), wk =   0.0092593
        k(   50) = (  -0.5000000   0.0000000   0.1663610), wk =   0.0185185
        k(   51) = (  -0.5000000   0.0000000   0.3327221), wk =   0.0185185
        k(   52) = (  -0.5000000   0.0000000  -0.4990831), wk =   0.0092593
        k(   53) = (  -0.5000000   0.1599977   0.0000000), wk =   0.0185185
        k(   54) = (  -0.5000000   0.1599977   0.1663610), wk =   0.0370370
        k(   55) = (  -0.5000000   0.1599977   0.3327221), wk =   0.0370370
        k(   56) = (  -0.5000000   0.1599977  -0.4990831), wk =   0.0185185
        k(   57) = (  -0.5000000   0.3199953   0.0000000), wk =   0.0185185
        k(   58) = (  -0.5000000   0.3199953   0.1663610), wk =   0.0370370
        k(   59) = (  -0.5000000   0.3199953   0.3327221), wk =   0.0370370
        k(   60) = (  -0.5000000   0.3199953  -0.4990831), wk =   0.0185185
        k(   61) = (  -0.5000000  -0.4799930   0.0000000), wk =   0.0092593
        k(   62) = (  -0.5000000  -0.4799930   0.1663610), wk =   0.0185185
        k(   63) = (  -0.5000000  -0.4799930   0.3327221), wk =   0.0185185
        k(   64) = (  -0.5000000  -0.4799930  -0.4990831), wk =   0.0092593

     Initial potential from superposition of free atoms

     starting charge  367.99656, renormalised to  369.00000
     Starting wfc are  232 randomized atomic wfcs

     Self-consistent Calculation

     iteration #  1     ecut=   120.00 Ry     beta= 0.70
     Davidson diagonalization with overlap
     ethr =  1.00E-02,  avg # of iterations =  5.5

     total energy              =   -6253.08656208 Ry
     Harris-Foulkes estimate   =   -6264.06358944 Ry
     estimated scf accuracy    <      13.78176782 Ry

[...]

     total energy              =   -6260.39679415 Ry
     Harris-Foulkes estimate   =   -6260.39679418 Ry
     estimated scf accuracy    <       0.00000005 Ry

     iteration # 13     ecut=   120.00 Ry     beta= 0.70
     Davidson diagonalization with overlap
     ethr =  1.29E-11,  avg # of iterations =  2.6

     End of self-consistent calculation

          k = 0.0000 0.0000 0.0000 ( 62523 PWs)   bands (ev):

   -66.0320 -66.0315 -66.0311 -66.0311 -66.0306 -66.0306 -66.0302 -66.0297
   -30.4764 -30.4717 -30.4709 -30.4664 -30.4188 -30.4118 -30.4103 -30.4022
   -30.3873 -30.3858 -30.3759 -30.3751 -30.3749 -30.3742 -30.3658 -30.3634
   -30.2880 -30.2873 -30.2860 -30.2856 -30.2839 -30.2797 -30.2767 -30.2735
   -20.1799 -20.1796 -20.1793 -20.1791 -20.1764 -20.1762 -20.1757 -20.1756
   -20.1724 -20.1722 -20.1719 -20.1718 -20.1709 -20.1708 -20.1700 -20.1699
   -20.1686 -20.1677 -20.1675 -20.1675 -20.1675 -20.1655 -20.1655 -20.1650
   -20.1650 -20.1648 -20.1641 -20.1631 -20.1630 -20.1625 -20.1622 -20.1620
   -20.1530 -20.1529 -20.1525 -20.1524 -20.1520 -20.1519 -20.1515 -20.1514
   -20.1252 -20.1252 -20.1237 -20.1236 -20.1223 -20.1222 -20.1212 -20.1212
   -20.1194 -20.1194 -20.1183 -20.1183 -20.1172 -20.1172 -20.1157 -20.1157
    -9.9620  -9.6507  -9.5523  -9.5510  -9.2523  -9.2383  -9.1601  -9.0283
    -9.0105  -8.9385  -8.9062  -8.9029  -7.8895  -7.8233  -7.8118  -7.7794
    -7.7679  -7.7598  -7.7422  -7.7405  -7.6590  -7.6525  -7.6301  -7.6266
     1.2219   1.2272   1.2822   1.2957   1.3100   1.3251   1.3416   1.5264
     1.5571   1.5814   1.6075   1.8129   2.4283   2.5190   2.5249   2.5389
     2.6610   2.6863   4.1651   4.2025   4.3722   4.4410   4.6989   4.7481
     4.7704   4.7755   4.7937   4.7955   4.9565   4.9646   5.1178   5.4134
     5.4173   5.4585   5.4786   5.5320   5.5414   5.5792   5.6277   5.7927
     5.7999   5.8111   5.8194   5.8716   5.9584   6.0362   6.0677   6.1074
     6.1157   6.2656   6.2779   6.4475   6.4531   6.7730   6.7929   6.8477
     6.8497   6.8858   6.9471   6.9905   7.0110   7.0425   7.2593   7.2814
     7.2976   7.3159   7.8840   7.9005   8.0021   8.0663   8.0702   8.1317
     9.4010   9.4205   9.9139   9.9144   9.9313   9.9369  12.3026  12.3420
    12.4477  12.4490  12.4654  12.4948  12.5733  12.6095  12.7894  13.0005
    13.2258  13.2671  13.3132  13.3578  13.7748  13.9225  14.1385  14.1477
    14.3773  14.4665  14.6500  14.7505  15.3503  15.3698  15.5987  16.0211
    16.0670  16.8592  17.0216  17.0752  17.2172  17.4064

[...]

          k = 0.3333-0.4800-0.4991 ( 62556 PWs)   bands (ev):

[...]

          k =-0.5000 0.0000 0.0000 ( 62648 PWs)   bands (ev):

[...]

          k =-0.5000-0.4800-0.4991 ( 62520 PWs)   bands (ev):

   -66.0309 -66.0309 -66.0309 -66.0309 -66.0309 -66.0309 -66.0308 -66.0308
   -30.4400 -30.4400 -30.4399 -30.4399 -30.4395 -30.4395 -30.4395 -30.4395
   -30.3385 -30.3385 -30.3384 -30.3384 -30.3362 -30.3362 -30.3362 -30.3362
   -30.3238 -30.3238 -30.3238 -30.3238 -30.3216 -30.3216 -30.3216 -30.3216
   -20.1775 -20.1775 -20.1775 -20.1775 -20.1775 -20.1775 -20.1774 -20.1774
   -20.1716 -20.1716 -20.1715 -20.1715 -20.1715 -20.1715 -20.1715 -20.1715
   -20.1667 -20.1667 -20.1667 -20.1667 -20.1665 -20.1665 -20.1665 -20.1665
   -20.1638 -20.1638 -20.1638 -20.1638 -20.1635 -20.1635 -20.1635 -20.1635
   -20.1522 -20.1522 -20.1522 -20.1522 -20.1521 -20.1521 -20.1521 -20.1521
   -20.1220 -20.1220 -20.1220 -20.1220 -20.1219 -20.1219 -20.1219 -20.1219
   -20.1191 -20.1191 -20.1191 -20.1191 -20.1189 -20.1189 -20.1189 -20.1189
    -8.9597  -8.9597  -8.9597  -8.9597  -8.9450  -8.9450  -8.9450  -8.9450
    -8.4373  -8.4373  -8.4373  -8.4373  -8.4097  -8.4097  -8.4097  -8.4097
    -8.3789  -8.3789  -8.3789  -8.3789  -8.3620  -8.3620  -8.3620  -8.3620
     2.9464   2.9464   2.9464   2.9465   3.0172   3.0172   3.0172   3.0172
     3.1398   3.1399   3.1399   3.1399   3.2345   3.2345   3.2345   3.2345
     3.3531   3.3531   3.3531   3.3531   3.4923   3.4923   3.4923   3.4923
     4.1244   4.1244   4.1244   4.1244   4.1426   4.1426   4.1426   4.1426
     4.2946   4.2946   4.2946   4.2946   4.3383   4.3383   4.3383   4.3383
     4.4176   4.4176   4.4176   4.4176   4.4721   4.4721   4.4721   4.4721
     7.0906   7.0906   7.0906   7.0906   7.2317   7.2317   7.2317   7.2317
     7.2951   7.2951   7.2951   7.2951   7.3336   7.3336   7.3336   7.3337
     7.5397   7.5397   7.5397   7.5397   7.5885   7.5885   7.5885   7.5885
    11.8949  11.8949  11.8949  11.8949  11.9193  11.9193  11.9193  11.9193
    12.1753  12.1753  12.1753  12.1753  12.3151  12.3151  12.3151  12.3151
    12.4691  12.4691  12.4691  12.4691  12.5437  12.5437  12.5437  12.5437
    17.0533  17.0533  17.0533  17.0533  17.1378  17.1378  17.1378  17.1378
    17.4574  17.4574  17.4575  17.4575  17.4923  17.4923

     the Fermi energy is     9.9925 ev

!    total energy              =   -6260.39679416 Ry
     Harris-Foulkes estimate   =   -6260.39679416 Ry
     estimated scf accuracy    <          1.6E-09 Ry

     The total energy is the sum of the following terms:

     one-electron contribution =   -4741.74612926 Ry
     hartree contribution      =    2609.45078322 Ry
     xc contribution           =    -966.77046332 Ry
     ewald contribution        =   -3161.33093883 Ry
     smearing contrib. (-TS)   =      -0.00004597 Ry

     convergence has been achieved in  13 iterations

     Writing output data file Landau_10.save

     General routines

     Parallel routines

   This run was terminated on:  23: 2:41  21Mar2020

   JOB DONE.