     Program PWSCF v.6.2 (svn rev. 14038) starts on 23Mar2020 at  3:54: 5

     K-points division:     npool     =      40
     Reading input from rscf.in

     Current dimensions of program PWSCF are:
     Max number of different atomic species (ntypx) = 10
     Max number of k-points (npk) =  40000
     Max angular momentum in pseudopotentials (lmaxx) =  3

     Subspace diagonalization in iterative solution of the eigenvalue problem:
     a serial algorithm will be used

     bravais-lattice index     =            0
     lattice parameter (alat)  =      13.8397  a.u.
     unit-cell volume          =    2804.9816 (a.u.)^3
     number of atoms/cell      =           32
     number of atomic types    =            2
     number of electrons       =       368.00
     number of Kohn-Sham states=          221
     kinetic-energy cutoff     =     120.0000  Ry
     charge density cutoff     =     480.0000  Ry
     convergence threshold     =      1.0E-08
     mixing beta               =       0.7000
     number of iterations used =            8  plain     mixing
     Exchange-correlation      = SLA PW NOGX NOGC ( 1  4  0  0 0 0)
     nstep                     =           50

     celldm(1)=  13.839685  celldm(2)=   0.000000  celldm(3)=   0.000000
     celldm(4)=   0.000000  celldm(5)=   0.000000  celldm(6)=   0.000000

     crystal axes: (cart. coord. in units of alat)
               a(1) = (   1.000000   0.000000   0.000000 )
               a(2) = (   0.000000   1.058160   0.000000 )
               a(3) = (   0.000000   0.000000   1.000000 )

     reciprocal axes: (cart. coord. in units 2 pi/alat)
               b(1) = (  1.000000  0.000000  0.000000 )
               b(2) = (  0.000000  0.945037  0.000000 )
               b(3) = (  0.000000  0.000000  1.000000 )

     PseudoPot. # 1 for W  read from file:
     /cluster/scratch/mnoe/QE/pps/W_ONCV_LDA-4.0.upf
     MD5 check sum: ba0307d5d4cd419d6f1d13dc49d7c13a
     Pseudo is Norm-conserving + core correction, Zval = 28.0
     Generated using ONCVPSP code by D. R. Hamann
     Using radial grid of 1380 points,  8 beta functions with:
                l(1) =   0
                l(2) =   0
                l(3) =   1
                l(4) =   1
                l(5) =   2
                l(6) =   2
                l(7) =   3
                l(8) =   3

     PseudoPot. # 2 for O  read from file:
     /cluster/scratch/mnoe/QE/pps/O_ONCV_LDA-3.0.upf
     MD5 check sum: a1bd6164e7280c17a38c229939bfbd54
     Pseudo is Norm-conserving + core correction, Zval =  6.0
     Generated using ONCVPSP code by D. R. Hamann
     Using radial grid of  926 points,  5 beta functions with:
                l(1) =   0
                l(2) =   0
                l(3) =   1
                l(4) =   1
                l(5) =   2

     atomic species   valence    mass     pseudopotential
        W             28.00   183.84000     W ( 1.00)
        O              6.00    15.99940     O ( 1.00)

      8 Sym. Ops. (no inversion) found ( 7 have fractional translation)

   Cartesian axes

     site n.     atom                  positions (alat units)
         1           W   tau(   1) = (   0.2248210   0.2967742  -0.0007210  )
         2           W   tau(   2) = (   0.7507210   0.7613859  -0.0251790  )
         3           W   tau(   3) = (   0.2751790   0.2323059   0.4992790  )
         4           W   tau(   4) = (   0.7492790   0.8258542   0.4748210  )
         5           W   tau(   5) = (   0.7751790   0.2967742   0.5007210  )
         6           W   tau(   6) = (   0.2492790   0.7613859   0.5251790  )
         7           W   tau(   7) = (   0.7248210   0.2323059   0.0007210  )
         8           W   tau(   8) = (   0.2507210   0.8258542   0.0251790  )
         9           O   tau(   9) = (   0.2223080   0.0084010  -0.0200900  )
        10           O   tau(  10) = (   0.7700900  -0.0084010  -0.0276920  )
        11           O   tau(  11) = (   0.2776920   0.5206790   0.4799100  )
        12           O   tau(  12) = (   0.7299100   0.5374810   0.4723080  )
        13           O   tau(  13) = (   0.7776920   0.0084010   0.5200900  )
        14           O   tau(  14) = (   0.2299100  -0.0084010   0.5276920  )
        15           O   tau(  15) = (   0.7223080   0.5206790   0.0200900  )
        16           O   tau(  16) = (   0.2700900   0.5374810   0.0276920  )
        17           O   tau(  17) = (   0.5089110   0.2329487   0.4529573  )
        18           O   tau(  18) = (   0.5018270   0.8138934   0.5470426  )
        19           O   tau(  19) = (  -0.0089110   0.2961314   0.9529574  )
        20           O   tau(  20) = (  -0.0018270   0.7733468   0.0470427  )
        21           O   tau(  21) = (   0.4910890   0.2329487   0.0470427  )
        22           O   tau(  22) = (   0.4981730   0.8138934   0.9529574  )
        23           O   tau(  23) = (   0.0089110   0.2961314   0.5470426  )
        24           O   tau(  24) = (   0.0018270   0.7733468   0.4529573  )
        25           O   tau(  25) = (   0.7029574   0.2848133   0.7481730  )
        26           O   tau(  26) = (   0.2970427   0.8252115   0.2589110  )
        27           O   tau(  27) = (   0.7970427   0.2442667   0.2481731  )
        28           O   tau(  28) = (   0.2029574   0.7620287   0.7589110  )
        29           O   tau(  29) = (   0.2970427   0.2848133   0.7518270  )
        30           O   tau(  30) = (   0.7029574   0.8252115   0.2410890  )
        31           O   tau(  31) = (   0.2029574   0.2442667   0.2518270  )
        32           O   tau(  32) = (   0.7970427   0.7620287   0.7410890  )

     number of k points=    40  gaussian smearing, width (Ry)=  0.0007
                       cart. coord. in units 2pi/alat
        k(    1) = (   0.0000000   0.0000000   0.0000000), wk =   0.0092593
        k(    2) = (   0.0000000   0.0000000   0.1666667), wk =   0.0370370
        k(    3) = (   0.0000000   0.0000000   0.3333333), wk =   0.0370370
        k(    4) = (   0.0000000   0.0000000  -0.5000000), wk =   0.0185185
        k(    5) = (   0.0000000   0.1575061   0.0000000), wk =   0.0185185
        k(    6) = (   0.0000000   0.1575061   0.1666667), wk =   0.0740741
        k(    7) = (   0.0000000   0.1575061   0.3333333), wk =   0.0740741
        k(    8) = (   0.0000000   0.1575061  -0.5000000), wk =   0.0370370
        k(    9) = (   0.0000000   0.3150122   0.0000000), wk =   0.0185185
        k(   10) = (   0.0000000   0.3150122   0.1666667), wk =   0.0740741
        k(   11) = (   0.0000000   0.3150122   0.3333333), wk =   0.0740741
        k(   12) = (   0.0000000   0.3150122  -0.5000000), wk =   0.0370370
        k(   13) = (   0.0000000  -0.4725183   0.0000000), wk =   0.0092593
        k(   14) = (   0.0000000  -0.4725183   0.1666667), wk =   0.0370370
        k(   15) = (   0.0000000  -0.4725183   0.3333333), wk =   0.0370370
        k(   16) = (   0.0000000  -0.4725183  -0.5000000), wk =   0.0185185
        k(   17) = (   0.1666667   0.0000000   0.1666667), wk =   0.0370370
        k(   18) = (   0.1666667   0.0000000   0.3333333), wk =   0.0740741
        k(   19) = (   0.1666667   0.0000000  -0.5000000), wk =   0.0370370
        k(   20) = (   0.1666667   0.1575061   0.1666667), wk =   0.0740741
        k(   21) = (   0.1666667   0.1575061   0.3333333), wk =   0.1481481
        k(   22) = (   0.1666667   0.1575061  -0.5000000), wk =   0.0740741
        k(   23) = (   0.1666667   0.3150122   0.1666667), wk =   0.0740741
        k(   24) = (   0.1666667   0.3150122   0.3333333), wk =   0.1481481
        k(   25) = (   0.1666667   0.3150122  -0.5000000), wk =   0.0740741
        k(   26) = (   0.1666667  -0.4725183   0.1666667), wk =   0.0370370
        k(   27) = (   0.1666667  -0.4725183   0.3333333), wk =   0.0740741
        k(   28) = (   0.1666667  -0.4725183  -0.5000000), wk =   0.0370370
        k(   29) = (   0.3333333   0.0000000   0.3333333), wk =   0.0370370
        k(   30) = (   0.3333333   0.0000000  -0.5000000), wk =   0.0370370
        k(   31) = (   0.3333333   0.1575061   0.3333333), wk =   0.0740741
        k(   32) = (   0.3333333   0.1575061  -0.5000000), wk =   0.0740741
        k(   33) = (   0.3333333   0.3150122   0.3333333), wk =   0.0740741
        k(   34) = (   0.3333333   0.3150122  -0.5000000), wk =   0.0740741
        k(   35) = (   0.3333333  -0.4725183   0.3333333), wk =   0.0370370
        k(   36) = (   0.3333333  -0.4725183  -0.5000000), wk =   0.0370370
        k(   37) = (  -0.5000000   0.0000000  -0.5000000), wk =   0.0092593
        k(   38) = (  -0.5000000   0.1575061  -0.5000000), wk =   0.0185185
        k(   39) = (  -0.5000000   0.3150122  -0.5000000), wk =   0.0185185
        k(   40) = (  -0.5000000  -0.4725183  -0.5000000), wk =   0.0092593

     Initial potential from superposition of free atoms

     starting charge  367.99656, renormalised to  368.00000
     Starting wfc are  232 randomized atomic wfcs

     Self-consistent Calculation

     iteration #  1     ecut=   120.00 Ry     beta= 0.70
     Davidson diagonalization with overlap
     ethr =  1.00E-02,  avg # of iterations =  4.8

     total energy              =   -6253.89077452 Ry
     Harris-Foulkes estimate   =   -6264.51912231 Ry
     estimated scf accuracy    <      13.44802158 Ry

[...]

     End of self-consistent calculation

          k = 0.0000 0.0000 0.0000 ( 62239 PWs)   bands (ev):

   -66.1727 -66.1723 -66.1717 -66.1717 -66.1713 -66.1713 -66.1707 -66.1703
   -30.6490 -30.6480 -30.6434 -30.6434 -30.5536 -30.5536 -30.5477 -30.5461
   -30.4909 -30.4901 -30.4818 -30.4818 -30.4519 -30.4475 -30.4475 -30.4445
   -30.3980 -30.3980 -30.3976 -30.3963 -30.3928 -30.3928 -30.3902 -30.3869
   -20.3372 -20.3371 -20.3368 -20.3368 -20.3367 -20.3367 -20.3364 -20.3363
   -20.3221 -20.3219 -20.3219 -20.3218 -20.3212 -20.3210 -20.3210 -20.3210
   -20.3171 -20.3168 -20.3167 -20.3167 -20.3124 -20.3122 -20.3122 -20.3117
   -20.3062 -20.3057 -20.3056 -20.3056 -20.3053 -20.3052 -20.3052 -20.3050
   -20.3022 -20.3022 -20.3022 -20.3013 -20.3012 -20.3008 -20.3008 -20.3003
   -20.2972 -20.2971 -20.2961 -20.2961 -20.2921 -20.2921 -20.2915 -20.2913
   -20.2891 -20.2889 -20.2886 -20.2886 -20.2861 -20.2861 -20.2856 -20.2854
    -9.9812  -9.7747  -9.5557  -9.5557  -9.2255  -9.2255  -9.0452  -9.0424
    -8.7214  -8.6211  -8.6118  -8.6118  -8.0537  -8.0140  -7.8947  -7.8947
    -7.7619  -7.7508  -7.6534  -7.6280  -7.6279  -7.5869  -7.5869  -7.5312
     1.1447   1.1575   1.2188   1.2188   1.4150   1.4150   1.5746   1.6343
     1.9727   1.9883   1.9883   2.0680   2.2492   2.3431   2.6257   2.7787
     2.8498   2.8498   4.1808   4.1808   4.3431   4.3769   4.5594   4.5594
     4.6924   4.6924   4.7959   5.0275   5.2719   5.2793   5.2793   5.3761
     5.4743   5.4743   5.5184   5.5587   5.6176   5.6176   5.7402   5.7402
     5.8206   5.8528   5.8667   5.9048   5.9236   5.9236   6.0036   6.0359
     6.1922   6.3850   6.4566   6.5167   6.5168   6.5859   6.8393   6.9137
     6.9137   6.9959   6.9959   7.0744   7.0759   7.0759   7.0827   7.0998
     7.3561   7.3561   7.6842   7.7131   7.9935   8.0320   8.0320   8.1677
     9.6937   9.7519  10.0958  10.0958  10.0983  10.1293  12.1892  12.1892
[...]
W        0.275179008   0.219537582   0.499279008    0   0   0
W        0.749279005   0.780462417   0.474820992    0   0   0
W        0.775178981   0.280462433   0.500720992    0   0   0
W        0.249279008   0.719537567   0.525179008    0   0   0
W        0.724821020   0.219537582   0.000721003    0   0   0
W        0.250720992   0.780462417   0.025178989    0   0   0
O        0.222307986   0.007939261  -0.020089975    0   0   0
O        0.770089962  -0.007939247  -0.027691980    0   0   0
O        0.277691980   0.492060736   0.479909984    0   0   0
O        0.729910018   0.507939247   0.472307997    0   0   0
O        0.777691967   0.007939261   0.520090004    0   0   0
O        0.229909973  -0.007939247   0.527691991    0   0   0
O        0.722308013   0.492060736   0.020089970    0   0   0
O        0.270089993   0.507939247   0.027691975    0   0   0
O        0.508910996   0.220145002   0.452957337    0   0   0
O        0.501826985   0.769159014   0.547042645    0   0   0
O       -0.008910973   0.279854977   0.952957370    0   0   0
O       -0.001826974   0.730841055   0.047042666    0   0   0
O        0.491089004   0.220145002   0.047042666    0   0   0
O        0.498173015   0.769159014   0.952957370    0   0   0
O        0.008910961   0.279854977   0.547042645    0   0   0
O        0.001826962   0.730841055   0.452957337    0   0   0
O        0.702957362   0.269158980   0.748173031    0   0   0
O        0.297042656   0.779855033   0.258910996    0   0   0
O        0.797042653   0.230840999   0.248173061    0   0   0
O        0.202957353   0.720145036   0.758911011    0   0   0
O        0.297042656   0.269158980   0.751827012    0   0   0
O        0.702957362   0.779855033   0.241089050    0   0   0
O        0.202957353   0.230840999   0.251826985    0   0   0
O        0.797042653   0.720145036   0.741089032    0   0   0
End final coordinates

     A final scf calculation at the relaxed structure.
     The G-vectors are recalculated for the final unit cell
     Results may differ from those at the preceding step.

     bravais-lattice index     =            0
     lattice parameter (alat)  =      13.8397  a.u.
     unit-cell volume          =    2777.5312 (a.u.)^3
     number of atoms/cell      =           32
     number of atomic types    =            2
     number of electrons       =       368.00
     number of Kohn-Sham states=          221
     kinetic-energy cutoff     =     120.0000  Ry
     charge density cutoff     =     480.0000  Ry
     convergence threshold     =      1.0E-10
     mixing beta               =       0.7000
     number of iterations used =            8  plain     mixing
     Exchange-correlation      = SLA PW NOGX NOGC ( 1  4  0  0 0 0)

     celldm(1)=  13.839685  celldm(2)=   0.000000  celldm(3)=   0.000000
     celldm(4)=   0.000000  celldm(5)=   0.000000  celldm(6)=   0.000000

     crystal axes: (cart. coord. in units of alat)
               a(1) = (   1.005594   0.000000   0.000000 )
               a(2) = (   0.000000   1.036179   0.000000 )
               a(3) = (   0.000000   0.000000   1.005594 )

     reciprocal axes: (cart. coord. in units 2 pi/alat)
               b(1) = (  0.994437  0.000000  0.000000 )
               b(2) = (  0.000000  0.965084  0.000000 )
               b(3) = (  0.000000  0.000000  0.994437 )

     PseudoPot. # 1 for W  read from file:
     /cluster/scratch/mnoe/QE/pps/W_ONCV_LDA-4.0.upf
     MD5 check sum: ba0307d5d4cd419d6f1d13dc49d7c13a
     Pseudo is Norm-conserving + core correction, Zval = 28.0
     Generated using ONCVPSP code by D. R. Hamann
     Using radial grid of 1380 points,  8 beta functions with:
                l(1) =   0
                l(2) =   0
                l(3) =   1
                l(4) =   1
                l(5) =   2
                l(6) =   2
                l(7) =   3
                l(8) =   3

     PseudoPot. # 2 for O  read from file:
     /cluster/scratch/mnoe/QE/pps/O_ONCV_LDA-3.0.upf
     MD5 check sum: a1bd6164e7280c17a38c229939bfbd54
     Pseudo is Norm-conserving + core correction, Zval =  6.0
     Generated using ONCVPSP code by D. R. Hamann
     Using radial grid of  926 points,  5 beta functions with:
                l(1) =   0
                l(2) =   0
                l(3) =   1
                l(4) =   1
                l(5) =   2

     atomic species   valence    mass     pseudopotential
        W             28.00   183.84000     W ( 1.00)
        O              6.00    15.99940     O ( 1.00)

      8 Sym. Ops. (no inversion) found ( 7 have fractional translation)

   Cartesian axes

     site n.     atom                  positions (alat units)
         1           W   tau(   1) = (   0.2260787   0.2906094  -0.0007250  )
         2           W   tau(   2) = (   0.7549206   0.7455699  -0.0253198  )
         3           W   tau(   3) = (   0.2767184   0.2274803   0.5020720  )
         4           W   tau(   4) = (   0.7534705   0.8086990   0.4774772  )
         5           W   tau(   5) = (   0.7795154   0.2906094   0.5035221  )
         6           W   tau(   6) = (   0.2506735   0.7455699   0.5281169  )
         7           W   tau(   7) = (   0.7288757   0.2274803   0.0007250  )
         8           W   tau(   8) = (   0.2521235   0.8086990   0.0253198  )
         9           O   tau(   9) = (   0.2235516   0.0082265  -0.0202024  )
        10           O   tau(  10) = (   0.7743979  -0.0082265  -0.0278469  )
        11           O   tau(  11) = (   0.2792454   0.5098631   0.4825946  )
        12           O   tau(  12) = (   0.7339932   0.5263161   0.4749501  )
        13           O   tau(  13) = (   0.7820424   0.0082265   0.5229994  )
        14           O   tau(  14) = (   0.2311961  -0.0082265   0.5306439  )
        15           O   tau(  15) = (   0.7263487   0.5098631   0.0202024  )
        16           O   tau(  16) = (   0.2716009   0.5263161   0.0278469  )
        17           O   tau(  17) = (   0.5117579   0.2281097   0.4554912  )
        18           O   tau(  18) = (   0.5046342   0.7969866   0.5501028  )
        19           O   tau(  19) = (  -0.0089608   0.2899799   0.9582883  )
        20           O   tau(  20) = (  -0.0018372   0.7572823   0.0473058  )
        21           O   tau(  21) = (   0.4938362   0.2281097   0.0473058  )
        22           O   tau(  22) = (   0.5009598   0.7969866   0.9582883  )
        23           O   tau(  23) = (   0.0089608   0.2899799   0.5501028  )
        24           O   tau(  24) = (   0.0018372   0.7572823   0.4554912  )
        25           O   tau(  25) = (   0.7068898   0.2788969   0.7523584  )
        26           O   tau(  26) = (   0.2987043   0.8080696   0.2603594  )
        27           O   tau(  27) = (   0.8015014   0.2391927   0.2495614  )
        28           O   tau(  28) = (   0.2040927   0.7461993   0.7631564  )
        29           O   tau(  29) = (   0.2987043   0.2788969   0.7560328  )
        30           O   tau(  30) = (   0.7068898   0.8080696   0.2424377  )
        31           O   tau(  31) = (   0.2040927   0.2391927   0.2532357  )
        32           O   tau(  32) = (   0.8015014   0.7461993   0.7452347  )

     number of k points=    40  gaussian smearing, width (Ry)=  0.0007
                       cart. coord. in units 2pi/alat
        k(    1) = (   0.0000000   0.0000000   0.0000000), wk =   0.0092593
        k(    2) = (   0.0000000   0.0000000   0.1657395), wk =   0.0370370
        k(    3) = (   0.0000000   0.0000000   0.3314790), wk =   0.0370370
        k(    4) = (   0.0000000   0.0000000  -0.4972185), wk =   0.0185185
        k(    5) = (   0.0000000   0.1608473   0.0000000), wk =   0.0185185
        k(    6) = (   0.0000000   0.1608473   0.1657395), wk =   0.0740741
        k(    7) = (   0.0000000   0.1608473   0.3314790), wk =   0.0740741
        k(    8) = (   0.0000000   0.1608473  -0.4972185), wk =   0.0370370
        k(    9) = (   0.0000000   0.3216947   0.0000000), wk =   0.0185185
        k(   10) = (   0.0000000   0.3216947   0.1657395), wk =   0.0740741
        k(   11) = (   0.0000000   0.3216947   0.3314790), wk =   0.0740741
        k(   12) = (   0.0000000   0.3216947  -0.4972185), wk =   0.0370370
        k(   13) = (   0.0000000  -0.4825420   0.0000000), wk =   0.0092593
        k(   14) = (   0.0000000  -0.4825420   0.1657395), wk =   0.0370370
        k(   15) = (   0.0000000  -0.4825420   0.3314790), wk =   0.0370370
        k(   16) = (   0.0000000  -0.4825420  -0.4972185), wk =   0.0185185
        k(   17) = (   0.1657395   0.0000000   0.1657395), wk =   0.0370370
        k(   18) = (   0.1657395   0.0000000   0.3314790), wk =   0.0740741
        k(   19) = (   0.1657395   0.0000000  -0.4972185), wk =   0.0370370
        k(   20) = (   0.1657395   0.1608473   0.1657395), wk =   0.0740741
        k(   21) = (   0.1657395   0.1608473   0.3314790), wk =   0.1481481
        k(   22) = (   0.1657395   0.1608473  -0.4972185), wk =   0.0740741
        k(   23) = (   0.1657395   0.3216947   0.1657395), wk =   0.0740741
        k(   24) = (   0.1657395   0.3216947   0.3314790), wk =   0.1481481
        k(   25) = (   0.1657395   0.3216947  -0.4972185), wk =   0.0740741
        k(   26) = (   0.1657395  -0.4825420   0.1657395), wk =   0.0370370
        k(   27) = (   0.1657395  -0.4825420   0.3314790), wk =   0.0740741
        k(   28) = (   0.1657395  -0.4825420  -0.4972185), wk =   0.0370370
        k(   29) = (   0.3314790   0.0000000   0.3314790), wk =   0.0370370
        k(   30) = (   0.3314790   0.0000000  -0.4972185), wk =   0.0370370
        k(   31) = (   0.3314790   0.1608473   0.3314790), wk =   0.0740741
        k(   32) = (   0.3314790   0.1608473  -0.4972185), wk =   0.0740741
        k(   33) = (   0.3314790   0.3216947   0.3314790), wk =   0.0740741
        k(   34) = (   0.3314790   0.3216947  -0.4972185), wk =   0.0740741
        k(   35) = (   0.3314790  -0.4825420   0.3314790), wk =   0.0370370
        k(   36) = (   0.3314790  -0.4825420  -0.4972185), wk =   0.0370370
        k(   37) = (  -0.4972185   0.0000000  -0.4972185), wk =   0.0092593
        k(   38) = (  -0.4972185   0.1608473  -0.4972185), wk =   0.0185185
        k(   39) = (  -0.4972185   0.3216947  -0.4972185), wk =   0.0185185
        k(   40) = (  -0.4972185  -0.4825420  -0.4972185), wk =   0.0092593

     Initial potential from superposition of free atoms

     starting charge  367.99656, renormalised to  368.00000
     Starting wfc are  232 randomized atomic wfcs

     Writing output data file Landau_14.save

     Self-consistent Calculation

[...]

     total energy              =   -6261.09345153 Ry
     Harris-Foulkes estimate   =   -6261.09345153 Ry
     estimated scf accuracy    <          1.1E-10 Ry

     iteration # 15     ecut=   120.00 Ry     beta= 0.70
     Davidson diagonalization with overlap
     ethr =  1.00E-13,  avg # of iterations =  2.0

     End of self-consistent calculation

[...]

          k = 0.3315-0.4825-0.4972 ( 61632 PWs)   bands (ev):

[...]

          k =-0.4972-0.4825-0.4972 ( 61624 PWs)   bands (ev):

   -65.9824 -65.9824 -65.9823 -65.9823 -65.9823 -65.9823 -65.9823 -65.9823
   -30.3950 -30.3950 -30.3938 -30.3938 -30.3937 -30.3937 -30.3937 -30.3937
   -30.3051 -30.3051 -30.3051 -30.3051 -30.3051 -30.3051 -30.3041 -30.3041
   -30.2351 -30.2351 -30.2349 -30.2349 -30.2349 -30.2349 -30.2348 -30.2348
   -20.1420 -20.1420 -20.1420 -20.1420 -20.1420 -20.1420 -20.1420 -20.1420
   -20.1273 -20.1273 -20.1273 -20.1273 -20.1272 -20.1272 -20.1272 -20.1272
   -20.1164 -20.1164 -20.1163 -20.1163 -20.1163 -20.1163 -20.1162 -20.1162
   -20.1079 -20.1079 -20.1079 -20.1079 -20.1077 -20.1077 -20.1076 -20.1076
   -20.1064 -20.1064 -20.1064 -20.1064 -20.1061 -20.1061 -20.1061 -20.1061
   -20.0967 -20.0967 -20.0967 -20.0966 -20.0966 -20.0966 -20.0966 -20.0966
   -20.0898 -20.0898 -20.0898 -20.0898 -20.0898 -20.0897 -20.0897 -20.0897
    -8.8539  -8.8539  -8.8008  -8.8008  -8.7874  -8.7874  -8.7874  -8.7874
    -8.3210  -8.3210  -8.2478  -8.2478  -8.2478  -8.2478  -8.2178  -8.2178
    -8.1385  -8.1385  -8.1385  -8.1385  -8.0845  -8.0845  -8.0633  -8.0633
     3.0297   3.0297   3.0297   3.0297   3.0458   3.0458   3.0690   3.0690
     3.2680   3.2680   3.3670   3.3670   3.3671   3.3671   3.4293   3.4293
     3.5111   3.5111   3.6427   3.6427   3.6427   3.6427   3.6911   3.6911
     4.2602   4.2602   4.2652   4.2652   4.3344   4.3344   4.3344   4.3344
     4.5231   4.5231   4.5231   4.5231   4.5313   4.5313   4.6305   4.6305
     4.6678   4.6678   4.7312   4.7312   4.7436   4.7436   4.7436   4.7436
     7.1405   7.1405   7.2730   7.2730   7.2730   7.2730   7.4297   7.4297
     7.5067   7.5067   7.5067   7.5067   7.5220   7.5220   7.6201   7.6201
     7.7168   7.7168   7.7424   7.7424   7.7424   7.7424   7.8171   7.8172
    12.0371  12.0371  12.0617  12.0617  12.0617  12.0617  12.0891  12.0891
    12.3618  12.3618  12.3883  12.3883  12.3883  12.3883  12.6091  12.6091
    12.6348  12.6348  12.7688  12.7688  12.7688  12.7688  12.8014  12.8014
    17.1151  17.1151  17.1151  17.1151  17.1756  17.1756  17.2460  17.2460
    17.5271  17.5271  17.5271  17.5271  17.6603

     the Fermi energy is     9.0908 ev

!    total energy              =   -6261.09345153 Ry
     Harris-Foulkes estimate   =   -6261.09345153 Ry
     estimated scf accuracy    <          5.8E-12 Ry

     The total energy is the sum of the following terms:

     one-electron contribution =   -4666.22600321 Ry
     hartree contribution      =    2572.17128934 Ry
     xc contribution           =    -965.64471393 Ry
     ewald contribution        =   -3201.39402372 Ry
     smearing contrib. (-TS)   =      -0.00000000 Ry

     convergence has been achieved in  15 iterations

     Forces acting on atoms (cartesian axes, Ry/au):

     atom    1 type  1   force =     0.03796536   -0.01050627    0.00547443
     atom    2 type  1   force =    -0.00547443    0.01050627    0.03796536
     atom    3 type  1   force =    -0.03796536    0.01050627    0.00547443
     atom    4 type  1   force =     0.00547443   -0.01050627    0.03796536
     atom    5 type  1   force =    -0.03796536   -0.01050627   -0.00547443
     atom    6 type  1   force =     0.00547443    0.01050627   -0.03796536
     atom    7 type  1   force =     0.03796536    0.01050627   -0.00547443
     atom    8 type  1   force =    -0.00547443   -0.01050627   -0.03796536
     atom    9 type  2   force =    -0.00166035    0.00309650    0.00275477
     atom   10 type  2   force =    -0.00275477   -0.00309650   -0.00166035
     atom   11 type  2   force =     0.00166035   -0.00309650    0.00275477
     atom   12 type  2   force =     0.00275477    0.00309650   -0.00166035
     atom   13 type  2   force =     0.00166035    0.00309650   -0.00275477
     atom   14 type  2   force =     0.00275477   -0.00309650    0.00166035
     atom   15 type  2   force =    -0.00166035   -0.00309650   -0.00275477
     atom   16 type  2   force =    -0.00275477    0.00309650    0.00166035
     atom   17 type  2   force =     0.02514421   -0.00241165   -0.00132901
     atom   18 type  2   force =     0.00031831   -0.00409278   -0.00292765
     atom   19 type  2   force =    -0.02514421    0.00241165   -0.00132901
     atom   20 type  2   force =    -0.00031831    0.00409278   -0.00292765
     atom   21 type  2   force =    -0.02514421   -0.00241165    0.00132901
     atom   22 type  2   force =    -0.00031831   -0.00409278    0.00292765
     atom   23 type  2   force =     0.02514421    0.00241165    0.00132901
     atom   24 type  2   force =     0.00031831    0.00409278    0.00292765
     atom   25 type  2   force =     0.00292765   -0.00409278   -0.00031831
     atom   26 type  2   force =     0.00132901    0.00241165    0.02514421
     atom   27 type  2   force =    -0.00292765    0.00409278   -0.00031831
     atom   28 type  2   force =    -0.00132901   -0.00241165    0.02514421
     atom   29 type  2   force =    -0.00292765   -0.00409278    0.00031831
     atom   30 type  2   force =    -0.00132901    0.00241165   -0.02514421
     atom   31 type  2   force =     0.00292765    0.00409278    0.00031831
     atom   32 type  2   force =     0.00132901   -0.00241165   -0.02514421

     Total force =     0.000000     Total SCF correction =     0.000000

     Computing stress (Cartesian axis) and pressure

          total   stress  (Ry/bohr**3)                   (kbar)     P=   -0.06
   0.00000068   0.00000000   0.00000000          0.10      0.00      0.00
   0.00000000  -0.00000259   0.00000000          0.00     -0.38      0.00
   0.00000000   0.00000000   0.00000068          0.00      0.00      0.10

     Writing output data file Landau_14.save

     General routines

     Parallel routines

   This run was terminated on:   6: 3:13  23Mar2020

   JOB DONE.