     Program PWSCF v.6.2 (svn rev. 14038) starts on  8Mar2020 at 20:29:31

     K-points division:     npool     =      40
     Reading input from rscf.in

     Current dimensions of program PWSCF are:
     Max number of different atomic species (ntypx) = 10
     Max number of k-points (npk) =  40000
     Max angular momentum in pseudopotentials (lmaxx) =  3

     Subspace diagonalization in iterative solution of the eigenvalue problem:
     a serial algorithm will be used

     bravais-lattice index     =            0
     lattice parameter (alat)  =      13.8397  a.u.
     unit-cell volume          =    2804.9816 (a.u.)^3
     number of atoms/cell      =           32
     number of atomic types    =            2
     number of electrons       =       368.00
     number of Kohn-Sham states=          221
     kinetic-energy cutoff     =     120.0000  Ry
     charge density cutoff     =     480.0000  Ry
     convergence threshold     =      1.0E-08
     mixing beta               =       0.7000
     number of iterations used =            8  plain     mixing
     Exchange-correlation      = SLA PW NOGX NOGC ( 1  4  0  0 0 0)
     nstep                     =           50

     celldm(1)=  13.839685  celldm(2)=   0.000000  celldm(3)=   0.000000
     celldm(4)=   0.000000  celldm(5)=   0.000000  celldm(6)=   0.000000

     crystal axes: (cart. coord. in units of alat)
               a(1) = (   1.000000   0.000000   0.000000 )
               a(2) = (   0.000000   1.000000   0.000000 )
               a(3) = (   0.000000   0.000000   1.058160 )

     reciprocal axes: (cart. coord. in units 2 pi/alat)
               b(1) = (  1.000000  0.000000  0.000000 )
               b(2) = (  0.000000  1.000000  0.000000 )
               b(3) = (  0.000000  0.000000  0.945037 )

     PseudoPot. # 1 for W  read from file:
     /cluster/scratch/mnoe/QE/pps/W_ONCV_LDA-4.0.upf
     MD5 check sum: ba0307d5d4cd419d6f1d13dc49d7c13a
     Pseudo is Norm-conserving + core correction, Zval = 28.0
     Generated using ONCVPSP code by D. R. Hamann
     Using radial grid of 1380 points,  8 beta functions with:
                l(1) =   0
                l(2) =   0
                l(3) =   1
                l(4) =   1
                l(5) =   2
                l(6) =   2
                l(7) =   3
                l(8) =   3

     PseudoPot. # 2 for O  read from file:
     /cluster/scratch/mnoe/QE/pps/O_ONCV_LDA-3.0.upf
     MD5 check sum: a1bd6164e7280c17a38c229939bfbd54
     Pseudo is Norm-conserving + core correction, Zval =  6.0
     Generated using ONCVPSP code by D. R. Hamann
     Using radial grid of  926 points,  5 beta functions with:
                l(1) =   0
                l(2) =   0
                l(3) =   1
                l(4) =   1
                l(5) =   2

     atomic species   valence    mass     pseudopotential
        W             28.00   183.84000     W ( 1.00)
        O              6.00    15.99940     O ( 1.00)

      8 Sym. Ops. (no inversion) found ( 4 have fractional translation)

   Cartesian axes

     site n.     atom                  positions (alat units)
         1           W   tau(   1) = (   0.2439300   0.2436100   0.2308059  )
         2           W   tau(   2) = (   0.7560700   0.7563900   0.2308059  )
         3           W   tau(   3) = (   0.2436100   0.7560700   0.8273542  )
         4           W   tau(   4) = (   0.7563900   0.2439300   0.8273542  )
         5           W   tau(   5) = (   0.2560700   0.7436101   0.2982742  )
         6           W   tau(   6) = (   0.7439300   0.2563900   0.2982742  )
         7           W   tau(   7) = (   0.2563900   0.2560700   0.7598859  )
         8           W   tau(   8) = (   0.7436101   0.7439300   0.7598859  )
         9           O   tau(   9) = (   0.2370600   0.2371300   0.5202656  )
        10           O   tau(  10) = (   0.7629400   0.7628700   0.5202656  )
        11           O   tau(  11) = (   0.2371300   0.7629400   0.5378945  )
        12           O   tau(  12) = (   0.7628700   0.2370600   0.5378945  )
        13           O   tau(  13) = (   0.2629400   0.7371300   0.0088145  )
        14           O   tau(  14) = (   0.7370600   0.2628700   0.0088145  )
        15           O   tau(  15) = (   0.2628700   0.2629400   1.0493456  )
        16           O   tau(  16) = (   0.7371300   0.7370600   1.0493456  )
        17           O   tau(  17) = (   0.1994100   0.4982300   0.2761163  )
        18           O   tau(  18) = (   0.8005900   0.5017700   0.2761163  )
        19           O   tau(  19) = (   0.4982300   0.8005900   0.7820438  )
        20           O   tau(  20) = (   0.5017700   0.1994100   0.7820438  )
        21           O   tau(  21) = (   0.3005900   0.9982300   0.2529638  )
        22           O   tau(  22) = (   0.6994100   0.0017700   0.2529638  )
        23           O   tau(  23) = (   0.0017700   0.3005900   0.8051963  )
        24           O   tau(  24) = (   0.9982300   0.6994100   0.8051963  )
        25           O   tau(  25) = (   0.9973000   0.1994100   0.2481914  )
        26           O   tau(  26) = (   0.0027000   0.8005900   0.2481914  )
        27           O   tau(  27) = (   0.1994100   0.0027000   0.8099687  )
        28           O   tau(  28) = (   0.8005900   0.9973000   0.8099687  )
        29           O   tau(  29) = (   0.5027000   0.6994100   0.2808886  )
        30           O   tau(  30) = (   0.4973000   0.3005900   0.2808886  )
        31           O   tau(  31) = (   0.3005900   0.5027000   0.7772715  )
        32           O   tau(  32) = (   0.6994100   0.4973000   0.7772715  )

     number of k points=    40  gaussian smearing, width (Ry)=  0.0007
                       cart. coord. in units 2pi/alat
        k(    1) = (   0.0000000   0.0000000   0.0000000), wk =   0.0092593
        k(    2) = (   0.0000000   0.0000000   0.1575061), wk =   0.0185185
        k(    3) = (   0.0000000   0.0000000   0.3150122), wk =   0.0185185
        k(    4) = (   0.0000000   0.0000000  -0.4725183), wk =   0.0092593
        k(    5) = (   0.0000000   0.1666667   0.0000000), wk =   0.0370370
        k(    6) = (   0.0000000   0.1666667   0.1575061), wk =   0.0740741
        k(    7) = (   0.0000000   0.1666667   0.3150122), wk =   0.0740741
        k(    8) = (   0.0000000   0.1666667  -0.4725183), wk =   0.0370370
        k(    9) = (   0.0000000   0.3333333   0.0000000), wk =   0.0370370
        k(   10) = (   0.0000000   0.3333333   0.1575061), wk =   0.0740741
        k(   11) = (   0.0000000   0.3333333   0.3150122), wk =   0.0740741
        k(   12) = (   0.0000000   0.3333333  -0.4725183), wk =   0.0370370
        k(   13) = (   0.0000000  -0.5000000   0.0000000), wk =   0.0185185
        k(   14) = (   0.0000000  -0.5000000   0.1575061), wk =   0.0370370
        k(   15) = (   0.0000000  -0.5000000   0.3150122), wk =   0.0370370
        k(   16) = (   0.0000000  -0.5000000  -0.4725183), wk =   0.0185185
        k(   17) = (   0.1666667   0.1666667   0.0000000), wk =   0.0370370
        k(   18) = (   0.1666667   0.1666667   0.1575061), wk =   0.0740741
        k(   19) = (   0.1666667   0.1666667   0.3150122), wk =   0.0740741
        k(   20) = (   0.1666667   0.1666667  -0.4725183), wk =   0.0370370
        k(   21) = (   0.1666667   0.3333333   0.0000000), wk =   0.0740741
        k(   22) = (   0.1666667   0.3333333   0.1575061), wk =   0.1481481
        k(   23) = (   0.1666667   0.3333333   0.3150122), wk =   0.1481481
        k(   24) = (   0.1666667   0.3333333  -0.4725183), wk =   0.0740741
        k(   25) = (   0.1666667  -0.5000000   0.0000000), wk =   0.0370370
        k(   26) = (   0.1666667  -0.5000000   0.1575061), wk =   0.0740741
        k(   27) = (   0.1666667  -0.5000000   0.3150122), wk =   0.0740741
        k(   28) = (   0.1666667  -0.5000000  -0.4725183), wk =   0.0370370
        k(   29) = (   0.3333333   0.3333333   0.0000000), wk =   0.0370370
        k(   30) = (   0.3333333   0.3333333   0.1575061), wk =   0.0740741
        k(   31) = (   0.3333333   0.3333333   0.3150122), wk =   0.0740741
        k(   32) = (   0.3333333   0.3333333  -0.4725183), wk =   0.0370370
        k(   33) = (   0.3333333  -0.5000000   0.0000000), wk =   0.0370370
        k(   34) = (   0.3333333  -0.5000000   0.1575061), wk =   0.0740741
        k(   35) = (   0.3333333  -0.5000000   0.3150122), wk =   0.0740741
        k(   36) = (   0.3333333  -0.5000000  -0.4725183), wk =   0.0370370
        k(   37) = (  -0.5000000  -0.5000000   0.0000000), wk =   0.0092593
        k(   38) = (  -0.5000000  -0.5000000   0.1575061), wk =   0.0185185
        k(   39) = (  -0.5000000  -0.5000000   0.3150122), wk =   0.0185185
        k(   40) = (  -0.5000000  -0.5000000  -0.4725183), wk =   0.0092593

     Initial potential from superposition of free atoms

     starting charge  367.99656, renormalised to  368.00000
     Starting wfc are  232 randomized atomic wfcs

     Self-consistent Calculation

     iteration #  1     ecut=   120.00 Ry     beta= 0.70
     Davidson diagonalization with overlap
     ethr =  1.00E-02,  avg # of iterations =  5.0

     total energy              =   -6253.94113382 Ry
     Harris-Foulkes estimate   =   -6264.58263543 Ry
     estimated scf accuracy    <      13.46688192 Ry

[...]

     End of self-consistent calculation

          k = 0.0000 0.0000 0.0000 ( 62239 PWs)   bands (ev):

   -66.1855 -66.1851 -66.1845 -66.1845 -66.1841 -66.1841 -66.1834 -66.1831
   -30.5584 -30.5518 -30.5518 -30.5451 -30.5390 -30.5316 -30.5312 -30.5300
   -30.5300 -30.5251 -30.5233 -30.5233 -30.4899 -30.4885 -30.4885 -30.4870
   -30.4355 -30.4355 -30.4318 -30.4316 -30.4283 -30.4283 -30.4246 -30.4234
   -20.3511 -20.3510 -20.3508 -20.3508 -20.3507 -20.3507 -20.3506 -20.3505
   -20.3302 -20.3301 -20.3296 -20.3296 -20.3295 -20.3292 -20.3292 -20.3289
   -20.3289 -20.3289 -20.3288 -20.3283 -20.3275 -20.3268 -20.3266 -20.3266
   -20.3261 -20.3261 -20.3260 -20.3256 -20.3232 -20.3228 -20.3228 -20.3225
   -20.3177 -20.3176 -20.3171 -20.3171 -20.3166 -20.3166 -20.3164 -20.3164
   -20.3112 -20.3112 -20.3112 -20.3109 -20.3107 -20.3107 -20.3102 -20.3100
   -20.3094 -20.3091 -20.3086 -20.3086 -20.3075 -20.3075 -20.3067 -20.3064
    -9.9414  -9.6793  -9.4856  -9.4856  -9.2444  -9.2444  -9.0546  -9.0413
    -8.9950  -8.8238  -8.8035  -8.8035  -7.8638  -7.8019  -7.7901  -7.7848
    -7.7671  -7.7649  -7.7649  -7.7022  -7.6519  -7.6519  -7.6281  -7.6281
     1.2025   1.2042   1.2935   1.2935   1.3029   1.3029   1.4348   1.6446
     1.7091   1.7091   1.7139   1.8915   2.3762   2.4522   2.6104   2.6221
     2.7666   2.7666   4.1662   4.1662   4.3670   4.3862   4.8132   4.8132
     4.8136   4.8471   4.8471   4.9113   5.0951   5.0951   5.1584   5.4696
     5.4875   5.5267   5.5267   5.5501   5.5501   5.6129   5.6129   5.8569
     5.8569   5.8758   5.8873   5.8953   5.9478   5.9629   6.0404   6.0959
     6.0999   6.2328   6.2570   6.5546   6.5546   6.8287   6.8643   6.8643
     6.8854   6.8874   6.9850   6.9972   7.0596   7.0596   7.3314   7.3314
     7.3964   7.3964   7.7403   7.7569   8.0531   8.0531   8.0933   8.1380
     9.3186   9.3248   9.9707  10.0245  10.0245  10.0311  12.1875  12.1875
[...]
W        0.243609990   0.756069991   0.781880024    0   0   0
W        0.756389977   0.243929993   0.781880024    0   0   0
W        0.256070024   0.743610055   0.281880024    0   0   0
W        0.743929976   0.256390010   0.281880024    0   0   0
W        0.256390010   0.256070024   0.718119976    0   0   0
W        0.743610055   0.743929976   0.718119976    0   0   0
O        0.237060003   0.237130004   0.491670026    0   0   0
O        0.762939997   0.762869996   0.491670026    0   0   0
O        0.237130004   0.762939997   0.508329974    0   0   0
O        0.762869996   0.237060003   0.508329974    0   0   0
O        0.262939997   0.737129972   0.008329987    0   0   0
O        0.737060036   0.262870012   0.008329987    0   0   0
O        0.262870012   0.262939997   0.991670026    0   0   0
O        0.737129972   0.737060036   0.991670026    0   0   0
O        0.199410008   0.498230014   0.260939997    0   0   0
O        0.800589976   0.501770019   0.260939997    0   0   0
O        0.498230014   0.800589976   0.739060033    0   0   0
O        0.501770019   0.199410008   0.739060033    0   0   0
O        0.300589976   0.998229981   0.239060018    0   0   0
O        0.699409992   0.001769990   0.239060018    0   0   0
O        0.001769990   0.300589976   0.760939967    0   0   0
O        0.998229981   0.699409992   0.760939967    0   0   0
O        0.997300041   0.199410008   0.234550000    0   0   0
O        0.002699971   0.800589976   0.234550000    0   0   0
O        0.199410008   0.002699971   0.765450015    0   0   0
O        0.800589976   0.997300041   0.765450015    0   0   0
O        0.502699959   0.699409992   0.265450015    0   0   0
O        0.497300041   0.300589976   0.265450015    0   0   0
O        0.300589976   0.502699959   0.734549985    0   0   0
O        0.699409992   0.497300041   0.734549985    0   0   0
End final coordinates

     A final scf calculation at the relaxed structure.
     The G-vectors are recalculated for the final unit cell
     Results may differ from those at the preceding step.

     bravais-lattice index     =            0
     lattice parameter (alat)  =      13.8397  a.u.
     unit-cell volume          =    2791.0939 (a.u.)^3
     number of atoms/cell      =           32
     number of atomic types    =            2
     number of electrons       =       368.00
     number of Kohn-Sham states=          221
     kinetic-energy cutoff     =     120.0000  Ry
     charge density cutoff     =     480.0000  Ry
     convergence threshold     =      1.0E-10
     mixing beta               =       0.7000
     number of iterations used =            8  plain     mixing
     Exchange-correlation      = SLA PW NOGX NOGC ( 1  4  0  0 0 0)

     celldm(1)=  13.839685  celldm(2)=   0.000000  celldm(3)=   0.000000
     celldm(4)=   0.000000  celldm(5)=   0.000000  celldm(6)=   0.000000

     crystal axes: (cart. coord. in units of alat)
               a(1) = (   0.999910   0.000000   0.000000 )
               a(2) = (   0.000000   0.999910   0.000000 )
               a(3) = (   0.000000   0.000000   1.053111 )

     reciprocal axes: (cart. coord. in units 2 pi/alat)
               b(1) = (  1.000090  0.000000  0.000000 )
               b(2) = (  0.000000  1.000090  0.000000 )
               b(3) = (  0.000000  0.000000  0.949568 )

     PseudoPot. # 1 for W  read from file:
     /cluster/scratch/mnoe/QE/pps/W_ONCV_LDA-4.0.upf
     MD5 check sum: ba0307d5d4cd419d6f1d13dc49d7c13a
     Pseudo is Norm-conserving + core correction, Zval = 28.0
     Generated using ONCVPSP code by D. R. Hamann
     Using radial grid of 1380 points,  8 beta functions with:
                l(1) =   0
                l(2) =   0
                l(3) =   1
                l(4) =   1
                l(5) =   2
                l(6) =   2
                l(7) =   3
                l(8) =   3

     PseudoPot. # 2 for O  read from file:
     /cluster/scratch/mnoe/QE/pps/O_ONCV_LDA-3.0.upf
     MD5 check sum: a1bd6164e7280c17a38c229939bfbd54
     Pseudo is Norm-conserving + core correction, Zval =  6.0
     Generated using ONCVPSP code by D. R. Hamann
     Using radial grid of  926 points,  5 beta functions with:
                l(1) =   0
                l(2) =   0
                l(3) =   1
                l(4) =   1
                l(5) =   2

     atomic species   valence    mass     pseudopotential
        W             28.00   183.84000     W ( 1.00)
        O              6.00    15.99940     O ( 1.00)

      8 Sym. Ops. (no inversion) found ( 4 have fractional translation)

   Cartesian axes

     site n.     atom                  positions (alat units)
         1           W   tau(   1) = (   0.2439080   0.2435880   0.2297045  )
         2           W   tau(   2) = (   0.7560019   0.7563218   0.2297045  )
         3           W   tau(   3) = (   0.2435880   0.7560019   0.8234063  )
         4           W   tau(   4) = (   0.7563218   0.2439080   0.8234063  )
         5           W   tau(   5) = (   0.2560470   0.7435431   0.2968509  )
         6           W   tau(   6) = (   0.7438629   0.2563669   0.2968509  )
         7           W   tau(   7) = (   0.2563669   0.2560470   0.7562599  )
         8           W   tau(   8) = (   0.7435431   0.7438629   0.7562599  )
         9           O   tau(   9) = (   0.2370386   0.2371086   0.5177830  )
        10           O   tau(  10) = (   0.7628713   0.7628013   0.5177830  )
        11           O   tau(  11) = (   0.2371086   0.7628713   0.5353278  )
        12           O   tau(  12) = (   0.7628013   0.2370386   0.5353278  )
        13           O   tau(  13) = (   0.2629163   0.7370636   0.0087724  )
        14           O   tau(  14) = (   0.7369936   0.2628463   0.0087724  )
        15           O   tau(  15) = (   0.2628463   0.2629163   1.0443384  )
        16           O   tau(  16) = (   0.7370636   0.7369936   1.0443384  )
        17           O   tau(  17) = (   0.1993920   0.4981851   0.2747987  )
        18           O   tau(  18) = (   0.8005178   0.5017248   0.2747987  )
        19           O   tau(  19) = (   0.4981851   0.8005178   0.7783121  )
        20           O   tau(  20) = (   0.5017248   0.1993920   0.7783121  )
        21           O   tau(  21) = (   0.3005629   0.9981400   0.2517567  )
        22           O   tau(  22) = (   0.6993470   0.0017698   0.2517567  )
        23           O   tau(  23) = (   0.0017698   0.3005629   0.8013541  )
        24           O   tau(  24) = (   0.9981400   0.6993470   0.8013541  )
        25           O   tau(  25) = (   0.9972102   0.1993920   0.2470071  )
        26           O   tau(  26) = (   0.0026997   0.8005178   0.2470071  )
        27           O   tau(  27) = (   0.1993920   0.0026997   0.8061037  )
        28           O   tau(  28) = (   0.8005178   0.9972102   0.8061037  )
        29           O   tau(  29) = (   0.5026547   0.6993470   0.2795483  )
        30           O   tau(  30) = (   0.4972552   0.3005629   0.2795483  )
        31           O   tau(  31) = (   0.3005629   0.5026547   0.7735625  )
        32           O   tau(  32) = (   0.6993470   0.4972552   0.7735625  )

     number of k points=    40  gaussian smearing, width (Ry)=  0.0007
                       cart. coord. in units 2pi/alat
        k(    1) = (   0.0000000   0.0000000   0.0000000), wk =   0.0092593
        k(    2) = (   0.0000000   0.0000000   0.1582613), wk =   0.0185185
        k(    3) = (   0.0000000   0.0000000   0.3165226), wk =   0.0185185
        k(    4) = (   0.0000000   0.0000000  -0.4747838), wk =   0.0092593
        k(    5) = (   0.0000000   0.1666817   0.0000000), wk =   0.0370370
        k(    6) = (   0.0000000   0.1666817   0.1582613), wk =   0.0740741
        k(    7) = (   0.0000000   0.1666817   0.3165226), wk =   0.0740741
        k(    8) = (   0.0000000   0.1666817  -0.4747838), wk =   0.0370370
        k(    9) = (   0.0000000   0.3333634   0.0000000), wk =   0.0370370
        k(   10) = (   0.0000000   0.3333634   0.1582613), wk =   0.0740741
        k(   11) = (   0.0000000   0.3333634   0.3165226), wk =   0.0740741
        k(   12) = (   0.0000000   0.3333634  -0.4747838), wk =   0.0370370
        k(   13) = (   0.0000000  -0.5000451   0.0000000), wk =   0.0185185
        k(   14) = (   0.0000000  -0.5000451   0.1582613), wk =   0.0370370
        k(   15) = (   0.0000000  -0.5000451   0.3165226), wk =   0.0370370
        k(   16) = (   0.0000000  -0.5000451  -0.4747838), wk =   0.0185185
        k(   17) = (   0.1666817   0.1666817   0.0000000), wk =   0.0370370
        k(   18) = (   0.1666817   0.1666817   0.1582613), wk =   0.0740741
        k(   19) = (   0.1666817   0.1666817   0.3165226), wk =   0.0740741
        k(   20) = (   0.1666817   0.1666817  -0.4747838), wk =   0.0370370
        k(   21) = (   0.1666817   0.3333634   0.0000000), wk =   0.0740741
        k(   22) = (   0.1666817   0.3333634   0.1582613), wk =   0.1481481
        k(   23) = (   0.1666817   0.3333634   0.3165226), wk =   0.1481481
        k(   24) = (   0.1666817   0.3333634  -0.4747838), wk =   0.0740741
        k(   25) = (   0.1666817  -0.5000451   0.0000000), wk =   0.0370370
        k(   26) = (   0.1666817  -0.5000451   0.1582613), wk =   0.0740741
        k(   27) = (   0.1666817  -0.5000451   0.3165226), wk =   0.0740741
        k(   28) = (   0.1666817  -0.5000451  -0.4747838), wk =   0.0370370
        k(   29) = (   0.3333634   0.3333634   0.0000000), wk =   0.0370370
        k(   30) = (   0.3333634   0.3333634   0.1582613), wk =   0.0740741
        k(   31) = (   0.3333634   0.3333634   0.3165226), wk =   0.0740741
        k(   32) = (   0.3333634   0.3333634  -0.4747838), wk =   0.0370370
        k(   33) = (   0.3333634  -0.5000451   0.0000000), wk =   0.0370370
        k(   34) = (   0.3333634  -0.5000451   0.1582613), wk =   0.0740741
        k(   35) = (   0.3333634  -0.5000451   0.3165226), wk =   0.0740741
        k(   36) = (   0.3333634  -0.5000451  -0.4747838), wk =   0.0370370
        k(   37) = (  -0.5000451  -0.5000451   0.0000000), wk =   0.0092593
        k(   38) = (  -0.5000451  -0.5000451   0.1582613), wk =   0.0185185
        k(   39) = (  -0.5000451  -0.5000451   0.3165226), wk =   0.0185185
        k(   40) = (  -0.5000451  -0.5000451  -0.4747838), wk =   0.0092593

     Initial potential from superposition of free atoms

     starting charge  367.99656, renormalised to  368.00000
     Starting wfc are  232 randomized atomic wfcs

     Writing output data file Landau_14.save

     Self-consistent Calculation

[...]

     total energy              =   -6261.11065584 Ry
     Harris-Foulkes estimate   =   -6261.11065584 Ry
     estimated scf accuracy    <          3.4E-10 Ry

     iteration # 15     ecut=   120.00 Ry     beta= 0.70
     Davidson diagonalization with overlap
     ethr =  1.00E-13,  avg # of iterations =  2.0

     End of self-consistent calculation

[...]

          k = 0.3334-0.5000-0.4748 ( 61896 PWs)   bands (ev):

[...]

          k =-0.5000-0.5000-0.4748 ( 61952 PWs)   bands (ev):

   -66.0878 -66.0878 -66.0878 -66.0878 -66.0878 -66.0878 -66.0878 -66.0878
   -30.4500 -30.4500 -30.4492 -30.4492 -30.4492 -30.4492 -30.4489 -30.4489
   -30.3901 -30.3901 -30.3901 -30.3901 -30.3878 -30.3878 -30.3876 -30.3876
   -30.3803 -30.3803 -30.3794 -30.3794 -30.3776 -30.3776 -30.3776 -30.3776
   -20.2497 -20.2497 -20.2497 -20.2497 -20.2497 -20.2496 -20.2496 -20.2496
   -20.2282 -20.2282 -20.2282 -20.2281 -20.2281 -20.2281 -20.2281 -20.2281
   -20.2267 -20.2267 -20.2266 -20.2266 -20.2266 -20.2266 -20.2266 -20.2265
   -20.2239 -20.2239 -20.2239 -20.2239 -20.2239 -20.2239 -20.2239 -20.2239
   -20.2130 -20.2130 -20.2130 -20.2130 -20.2127 -20.2127 -20.2127 -20.2127
   -20.2118 -20.2118 -20.2118 -20.2118 -20.2114 -20.2114 -20.2114 -20.2114
   -20.2073 -20.2072 -20.2072 -20.2072 -20.2072 -20.2072 -20.2072 -20.2072
    -8.8752  -8.8752  -8.8574  -8.8574  -8.8574  -8.8574  -8.8518  -8.8518
    -8.3492  -8.3491  -8.3414  -8.3414  -8.3413  -8.3413  -8.3288  -8.3288
    -8.2730  -8.2730  -8.2565  -8.2565  -8.2565  -8.2565  -8.2318  -8.2318
     3.0212   3.0212   3.0212   3.0212   3.0519   3.0519   3.0788   3.0788
     3.2233   3.2233   3.2280   3.2280   3.2772   3.2772   3.2772   3.2772
     3.4212   3.4212   3.5327   3.5327   3.5327   3.5327   3.6053   3.6053
     4.2046   4.2046   4.2314   4.2314   4.2314   4.2314   4.2703   4.2703
     4.4407   4.4407   4.4528   4.4528   4.4555   4.4555   4.4555   4.4555
     4.5263   4.5263   4.5536   4.5536   4.5536   4.5536   4.5873   4.5873
     7.1671   7.1671   7.2568   7.2568   7.2568   7.2568   7.3632   7.3632
     7.4231   7.4231   7.4231   7.4231   7.4321   7.4321   7.4417   7.4417
     7.6530   7.6530   7.6677   7.6677   7.6677   7.6677   7.7146   7.7146
    11.8965  11.8965  11.9039  11.9039  11.9051  11.9051  11.9051  11.9051
    12.2804  12.2804  12.3555  12.3555  12.3555  12.3555  12.4279  12.4279
    12.5788  12.5788  12.6195  12.6195  12.6195  12.6195  12.6571  12.6571
    17.1562  17.1562  17.2262  17.2262  17.2321  17.2321  17.2321  17.2321
    17.4462  17.4462  17.4462  17.4462  17.4954

     the Fermi energy is     9.0312 ev

!    total energy              =   -6261.11065584 Ry
     Harris-Foulkes estimate   =   -6261.11065584 Ry
     estimated scf accuracy    <          2.7E-11 Ry

     The total energy is the sum of the following terms:

     one-electron contribution =   -4698.96560676 Ry
     hartree contribution      =    2587.29032860 Ry
     xc contribution           =    -965.66882704 Ry
     ewald contribution        =   -3183.76655064 Ry
     smearing contrib. (-TS)   =      -0.00000000 Ry

     convergence has been achieved in  15 iterations

     Forces acting on atoms (cartesian axes, Ry/au):

     atom    1 type  1   force =    -0.00115883   -0.00066918    0.00115623
     atom    2 type  1   force =     0.00115883    0.00066918    0.00115623
     atom    3 type  1   force =    -0.00066918    0.00115883   -0.00115623
     atom    4 type  1   force =     0.00066918   -0.00115883   -0.00115623
     atom    5 type  1   force =     0.00115883   -0.00066918   -0.00115623
     atom    6 type  1   force =    -0.00115883    0.00066918   -0.00115623
     atom    7 type  1   force =     0.00066918    0.00115883    0.00115623
     atom    8 type  1   force =    -0.00066918   -0.00115883    0.00115623
     atom    9 type  2   force =    -0.00001195   -0.00048986   -0.00050307
     atom   10 type  2   force =     0.00001195    0.00048986   -0.00050307
     atom   11 type  2   force =    -0.00048986    0.00001195    0.00050307
     atom   12 type  2   force =     0.00048986   -0.00001195    0.00050307
     atom   13 type  2   force =     0.00001195   -0.00048986    0.00050307
     atom   14 type  2   force =    -0.00001195    0.00048986    0.00050307
     atom   15 type  2   force =     0.00048986    0.00001195   -0.00050307
     atom   16 type  2   force =    -0.00048986   -0.00001195   -0.00050307
     atom   17 type  2   force =    -0.00021417    0.00040826   -0.00068647
     atom   18 type  2   force =     0.00021417   -0.00040826   -0.00068647
     atom   19 type  2   force =     0.00040826    0.00021417    0.00068647
     atom   20 type  2   force =    -0.00040826   -0.00021417    0.00068647
     atom   21 type  2   force =     0.00021417    0.00040826    0.00068647
     atom   22 type  2   force =    -0.00021417   -0.00040826    0.00068647
     atom   23 type  2   force =    -0.00040826    0.00021417   -0.00068647
     atom   24 type  2   force =     0.00040826   -0.00021417   -0.00068647
     atom   25 type  2   force =     0.00016069    0.00131075   -0.00035147
     atom   26 type  2   force =    -0.00016069   -0.00131075   -0.00035147
     atom   27 type  2   force =     0.00131075   -0.00016069    0.00035147
     atom   28 type  2   force =    -0.00131075    0.00016069    0.00035147
     atom   29 type  2   force =    -0.00016069    0.00131075    0.00035147
     atom   30 type  2   force =     0.00016069   -0.00131075    0.00035147
     atom   31 type  2   force =    -0.00131075   -0.00016069   -0.00035147
     atom   32 type  2   force =     0.00131075    0.00016069   -0.00035147

     Total force =     0.000000     Total SCF correction =     0.000000

     Computing stress (Cartesian axis) and pressure

          total   stress  (Ry/bohr**3)                   (kbar)     P=   -0.08
  -0.00000035   0.00000000   0.00000000         -0.05      0.00      0.00
   0.00000000  -0.00000035   0.00000000          0.00     -0.05      0.00
   0.00000000   0.00000000  -0.00000103          0.00      0.00     -0.15

     Writing output data file Landau_14.save

     General routines

     Parallel routines

   This run was terminated on:  22:43: 7   8Mar2020

   JOB DONE.