     Program PWSCF v.6.4.1 starts on 21Nov2019 at 23:25:51

     K-points division:     npool     =      40
     Reading input from scf.in

     Current dimensions of program PWSCF are:
     Max number of different atomic species (ntypx) = 10
     Max number of k-points (npk) =  40000
     Max angular momentum in pseudopotentials (lmaxx) =  3

     Subspace diagonalization in iterative solution of the eigenvalue problem:
     a serial algorithm will be used

     Message from routine setup:
     using ibrav=0 with symmetry is DISCOURAGED, use correct ibrav instead

     bravais-lattice index     =            0
     lattice parameter (alat)  =      14.0096  a.u.
     unit-cell volume          =    2843.3428 (a.u.)^3
     number of atoms/cell      =           32
     number of atomic types    =            2
     number of electrons       =       368.05
     number of Kohn-Sham states=          221
     kinetic-energy cutoff     =     120.0000  Ry
     charge density cutoff     =     480.0000  Ry
     convergence threshold     =      1.0E-08
     mixing beta               =       0.7000
     number of iterations used =            8  plain     mixing
     Exchange-correlation      = SLA PW NOGX NOGC ( 1  4  0  0 0 0)

     celldm(1)=  14.009611  celldm(2)=   0.000000  celldm(3)=   0.000000
     celldm(4)=   0.000000  celldm(5)=   0.000000  celldm(6)=   0.000000

     crystal axes: (cart. coord. in units of alat)
               a(1) = (   1.000000   0.000000   0.000000 )
               a(2) = (   0.000000   1.033832   0.000000 )
               a(3) = (   0.000000   0.000000   1.000233 )

     reciprocal axes: (cart. coord. in units 2 pi/alat)
               b(1) = (  1.000000  0.000000  0.000000 )
               b(2) = (  0.000000  0.967275  0.000000 )
               b(3) = (  0.000000  0.000000  0.999767 )

     PseudoPot. # 1 for W  read from file:
     /cluster/scratch/mnoe/QE/pps/W_ONCV_LDA-4.0.upf
     MD5 check sum: ba0307d5d4cd419d6f1d13dc49d7c13a
     Pseudo is Norm-conserving + core correction, Zval = 28.0
     Generated using ONCVPSP code by D. R. Hamann
     Using radial grid of 1380 points,  8 beta functions with:
                l(1) =   0
                l(2) =   0
                l(3) =   1
                l(4) =   1
                l(5) =   2
                l(6) =   2
                l(7) =   3
                l(8) =   3

     PseudoPot. # 2 for O  read from file:
     /cluster/scratch/mnoe/QE/pps/O_ONCV_LDA-3.0.upf
     MD5 check sum: b55cdb4f45ae2203d24ad12cf8d61a31
     Pseudo is Norm-conserving + core correction, Zval =  6.0
     Generated using ONCVPSP code by D. R. Hamann
     Using radial grid of  926 points,  5 beta functions with:
                l(1) =   0
                l(2) =   0
                l(3) =   1
                l(4) =   1
                l(5) =   2

     atomic species   valence    mass     pseudopotential
        W             28.00   183.84000     W ( 1.00)
        O              6.00    15.99940     O ( 1.00)

      8 Sym. Ops., with inversion, found ( 6 have fractional translation)

   Cartesian axes

     site n.     atom                  positions (alat units)
         1           W   tau(   1) = (   0.2430600   0.2966621   0.0065515  )
         2           W   tau(   2) = (   0.7569400   0.7371695   0.9936814  )
         3           W   tau(   3) = (   0.2569400   0.2202537   0.5066680  )
         4           W   tau(   4) = (   0.7430600   0.8135779   0.4935649  )
         5           W   tau(   5) = (   0.7569400   0.2966621   0.4935649  )
         6           W   tau(   6) = (   0.2430600   0.7371695   0.5066680  )
         7           W   tau(   7) = (   0.7430600   0.2202537   0.9936814  )
         8           W   tau(   8) = (   0.2569400   0.8135779   0.0065515  )
         9           O   tau(   9) = (   0.2372000   0.0185666   0.0020405  )
        10           O   tau(  10) = (   0.7628000   1.0152651   0.9981924  )
        11           O   tau(  11) = (   0.2628000   0.4983492   0.5021570  )
        12           O   tau(  12) = (   0.7372000   0.5354824   0.4980760  )
        13           O   tau(  13) = (   0.7628000   0.0185666   0.4980760  )
        14           O   tau(  14) = (   0.2372000   1.0152651   0.5021570  )
        15           O   tau(  15) = (   0.7372000   0.4983492   0.9981924  )
        16           O   tau(  16) = (   0.2628000   0.5354824   0.0020405  )
        17           O   tau(  17) = (   0.5019000   0.2448837   0.4759804  )
        18           O   tau(  18) = (   0.4981000   0.7889479   0.5242526  )
        19           O   tau(  19) = (   0.9981000   0.2720321   0.9760969  )
        20           O   tau(  20) = (   0.0019000   0.7617995   0.0241361  )
        21           O   tau(  21) = (   0.4981000   0.2448837   0.0241361  )
        22           O   tau(  22) = (   0.5019000   0.7889479   0.9760969  )
        23           O   tau(  23) = (   0.0019000   0.2720321   0.5242526  )
        24           O   tau(  24) = (   0.9981000   0.7617995   0.4759804  )
        25           O   tau(  25) = (   0.7258696   0.2554908   0.7472941  )
        26           O   tau(  26) = (   0.2741305   0.7783408   0.2529389  )
        27           O   tau(  27) = (   0.7741305   0.2614250   0.2471776  )
        28           O   tau(  28) = (   0.2258695   0.7724067   0.7530553  )
        29           O   tau(  29) = (   0.2741305   0.2554908   0.7530553  )
        30           O   tau(  30) = (   0.7258696   0.7783408   0.2471776  )
        31           O   tau(  31) = (   0.2258695   0.2614250   0.2529389  )
        32           O   tau(  32) = (   0.7741305   0.7724067   0.7472941  )

     number of k points=    64  gaussian smearing, width (Ry)=  0.0007
                       cart. coord. in units 2pi/alat
        k(    1) = (   0.0000000   0.0000000   0.0000000), wk =   0.0092593
        k(    2) = (   0.0000000   0.0000000   0.1666279), wk =   0.0185185
        k(    3) = (   0.0000000   0.0000000   0.3332557), wk =   0.0185185
        k(    4) = (   0.0000000   0.0000000  -0.4998836), wk =   0.0092593
        k(    5) = (   0.0000000   0.1612126   0.0000000), wk =   0.0185185
        k(    6) = (   0.0000000   0.1612126   0.1666279), wk =   0.0370370
        k(    7) = (   0.0000000   0.1612126   0.3332557), wk =   0.0370370
        k(    8) = (   0.0000000   0.1612126  -0.4998836), wk =   0.0185185
        k(    9) = (   0.0000000   0.3224252   0.0000000), wk =   0.0185185
        k(   10) = (   0.0000000   0.3224252   0.1666279), wk =   0.0370370
        k(   11) = (   0.0000000   0.3224252   0.3332557), wk =   0.0370370
        k(   12) = (   0.0000000   0.3224252  -0.4998836), wk =   0.0185185
        k(   13) = (   0.0000000  -0.4836377   0.0000000), wk =   0.0092593
        k(   14) = (   0.0000000  -0.4836377   0.1666279), wk =   0.0185185
        k(   15) = (   0.0000000  -0.4836377   0.3332557), wk =   0.0185185
        k(   16) = (   0.0000000  -0.4836377  -0.4998836), wk =   0.0092593
        k(   17) = (   0.1666667   0.0000000   0.0000000), wk =   0.0185185
        k(   18) = (   0.1666667   0.0000000   0.1666279), wk =   0.0370370
        k(   19) = (   0.1666667   0.0000000   0.3332557), wk =   0.0370370
        k(   20) = (   0.1666667   0.0000000  -0.4998836), wk =   0.0185185
        k(   21) = (   0.1666667   0.1612126   0.0000000), wk =   0.0370370
        k(   22) = (   0.1666667   0.1612126   0.1666279), wk =   0.0740741
        k(   23) = (   0.1666667   0.1612126   0.3332557), wk =   0.0740741
        k(   24) = (   0.1666667   0.1612126  -0.4998836), wk =   0.0370370
        k(   25) = (   0.1666667   0.3224252   0.0000000), wk =   0.0370370
        k(   26) = (   0.1666667   0.3224252   0.1666279), wk =   0.0740741
        k(   27) = (   0.1666667   0.3224252   0.3332557), wk =   0.0740741
        k(   28) = (   0.1666667   0.3224252  -0.4998836), wk =   0.0370370
        k(   29) = (   0.1666667  -0.4836377   0.0000000), wk =   0.0185185
        k(   30) = (   0.1666667  -0.4836377   0.1666279), wk =   0.0370370
        k(   31) = (   0.1666667  -0.4836377   0.3332557), wk =   0.0370370
        k(   32) = (   0.1666667  -0.4836377  -0.4998836), wk =   0.0185185
        k(   33) = (   0.3333333   0.0000000   0.0000000), wk =   0.0185185
        k(   34) = (   0.3333333   0.0000000   0.1666279), wk =   0.0370370
        k(   35) = (   0.3333333   0.0000000   0.3332557), wk =   0.0370370
        k(   36) = (   0.3333333   0.0000000  -0.4998836), wk =   0.0185185
        k(   37) = (   0.3333333   0.1612126   0.0000000), wk =   0.0370370
        k(   38) = (   0.3333333   0.1612126   0.1666279), wk =   0.0740741
        k(   39) = (   0.3333333   0.1612126   0.3332557), wk =   0.0740741
        k(   40) = (   0.3333333   0.1612126  -0.4998836), wk =   0.0370370
        k(   41) = (   0.3333333   0.3224252   0.0000000), wk =   0.0370370
        k(   42) = (   0.3333333   0.3224252   0.1666279), wk =   0.0740741
        k(   43) = (   0.3333333   0.3224252   0.3332557), wk =   0.0740741
        k(   44) = (   0.3333333   0.3224252  -0.4998836), wk =   0.0370370
        k(   45) = (   0.3333333  -0.4836377   0.0000000), wk =   0.0185185
        k(   46) = (   0.3333333  -0.4836377   0.1666279), wk =   0.0370370
        k(   47) = (   0.3333333  -0.4836377   0.3332557), wk =   0.0370370
        k(   48) = (   0.3333333  -0.4836377  -0.4998836), wk =   0.0185185
        k(   49) = (  -0.5000000   0.0000000   0.0000000), wk =   0.0092593
        k(   50) = (  -0.5000000   0.0000000   0.1666279), wk =   0.0185185
        k(   51) = (  -0.5000000   0.0000000   0.3332557), wk =   0.0185185
        k(   52) = (  -0.5000000   0.0000000  -0.4998836), wk =   0.0092593
        k(   53) = (  -0.5000000   0.1612126   0.0000000), wk =   0.0185185
        k(   54) = (  -0.5000000   0.1612126   0.1666279), wk =   0.0370370
        k(   55) = (  -0.5000000   0.1612126   0.3332557), wk =   0.0370370
        k(   56) = (  -0.5000000   0.1612126  -0.4998836), wk =   0.0185185
        k(   57) = (  -0.5000000   0.3224252   0.0000000), wk =   0.0185185
        k(   58) = (  -0.5000000   0.3224252   0.1666279), wk =   0.0370370
        k(   59) = (  -0.5000000   0.3224252   0.3332557), wk =   0.0370370
        k(   60) = (  -0.5000000   0.3224252  -0.4998836), wk =   0.0185185
        k(   61) = (  -0.5000000  -0.4836377   0.0000000), wk =   0.0092593
        k(   62) = (  -0.5000000  -0.4836377   0.1666279), wk =   0.0185185
        k(   63) = (  -0.5000000  -0.4836377   0.3332557), wk =   0.0185185
        k(   64) = (  -0.5000000  -0.4836377  -0.4998836), wk =   0.0092593

     Initial potential from superposition of free atoms

     starting charge  367.99656, renormalised to  368.05000
     Starting wfcs are  232 randomized atomic wfcs

     Self-consistent Calculation

     iteration #  1     ecut=   120.00 Ry     beta= 0.70
     Davidson diagonalization with overlap
     ethr =  1.00E-02,  avg # of iterations =  5.0

     total energy              =   -6253.83493669 Ry
     Harris-Foulkes estimate   =   -6264.57347124 Ry
     estimated scf accuracy    <      13.58826985 Ry

[...]

     iteration #  7     ecut=   120.00 Ry     beta= 0.70
     Davidson diagonalization with overlap
     c_bands:  1 eigenvalues not converged
     ethr =  1.96E-06,  avg # of iterations =  6.7

[...]

     total energy              =   -6261.04848468 Ry
     Harris-Foulkes estimate   =   -6261.04848472 Ry
     estimated scf accuracy    <       0.00000006 Ry

     iteration # 13     ecut=   120.00 Ry     beta= 0.70
     Davidson diagonalization with overlap
     ethr =  1.75E-11,  avg # of iterations =  2.9

     End of self-consistent calculation

          k = 0.0000 0.0000 0.0000 ( 63135 PWs)   bands (ev):

   -66.3841 -66.3836 -66.3834 -66.3833 -66.3829 -66.3829 -66.3826 -66.3822
   -30.7532 -30.7491 -30.7468 -30.7431 -30.7319 -30.7312 -30.7301 -30.7263
   -30.7262 -30.7233 -30.7208 -30.7200 -30.6792 -30.6786 -30.6763 -30.6754
   -30.6446 -30.6420 -30.6414 -30.6413 -30.6395 -30.6395 -30.6344 -30.6330
   -20.5480 -20.5479 -20.5477 -20.5477 -20.5474 -20.5474 -20.5473 -20.5472
   -20.5329 -20.5328 -20.5316 -20.5315 -20.5310 -20.5308 -20.5298 -20.5296
   -20.5288 -20.5287 -20.5271 -20.5270 -20.5267 -20.5265 -20.5250 -20.5248
   -20.5217 -20.5216 -20.5214 -20.5213 -20.5181 -20.5181 -20.5173 -20.5172
   -20.5161 -20.5158 -20.5154 -20.5152 -20.5151 -20.5147 -20.5136 -20.5136
   -20.5130 -20.5128 -20.5112 -20.5107 -20.5107 -20.5105 -20.5096 -20.5088
   -20.5076 -20.5075 -20.5072 -20.5068 -20.5059 -20.5058 -20.5052 -20.5052
   -10.1556  -9.8104  -9.7703  -9.7695  -9.4472  -9.4400  -9.3400  -9.1834
    -9.1612  -9.0537  -9.0502  -9.0486  -8.0278  -7.9646  -7.9521  -7.9495
    -7.9407  -7.9374  -7.9253  -7.8940  -7.8822  -7.8765  -7.8743  -7.8608
     0.9525   0.9536   1.0503   1.0604   1.0720   1.0760   1.0974   1.2976
     1.3026   1.3107   1.3135   1.4748   2.3091   2.3229   2.3398   2.4032
     2.4161   2.4208   3.9439   3.9659   4.1287   4.1642   4.4845   4.4908
     4.5261   4.5351   4.5958   4.6488   4.6975   4.6979   4.9291   5.3407
     5.3547   5.3587   5.3693   5.4201   5.4307   5.4474   5.4918   5.6609
     5.6968   5.7238   5.7262   5.7681   5.7845   5.8311   5.9000   6.0244
     6.0544   6.1565   6.2105   6.3087   6.3101   6.5246   6.5499   6.5534
     6.5685   6.6598   6.9203   6.9373   6.9456   6.9477   7.0177   7.0259
     7.0396   7.0444   8.0076   8.0171   8.0565   8.0579   8.0674   8.0747
     8.9409   8.9521   9.5882   9.5903   9.6762   9.6848  12.2456  12.2543
    12.2897  12.3132  12.3245  12.3292  12.3416  12.3647  12.8664  13.0492
    13.0882  13.1507  13.2497  13.3979  13.4338  13.6528  13.9509  13.9930
    14.0019  14.0766  14.2666  14.5229  14.5517  14.5916  15.4084  15.4129
    15.4418  16.3896  16.7991  16.8287  17.1745

[...]

          k = 0.3333-0.4836-0.4999 ( 63100 PWs)   bands (ev):

[...]

          k =-0.5000 0.0000 0.0000 ( 63108 PWs)   bands (ev):

[...]

          k =-0.5000-0.4836-0.4999 ( 63088 PWs)   bands (ev):

   -66.3831 -66.3831 -66.3831 -66.3831 -66.3831 -66.3831 -66.3831 -66.3831
   -30.7184 -30.7184 -30.7184 -30.7184 -30.7174 -30.7174 -30.7174 -30.7174
   -30.6875 -30.6875 -30.6874 -30.6874 -30.6861 -30.6861 -30.6861 -30.6861
   -30.6751 -30.6751 -30.6751 -30.6751 -30.6737 -30.6737 -30.6737 -30.6737
   -20.5476 -20.5476 -20.5476 -20.5476 -20.5476 -20.5476 -20.5476 -20.5476
   -20.5313 -20.5313 -20.5313 -20.5313 -20.5312 -20.5312 -20.5312 -20.5312
   -20.5268 -20.5268 -20.5268 -20.5268 -20.5266 -20.5266 -20.5266 -20.5266
   -20.5189 -20.5189 -20.5189 -20.5188 -20.5186 -20.5186 -20.5186 -20.5186
   -20.5160 -20.5160 -20.5160 -20.5159 -20.5159 -20.5159 -20.5159 -20.5159
   -20.5111 -20.5111 -20.5111 -20.5111 -20.5110 -20.5110 -20.5110 -20.5110
   -20.5065 -20.5065 -20.5065 -20.5065 -20.5065 -20.5065 -20.5065 -20.5065
    -9.1665  -9.1665  -9.1664  -9.1664  -9.1512  -9.1512  -9.1512  -9.1512
    -8.6057  -8.6057  -8.6057  -8.6057  -8.5953  -8.5953  -8.5953  -8.5953
    -8.5346  -8.5346  -8.5346  -8.5345  -8.5100  -8.5100  -8.5100  -8.5100
     2.6833   2.6833   2.6833   2.6834   2.7692   2.7692   2.7692   2.7692
     2.8190   2.8190   2.8190   2.8190   2.9300   2.9300   2.9300   2.9300
     3.1578   3.1578   3.1578   3.1578   3.2572   3.2572   3.2572   3.2572
     3.9558   3.9558   3.9558   3.9558   3.9963   3.9963   3.9963   3.9963
     4.1578   4.1578   4.1578   4.1578   4.1854   4.1855   4.1855   4.1855
     4.2940   4.2940   4.2940   4.2940   4.3350   4.3350   4.3350   4.3350
     7.0011   7.0011   7.0011   7.0011   7.1135   7.1135   7.1136   7.1136
     7.1502   7.1502   7.1502   7.1502   7.1924   7.1924   7.1925   7.1925
     7.4203   7.4203   7.4203   7.4203   7.4611   7.4611   7.4611   7.4611
    11.6251  11.6251  11.6251  11.6251  11.6577  11.6577  11.6577  11.6577
    12.0152  12.0152  12.0153  12.0153  12.1323  12.1323  12.1324  12.1324
    12.2276  12.2276  12.2276  12.2276  12.3000  12.3000  12.3000  12.3000
    16.7995  16.7995  16.7995  16.7996  16.8769  16.8769  16.8769  16.8769
    17.2769  17.2769  17.2769  17.2769  17.3216

     the Fermi energy is     8.9487 ev

!    total energy              =   -6261.04848469 Ry
     Harris-Foulkes estimate   =   -6261.04848469 Ry
     estimated scf accuracy    <          1.0E-09 Ry

     The total energy is the sum of the following terms:

     one-electron contribution =   -4777.95537327 Ry
     hartree contribution      =    2623.01091980 Ry
     xc contribution           =    -965.75582089 Ry
     ewald contribution        =   -3140.34819109 Ry
     smearing contrib. (-TS)   =      -0.00001923 Ry

     convergence has been achieved in  13 iterations

     Writing output data file Landau_15.save/

     General routines

     Parallel routines

   This run was terminated on:  23:56:48  21Nov2019

   JOB DONE.