     Program PWSCF v.6.2 (svn rev. 14038) starts on 23Mar2020 at  3: 4: 1

     K-points division:     npool     =      40
     Reading input from rscf.in

     Current dimensions of program PWSCF are:
     Max number of different atomic species (ntypx) = 10
     Max number of k-points (npk) =  40000
     Max angular momentum in pseudopotentials (lmaxx) =  3

     Subspace diagonalization in iterative solution of the eigenvalue problem:
     a serial algorithm will be used

     bravais-lattice index     =            0
     lattice parameter (alat)  =      13.8397  a.u.
     unit-cell volume          =    2804.9816 (a.u.)^3
     number of atoms/cell      =           32
     number of atomic types    =            2
     number of electrons       =       368.00
     number of Kohn-Sham states=          221
     kinetic-energy cutoff     =     120.0000  Ry
     charge density cutoff     =     480.0000  Ry
     convergence threshold     =      1.0E-08
     mixing beta               =       0.7000
     number of iterations used =            8  plain     mixing
     Exchange-correlation      = SLA PW NOGX NOGC ( 1  4  0  0 0 0)
     nstep                     =           50

     celldm(1)=  13.839685  celldm(2)=   0.000000  celldm(3)=   0.000000
     celldm(4)=   0.000000  celldm(5)=   0.000000  celldm(6)=   0.000000

     crystal axes: (cart. coord. in units of alat)
               a(1) = (   1.000000   0.000000   0.000000 )
               a(2) = (   0.000000   1.058160   0.000000 )
               a(3) = (   0.000000   0.000000   1.000000 )

     reciprocal axes: (cart. coord. in units 2 pi/alat)
               b(1) = (  1.000000  0.000000  0.000000 )
               b(2) = (  0.000000  0.945037  0.000000 )
               b(3) = (  0.000000  0.000000  1.000000 )

     PseudoPot. # 1 for W  read from file:
     /cluster/scratch/mnoe/QE/pps/W_ONCV_LDA-4.0.upf
     MD5 check sum: ba0307d5d4cd419d6f1d13dc49d7c13a
     Pseudo is Norm-conserving + core correction, Zval = 28.0
     Generated using ONCVPSP code by D. R. Hamann
     Using radial grid of 1380 points,  8 beta functions with:
                l(1) =   0
                l(2) =   0
                l(3) =   1
                l(4) =   1
                l(5) =   2
                l(6) =   2
                l(7) =   3
                l(8) =   3

     PseudoPot. # 2 for O  read from file:
     /cluster/scratch/mnoe/QE/pps/O_ONCV_LDA-3.0.upf
     MD5 check sum: a1bd6164e7280c17a38c229939bfbd54
     Pseudo is Norm-conserving + core correction, Zval =  6.0
     Generated using ONCVPSP code by D. R. Hamann
     Using radial grid of  926 points,  5 beta functions with:
                l(1) =   0
                l(2) =   0
                l(3) =   1
                l(4) =   1
                l(5) =   2

     atomic species   valence    mass     pseudopotential
        W             28.00   183.84000     W ( 1.00)
        O              6.00    15.99940     O ( 1.00)

      4 Sym. Ops. (no inversion) found ( 3 have fractional translation)

   Cartesian axes

     site n.     atom                  positions (alat units)
         1           W   tau(   1) = (   0.2284905   0.2920274   0.0050179  )
         2           W   tau(   2) = (   0.7562405   0.7661327  -0.0211871  )
         3           W   tau(   3) = (   0.2715095   0.2370527   0.5050179  )
         4           W   tau(   4) = (   0.7437595   0.8211074   0.4788129  )
         5           W   tau(   5) = (   0.7715094   0.2920274   0.4949821  )
         6           W   tau(   6) = (   0.2437595   0.7661327   0.5211871  )
         7           W   tau(   7) = (   0.7284905   0.2370527  -0.0050179  )
         8           W   tau(   8) = (   0.2562405   0.8211074   0.0211871  )
         9           O   tau(   9) = (   0.2220296   0.0071078  -0.0108425  )
        10           O   tau(  10) = (   0.7732245  -0.0071079  -0.0189875  )
        11           O   tau(  11) = (   0.2779704   0.5219722   0.4891575  )
        12           O   tau(  12) = (   0.7267754   0.5361879   0.4810125  )
        13           O   tau(  13) = (   0.7779704   0.0071078   0.5108425  )
        14           O   tau(  14) = (   0.2267754  -0.0071079   0.5189875  )
        15           O   tau(  15) = (   0.7220296   0.5219722   0.0108425  )
        16           O   tau(  16) = (   0.2732246   0.5361879   0.0189875  )
        17           O   tau(  17) = (   0.5071468   0.2332225   0.4639262  )
        18           O   tau(  18) = (   0.4995568   0.8178718   0.5360738  )
        19           O   tau(  19) = (  -0.0071468   0.2958575   0.9639262  )
        20           O   tau(  20) = (   0.0004432   0.7693684   0.0360738  )
        21           O   tau(  21) = (   0.4928532   0.2332225   0.0360738  )
        22           O   tau(  22) = (   0.5004432   0.8178718   0.9639262  )
        23           O   tau(  23) = (   0.0071468   0.2958575   0.5360738  )
        24           O   tau(  24) = (  -0.0004432   0.7693684   0.4639262  )
        25           O   tau(  25) = (   0.7139262   0.2746661   0.7464587  )
        26           O   tau(  26) = (   0.2860738   0.8158727   0.2579637  )
        27           O   tau(  27) = (   0.7860739   0.2544139   0.2464588  )
        28           O   tau(  28) = (   0.2139262   0.7713675   0.7579637  )
        29           O   tau(  29) = (   0.2860738   0.2746661   0.7535412  )
        30           O   tau(  30) = (   0.7139262   0.8158727   0.2420363  )
        31           O   tau(  31) = (   0.2139262   0.2544139   0.2535412  )
        32           O   tau(  32) = (   0.7860739   0.7713675   0.7420363  )

     number of k points=    64  gaussian smearing, width (Ry)=  0.0007
                       cart. coord. in units 2pi/alat
        k(    1) = (   0.0000000   0.0000000   0.0000000), wk =   0.0092593
        k(    2) = (   0.0000000   0.0000000   0.1666667), wk =   0.0185185
        k(    3) = (   0.0000000   0.0000000   0.3333333), wk =   0.0185185
        k(    4) = (   0.0000000   0.0000000  -0.5000000), wk =   0.0092593
        k(    5) = (   0.0000000   0.1575061   0.0000000), wk =   0.0185185
        k(    6) = (   0.0000000   0.1575061   0.1666667), wk =   0.0370370
        k(    7) = (   0.0000000   0.1575061   0.3333333), wk =   0.0370370
        k(    8) = (   0.0000000   0.1575061  -0.5000000), wk =   0.0185185
        k(    9) = (   0.0000000   0.3150122   0.0000000), wk =   0.0185185
        k(   10) = (   0.0000000   0.3150122   0.1666667), wk =   0.0370370
        k(   11) = (   0.0000000   0.3150122   0.3333333), wk =   0.0370370
        k(   12) = (   0.0000000   0.3150122  -0.5000000), wk =   0.0185185
        k(   13) = (   0.0000000  -0.4725183   0.0000000), wk =   0.0092593
        k(   14) = (   0.0000000  -0.4725183   0.1666667), wk =   0.0185185
        k(   15) = (   0.0000000  -0.4725183   0.3333333), wk =   0.0185185
        k(   16) = (   0.0000000  -0.4725183  -0.5000000), wk =   0.0092593
        k(   17) = (   0.1666667   0.0000000   0.1666667), wk =   0.0370370
        k(   18) = (   0.1666667   0.0000000   0.3333333), wk =   0.0370370
        k(   19) = (   0.1666667   0.0000000  -0.5000000), wk =   0.0185185
        k(   20) = (   0.1666667   0.1575061   0.1666667), wk =   0.0740741
        k(   21) = (   0.1666667   0.1575061   0.3333333), wk =   0.0740741
        k(   22) = (   0.1666667   0.1575061  -0.5000000), wk =   0.0370370
        k(   23) = (   0.1666667   0.3150122   0.1666667), wk =   0.0740741
        k(   24) = (   0.1666667   0.3150122   0.3333333), wk =   0.0740741
        k(   25) = (   0.1666667   0.3150122  -0.5000000), wk =   0.0370370
        k(   26) = (   0.1666667  -0.4725183   0.1666667), wk =   0.0370370
        k(   27) = (   0.1666667  -0.4725183   0.3333333), wk =   0.0370370
        k(   28) = (   0.1666667  -0.4725183  -0.5000000), wk =   0.0185185
        k(   29) = (   0.3333333   0.0000000   0.3333333), wk =   0.0370370
        k(   30) = (   0.3333333   0.0000000  -0.5000000), wk =   0.0185185
        k(   31) = (   0.3333333   0.1575061   0.3333333), wk =   0.0740741
        k(   32) = (   0.3333333   0.1575061  -0.5000000), wk =   0.0370370
        k(   33) = (   0.3333333   0.3150122   0.3333333), wk =   0.0740741
        k(   34) = (   0.3333333   0.3150122  -0.5000000), wk =   0.0370370
        k(   35) = (   0.3333333  -0.4725183   0.3333333), wk =   0.0370370
        k(   36) = (   0.3333333  -0.4725183  -0.5000000), wk =   0.0185185
        k(   37) = (  -0.5000000   0.0000000  -0.5000000), wk =   0.0092593
        k(   38) = (  -0.5000000   0.1575061  -0.5000000), wk =   0.0185185
        k(   39) = (  -0.5000000   0.3150122  -0.5000000), wk =   0.0185185
        k(   40) = (  -0.5000000  -0.4725183  -0.5000000), wk =   0.0092593
        k(   41) = (   0.1666667   0.0000000   0.0000000), wk =   0.0185185
        k(   42) = (   0.3333333   0.0000000   0.0000000), wk =   0.0185185
        k(   43) = (  -0.5000000   0.0000000   0.0000000), wk =   0.0092593
        k(   44) = (   0.1666667  -0.1575061   0.0000000), wk =   0.0370370
        k(   45) = (   0.3333333  -0.1575061   0.0000000), wk =   0.0370370
        k(   46) = (  -0.5000000  -0.1575061   0.0000000), wk =   0.0185185
        k(   47) = (   0.1666667  -0.3150122   0.0000000), wk =   0.0370370
        k(   48) = (   0.3333333  -0.3150122   0.0000000), wk =   0.0370370
        k(   49) = (  -0.5000000  -0.3150122   0.0000000), wk =   0.0185185
        k(   50) = (   0.1666667   0.4725183   0.0000000), wk =   0.0185185
        k(   51) = (   0.3333333   0.4725183   0.0000000), wk =   0.0185185
        k(   52) = (  -0.5000000   0.4725183   0.0000000), wk =   0.0092593
        k(   53) = (   0.3333333   0.0000000   0.1666667), wk =   0.0370370
        k(   54) = (  -0.5000000   0.0000000   0.1666667), wk =   0.0185185
        k(   55) = (   0.3333333  -0.1575061   0.1666667), wk =   0.0740741
        k(   56) = (  -0.5000000  -0.1575061   0.1666667), wk =   0.0370370
        k(   57) = (   0.3333333  -0.3150122   0.1666667), wk =   0.0740741
        k(   58) = (  -0.5000000  -0.3150122   0.1666667), wk =   0.0370370
        k(   59) = (   0.3333333   0.4725183   0.1666667), wk =   0.0370370
        k(   60) = (  -0.5000000   0.4725183   0.1666667), wk =   0.0185185
        k(   61) = (  -0.5000000   0.0000000   0.3333333), wk =   0.0185185
        k(   62) = (  -0.5000000  -0.1575061   0.3333333), wk =   0.0370370
        k(   63) = (  -0.5000000  -0.3150122   0.3333333), wk =   0.0370370
        k(   64) = (  -0.5000000   0.4725183   0.3333333), wk =   0.0185185

     Initial potential from superposition of free atoms

     starting charge  367.99656, renormalised to  368.00000
     Starting wfc are  232 randomized atomic wfcs

     Self-consistent Calculation

     iteration #  1     ecut=   120.00 Ry     beta= 0.70
     Davidson diagonalization with overlap
     ethr =  1.00E-02,  avg # of iterations =  5.1

     total energy              =   -6253.98679432 Ry
     Harris-Foulkes estimate   =   -6264.52307789 Ry
     estimated scf accuracy    <      13.35334047 Ry

[...]

     End of self-consistent calculation

[...]
End final coordinates

     A final scf calculation at the relaxed structure.
     The G-vectors are recalculated for the final unit cell
     Results may differ from those at the preceding step.

     bravais-lattice index     =            0
     lattice parameter (alat)  =      13.8397  a.u.
     unit-cell volume          =    2817.9618 (a.u.)^3
     number of atoms/cell      =           32
     number of atomic types    =            2
     number of electrons       =       368.00
     number of Kohn-Sham states=          221
     kinetic-energy cutoff     =     120.0000  Ry
     charge density cutoff     =     480.0000  Ry
     convergence threshold     =      1.0E-10
     mixing beta               =       0.7000
     number of iterations used =            8  plain     mixing
     Exchange-correlation      = SLA PW NOGX NOGC ( 1  4  0  0 0 0)

     celldm(1)=  13.839685  celldm(2)=   0.000000  celldm(3)=   0.000000
     celldm(4)=   0.000000  celldm(5)=   0.000000  celldm(6)=   0.000000

     crystal axes: (cart. coord. in units of alat)
               a(1) = (   1.012514   0.000000   0.000000 )
               a(2) = (   0.000000   1.034339   0.000000 )
               a(3) = (   0.000000   0.000000   1.015062 )

     reciprocal axes: (cart. coord. in units 2 pi/alat)
               b(1) = (  0.987641  0.000000  0.000000 )
               b(2) = (  0.000000  0.966801  0.000000 )
               b(3) = (  0.000000  0.000000  0.985162 )

     PseudoPot. # 1 for W  read from file:
     /cluster/scratch/mnoe/QE/pps/W_ONCV_LDA-4.0.upf
     MD5 check sum: ba0307d5d4cd419d6f1d13dc49d7c13a
     Pseudo is Norm-conserving + core correction, Zval = 28.0
     Generated using ONCVPSP code by D. R. Hamann
     Using radial grid of 1380 points,  8 beta functions with:
                l(1) =   0
                l(2) =   0
                l(3) =   1
                l(4) =   1
                l(5) =   2
                l(6) =   2
                l(7) =   3
                l(8) =   3

     PseudoPot. # 2 for O  read from file:
     /cluster/scratch/mnoe/QE/pps/O_ONCV_LDA-3.0.upf
     MD5 check sum: a1bd6164e7280c17a38c229939bfbd54
     Pseudo is Norm-conserving + core correction, Zval =  6.0
     Generated using ONCVPSP code by D. R. Hamann
     Using radial grid of  926 points,  5 beta functions with:
                l(1) =   0
                l(2) =   0
                l(3) =   1
                l(4) =   1
                l(5) =   2

     atomic species   valence    mass     pseudopotential
        W             28.00   183.84000     W ( 1.00)
        O              6.00    15.99940     O ( 1.00)

      4 Sym. Ops. (no inversion) found ( 3 have fractional translation)

   Cartesian axes

     site n.     atom                  positions (alat units)
         1           W   tau(   1) = (   0.2313498   0.2854533   0.0050935  )
         2           W   tau(   2) = (   0.7657040   0.7488858  -0.0215062  )
         3           W   tau(   3) = (   0.2749071   0.2317162   0.5126245  )
         4           W   tau(   4) = (   0.7530667   0.8026229   0.4860247  )
         5           W   tau(   5) = (   0.7811640   0.2854533   0.5024375  )
         6           W   tau(   6) = (   0.2468098   0.7488858   0.5290372  )
         7           W   tau(   7) = (   0.7376067   0.2317162  -0.0050935  )
         8           W   tau(   8) = (   0.2594471   0.8026229   0.0215062  )
         9           O   tau(   9) = (   0.2248080   0.0069478  -0.0110058  )
        10           O   tau(  10) = (   0.7829005  -0.0069479  -0.0192734  )
        11           O   tau(  11) = (   0.2814489   0.5102217   0.4965252  )
        12           O   tau(  12) = (   0.7358702   0.5241174   0.4882575  )
        13           O   tau(  13) = (   0.7877058   0.0069478   0.5185367  )
        14           O   tau(  14) = (   0.2296132  -0.0069479   0.5268044  )
        15           O   tau(  15) = (   0.7310649   0.5102217   0.0110058  )
        16           O   tau(  16) = (   0.2766436   0.5241174   0.0192734  )
        17           O   tau(  17) = (   0.5134932   0.2279723   0.4709138  )
        18           O   tau(  18) = (   0.5058082   0.7994602   0.5441481  )
        19           O   tau(  19) = (  -0.0072363   0.2891973   0.9784448  )
        20           O   tau(  20) = (   0.0004487   0.7520486   0.0366171  )
        21           O   tau(  21) = (   0.4990207   0.2279723   0.0366171  )
        22           O   tau(  22) = (   0.5067057   0.7994602   0.9784448  )
        23           O   tau(  23) = (   0.0072362   0.2891973   0.5441481  )
        24           O   tau(  24) = (  -0.0004488   0.7520486   0.4709138  )
        25           O   tau(  25) = (   0.7228602   0.2684829   0.7577018  )
        26           O   tau(  26) = (   0.2896536   0.7975061   0.2618492  )
        27           O   tau(  27) = (   0.7959107   0.2486866   0.2501710  )
        28           O   tau(  28) = (   0.2166033   0.7540027   0.7693801  )
        29           O   tau(  29) = (   0.2896536   0.2684829   0.7648910  )
        30           O   tau(  30) = (   0.7228602   0.7975061   0.2456818  )
        31           O   tau(  31) = (   0.2166033   0.2486866   0.2573601  )
        32           O   tau(  32) = (   0.7959107   0.7540027   0.7532127  )

     number of k points=    64  gaussian smearing, width (Ry)=  0.0007
                       cart. coord. in units 2pi/alat
        k(    1) = (   0.0000000   0.0000000   0.0000000), wk =   0.0092593
        k(    2) = (   0.0000000   0.0000000   0.1641936), wk =   0.0185185
        k(    3) = (   0.0000000   0.0000000   0.3283872), wk =   0.0185185
        k(    4) = (   0.0000000   0.0000000  -0.4925808), wk =   0.0092593
        k(    5) = (   0.0000000   0.1611335   0.0000000), wk =   0.0185185
        k(    6) = (   0.0000000   0.1611335   0.1641936), wk =   0.0370370
        k(    7) = (   0.0000000   0.1611335   0.3283872), wk =   0.0370370
        k(    8) = (   0.0000000   0.1611335  -0.4925808), wk =   0.0185185
        k(    9) = (   0.0000000   0.3222670   0.0000000), wk =   0.0185185
        k(   10) = (   0.0000000   0.3222670   0.1641936), wk =   0.0370370
        k(   11) = (   0.0000000   0.3222670   0.3283872), wk =   0.0370370
        k(   12) = (   0.0000000   0.3222670  -0.4925808), wk =   0.0185185
        k(   13) = (   0.0000000  -0.4834005   0.0000000), wk =   0.0092593
        k(   14) = (   0.0000000  -0.4834005   0.1641936), wk =   0.0185185
        k(   15) = (   0.0000000  -0.4834005   0.3283872), wk =   0.0185185
        k(   16) = (   0.0000000  -0.4834005  -0.4925808), wk =   0.0092593
        k(   17) = (   0.1646068   0.0000000   0.1641936), wk =   0.0370370
        k(   18) = (   0.1646068   0.0000000   0.3283872), wk =   0.0370370
        k(   19) = (   0.1646068   0.0000000  -0.4925808), wk =   0.0185185
        k(   20) = (   0.1646068   0.1611335   0.1641936), wk =   0.0740741
        k(   21) = (   0.1646068   0.1611335   0.3283872), wk =   0.0740741
        k(   22) = (   0.1646068   0.1611335  -0.4925808), wk =   0.0370370
        k(   23) = (   0.1646068   0.3222670   0.1641936), wk =   0.0740741
        k(   24) = (   0.1646068   0.3222670   0.3283872), wk =   0.0740741
        k(   25) = (   0.1646068   0.3222670  -0.4925808), wk =   0.0370370
        k(   26) = (   0.1646068  -0.4834005   0.1641936), wk =   0.0370370
        k(   27) = (   0.1646068  -0.4834005   0.3283872), wk =   0.0370370
        k(   28) = (   0.1646068  -0.4834005  -0.4925808), wk =   0.0185185
        k(   29) = (   0.3292136   0.0000000   0.3283872), wk =   0.0370370
        k(   30) = (   0.3292136   0.0000000  -0.4925808), wk =   0.0185185
        k(   31) = (   0.3292136   0.1611335   0.3283872), wk =   0.0740741
        k(   32) = (   0.3292136   0.1611335  -0.4925808), wk =   0.0370370
        k(   33) = (   0.3292136   0.3222670   0.3283872), wk =   0.0740741
        k(   34) = (   0.3292136   0.3222670  -0.4925808), wk =   0.0370370
        k(   35) = (   0.3292136  -0.4834005   0.3283872), wk =   0.0370370
        k(   36) = (   0.3292136  -0.4834005  -0.4925808), wk =   0.0185185
        k(   37) = (  -0.4938204   0.0000000  -0.4925808), wk =   0.0092593
        k(   38) = (  -0.4938204   0.1611335  -0.4925808), wk =   0.0185185
        k(   39) = (  -0.4938204   0.3222670  -0.4925808), wk =   0.0185185
        k(   40) = (  -0.4938204  -0.4834005  -0.4925808), wk =   0.0092593
        k(   41) = (   0.1646068   0.0000000   0.0000000), wk =   0.0185185
        k(   42) = (   0.3292136   0.0000000   0.0000000), wk =   0.0185185
        k(   43) = (  -0.4938204   0.0000000   0.0000000), wk =   0.0092593
        k(   44) = (   0.1646068  -0.1611335   0.0000000), wk =   0.0370370
        k(   45) = (   0.3292136  -0.1611335   0.0000000), wk =   0.0370370
        k(   46) = (  -0.4938204  -0.1611335   0.0000000), wk =   0.0185185
        k(   47) = (   0.1646068  -0.3222670   0.0000000), wk =   0.0370370
        k(   48) = (   0.3292136  -0.3222670   0.0000000), wk =   0.0370370
        k(   49) = (  -0.4938204  -0.3222670   0.0000000), wk =   0.0185185
        k(   50) = (   0.1646068   0.4834005   0.0000000), wk =   0.0185185
        k(   51) = (   0.3292136   0.4834005   0.0000000), wk =   0.0185185
        k(   52) = (  -0.4938204   0.4834005   0.0000000), wk =   0.0092593
        k(   53) = (   0.3292136   0.0000000   0.1641936), wk =   0.0370370
        k(   54) = (  -0.4938204   0.0000000   0.1641936), wk =   0.0185185
        k(   55) = (   0.3292136  -0.1611335   0.1641936), wk =   0.0740741
        k(   56) = (  -0.4938204  -0.1611335   0.1641936), wk =   0.0370370
        k(   57) = (   0.3292136  -0.3222670   0.1641936), wk =   0.0740741
        k(   58) = (  -0.4938204  -0.3222670   0.1641936), wk =   0.0370370
        k(   59) = (   0.3292136   0.4834005   0.1641936), wk =   0.0370370
        k(   60) = (  -0.4938204   0.4834005   0.1641936), wk =   0.0185185
        k(   61) = (  -0.4938204   0.0000000   0.3283872), wk =   0.0185185
        k(   62) = (  -0.4938204  -0.1611335   0.3283872), wk =   0.0370370
        k(   63) = (  -0.4938204  -0.3222670   0.3283872), wk =   0.0370370
        k(   64) = (  -0.4938204   0.4834005   0.3283872), wk =   0.0185185

     Initial potential from superposition of free atoms

     starting charge  367.99656, renormalised to  368.00000
     Starting wfc are  232 randomized atomic wfcs

     Writing output data file Landau_15.save

     Self-consistent Calculation

[...]

     total energy              =   -6261.10512065 Ry
     Harris-Foulkes estimate   =   -6261.10512065 Ry
     estimated scf accuracy    <          1.4E-10 Ry

     iteration # 16     ecut=   120.00 Ry     beta= 0.70
     Davidson diagonalization with overlap
     ethr =  1.00E-13,  avg # of iterations =  2.0

     End of self-consistent calculation

[...]

          k = 0.3292 0.4834 0.1642 ( 62566 PWs)   bands (ev):

[...]

          k =-0.4938 0.4834 0.3284 ( 62512 PWs)   bands (ev):

   -66.2484 -66.2483 -66.2480 -66.2480 -66.2448 -66.2448 -66.2444 -66.2444
   -30.6389 -30.6389 -30.6220 -30.6220 -30.6193 -30.6193 -30.6019 -30.6018
   -30.5662 -30.5662 -30.5636 -30.5636 -30.5623 -30.5623 -30.5544 -30.5544
   -30.5337 -30.5337 -30.5124 -30.5124 -30.5105 -30.5104 -30.4940 -30.4940
   -20.4127 -20.4126 -20.4124 -20.4124 -20.4087 -20.4086 -20.4084 -20.4084
   -20.3949 -20.3949 -20.3947 -20.3947 -20.3888 -20.3888 -20.3883 -20.3882
   -20.3838 -20.3838 -20.3837 -20.3837 -20.3833 -20.3833 -20.3826 -20.3826
   -20.3798 -20.3798 -20.3796 -20.3796 -20.3774 -20.3774 -20.3770 -20.3770
   -20.3760 -20.3760 -20.3742 -20.3742 -20.3739 -20.3739 -20.3725 -20.3725
   -20.3721 -20.3720 -20.3696 -20.3696 -20.3675 -20.3675 -20.3674 -20.3673
   -20.3648 -20.3648 -20.3636 -20.3636 -20.3598 -20.3598 -20.3593 -20.3593
    -9.2995  -9.2995  -9.2013  -9.2013  -8.9108  -8.9108  -8.8236  -8.8236
    -8.6190  -8.6190  -8.5825  -8.5825  -8.4744  -8.4744  -8.4591  -8.4590
    -8.4017  -8.4017  -8.3644  -8.3643  -8.2632  -8.2632  -8.1065  -8.1065
     2.1255   2.1255   2.2580   2.2580   2.8498   2.8499   2.9253   2.9253
     3.0178   3.0178   3.0670   3.0670   3.0992   3.0992   3.1435   3.1435
     3.3619   3.3619   3.3999   3.3999   3.5142   3.5142   3.6954   3.6954
     3.7564   3.7565   3.9060   3.9060   4.0945   4.0945   4.1699   4.1699
     4.2537   4.2537   4.2865   4.2866   4.3925   4.3926   4.4538   4.4538
     4.6094   4.6095   4.7245   4.7245   4.9547   4.9547   4.9761   4.9761
     6.8635   6.8635   7.0099   7.0099   7.0405   7.0406   7.0754   7.0754
     7.1720   7.1720   7.2720   7.2720   7.3210   7.3210   7.3729   7.3729
     7.4431   7.4431   7.5156   7.5156   7.5232   7.5233   7.6117   7.6117
    11.4031  11.4031  11.5355  11.5355  11.6339  11.6339  11.7330  11.7330
    12.0322  12.0323  12.1209  12.1209  12.2048  12.2048  12.2895  12.2895
    12.4160  12.4160  12.5653  12.5653  12.7420  12.7420  12.8336  12.8336
    16.2858  16.2858  16.4720  16.4720  16.9123  16.9123  17.0482  17.0482
    17.2716  17.2716  17.3909  17.3910  17.4838

     the Fermi energy is     8.8191 ev

!    total energy              =   -6261.10512065 Ry
     Harris-Foulkes estimate   =   -6261.10512065 Ry
     estimated scf accuracy    <          2.9E-11 Ry

     The total energy is the sum of the following terms:

     one-electron contribution =   -4733.12887997 Ry
     hartree contribution      =    2602.26227933 Ry
     xc contribution           =    -965.66144561 Ry
     ewald contribution        =   -3164.57707440 Ry
     smearing contrib. (-TS)   =      -0.00000000 Ry

     convergence has been achieved in  16 iterations

     Forces acting on atoms (cartesian axes, Ry/au):

     atom    1 type  1   force =     0.01484274    0.00209811    0.00686595
     atom    2 type  1   force =     0.00331706   -0.00381790    0.01617495
     atom    3 type  1   force =    -0.01484274   -0.00209811    0.00686595
     atom    4 type  1   force =    -0.00331706    0.00381790    0.01617495
     atom    5 type  1   force =    -0.01484274    0.00209811   -0.00686595
     atom    6 type  1   force =    -0.00331706   -0.00381790   -0.01617495
     atom    7 type  1   force =     0.01484274   -0.00209811   -0.00686595
     atom    8 type  1   force =     0.00331706    0.00381790   -0.01617495
     atom    9 type  2   force =    -0.00096547   -0.00285642    0.00091569
     atom   10 type  2   force =    -0.00198339    0.00248393   -0.00016845
     atom   11 type  2   force =     0.00096547    0.00285642    0.00091569
     atom   12 type  2   force =     0.00198339   -0.00248393   -0.00016845
     atom   13 type  2   force =     0.00096547   -0.00285642   -0.00091569
     atom   14 type  2   force =     0.00198339    0.00248393    0.00016845
     atom   15 type  2   force =    -0.00096547    0.00285642   -0.00091569
     atom   16 type  2   force =    -0.00198339   -0.00248393    0.00016845
     atom   17 type  2   force =     0.01012615   -0.00163474   -0.00050054
     atom   18 type  2   force =     0.00317123   -0.00068747   -0.00075107
     atom   19 type  2   force =    -0.01012615    0.00163474   -0.00050054
     atom   20 type  2   force =    -0.00317123    0.00068747   -0.00075107
     atom   21 type  2   force =    -0.01012615   -0.00163474    0.00050054
     atom   22 type  2   force =    -0.00317123   -0.00068747    0.00075107
     atom   23 type  2   force =     0.01012615    0.00163474    0.00050054
     atom   24 type  2   force =     0.00317123    0.00068747    0.00075107
     atom   25 type  2   force =    -0.00176610    0.00025371    0.00434338
     atom   26 type  2   force =     0.00152652   -0.00030112    0.01029882
     atom   27 type  2   force =     0.00176610   -0.00025371    0.00434338
     atom   28 type  2   force =    -0.00152652    0.00030112    0.01029882
     atom   29 type  2   force =     0.00176610    0.00025371   -0.00434338
     atom   30 type  2   force =    -0.00152652   -0.00030112   -0.01029882
     atom   31 type  2   force =    -0.00176610   -0.00025371   -0.00434338
     atom   32 type  2   force =     0.00152652    0.00030112   -0.01029882

     Total force =     0.000000     Total SCF correction =     0.000000

     Computing stress (Cartesian axis) and pressure

          total   stress  (Ry/bohr**3)                   (kbar)     P=    0.48
   0.00000505   0.00000000   0.00000000          0.74      0.00      0.00
   0.00000000  -0.00000127   0.00000000          0.00     -0.19      0.00
   0.00000000   0.00000000   0.00000607          0.00      0.00      0.89

     Writing output data file Landau_15.save

     General routines

     Parallel routines

   This run was terminated on:   8:30: 9  23Mar2020

   JOB DONE.