     Program PWSCF v.6.2 (svn rev. 14038) starts on 11Mar2020 at  2:17: 4

     K-points division:     npool     =      40
     Reading input from rscf.in

     Current dimensions of program PWSCF are:
     Max number of different atomic species (ntypx) = 10
     Max number of k-points (npk) =  40000
     Max angular momentum in pseudopotentials (lmaxx) =  3

     Subspace diagonalization in iterative solution of the eigenvalue problem:
     a serial algorithm will be used

     Found symmetry operation: I + (  0.5000  0.0000 -0.5000)
     This is a supercell, fractional translations are disabled

     bravais-lattice index     =            0
     lattice parameter (alat)  =      13.8397  a.u.
     unit-cell volume          =    2804.9816 (a.u.)^3
     number of atoms/cell      =           32
     number of atomic types    =            2
     number of electrons       =       368.00
     number of Kohn-Sham states=          221
     kinetic-energy cutoff     =     120.0000  Ry
     charge density cutoff     =     480.0000  Ry
     convergence threshold     =      1.0E-08
     mixing beta               =       0.7000
     number of iterations used =            8  plain     mixing
     Exchange-correlation      = SLA PW NOGX NOGC ( 1  4  0  0 0 0)
     nstep                     =           50

     celldm(1)=  13.839685  celldm(2)=   0.000000  celldm(3)=   0.000000
     celldm(4)=   0.000000  celldm(5)=   0.000000  celldm(6)=   0.000000

     crystal axes: (cart. coord. in units of alat)
               a(1) = (   1.000000   0.000000   0.000000 )
               a(2) = (   0.000000   1.058160   0.000000 )
               a(3) = (   0.000000   0.000000   1.000000 )

     reciprocal axes: (cart. coord. in units 2 pi/alat)
               b(1) = (  1.000000  0.000000  0.000000 )
               b(2) = (  0.000000  0.945037  0.000000 )
               b(3) = (  0.000000  0.000000  1.000000 )

     PseudoPot. # 1 for W  read from file:
     /cluster/scratch/mnoe/QE/pps/W_ONCV_LDA-4.0.upf
     MD5 check sum: ba0307d5d4cd419d6f1d13dc49d7c13a
     Pseudo is Norm-conserving + core correction, Zval = 28.0
     Generated using ONCVPSP code by D. R. Hamann
     Using radial grid of 1380 points,  8 beta functions with:
                l(1) =   0
                l(2) =   0
                l(3) =   1
                l(4) =   1
                l(5) =   2
                l(6) =   2
                l(7) =   3
                l(8) =   3

     PseudoPot. # 2 for O  read from file:
     /cluster/scratch/mnoe/QE/pps/O_ONCV_LDA-3.0.upf
     MD5 check sum: a1bd6164e7280c17a38c229939bfbd54
     Pseudo is Norm-conserving + core correction, Zval =  6.0
     Generated using ONCVPSP code by D. R. Hamann
     Using radial grid of  926 points,  5 beta functions with:
                l(1) =   0
                l(2) =   0
                l(3) =   1
                l(4) =   1
                l(5) =   2

     atomic species   valence    mass     pseudopotential
        W             28.00   183.84000     W ( 1.00)
        O              6.00    15.99940     O ( 1.00)

      2 Sym. Ops., with inversion, found

   Cartesian axes

     site n.     atom                  positions (alat units)
         1           W   tau(   1) = (   0.2500000   0.2963355   0.0000000  )
         2           W   tau(   2) = (   0.7500000   0.7618246   0.0000000  )
         3           W   tau(   3) = (   0.2500000   0.2327446   0.5000000  )
         4           W   tau(   4) = (   0.7500000   0.8254155   0.5000000  )
         5           W   tau(   5) = (   0.7500000   0.2963355   0.5000000  )
         6           W   tau(   6) = (   0.2500000   0.7618246   0.5000000  )
         7           W   tau(   7) = (   0.7500000   0.2327446   0.0000000  )
         8           W   tau(   8) = (   0.2500000   0.8254155   0.0000000  )
         9           O   tau(   9) = (   0.2500000   0.0082815   0.0000000  )
        10           O   tau(  10) = (   0.7500000   1.0498786   0.0000000  )
        11           O   tau(  11) = (   0.2500000   0.5207985   0.5000000  )
        12           O   tau(  12) = (   0.7500000   0.5373615   0.5000000  )
        13           O   tau(  13) = (   0.7500000   0.0082815   0.5000000  )
        14           O   tau(  14) = (   0.2500000   1.0498786   0.5000000  )
        15           O   tau(  15) = (   0.7500000   0.5207985   0.0000000  )
        16           O   tau(  16) = (   0.2500000   0.5373615   0.0000000  )
        17           O   tau(  17) = (   0.5000000   0.2645400   0.4539711  )
        18           O   tau(  18) = (   0.5000000   0.7936201   0.5460289  )
        19           O   tau(  19) = (   0.0000000   0.2645400   0.9539711  )
        20           O   tau(  20) = (   0.0000000   0.7936201   0.0460289  )
        21           O   tau(  21) = (   0.5000000   0.2645400   0.0460289  )
        22           O   tau(  22) = (   0.5000000   0.7936201   0.9539711  )
        23           O   tau(  23) = (   0.0000000   0.2645400   0.5460289  )
        24           O   tau(  24) = (   0.0000000   0.7936201   0.4539711  )
        25           O   tau(  25) = (   0.7039711   0.2645400   0.7500000  )
        26           O   tau(  26) = (   0.2960289   0.7936201   0.2500000  )
        27           O   tau(  27) = (   0.7960289   0.2645400   0.2500000  )
        28           O   tau(  28) = (   0.2039711   0.7936201   0.7500000  )
        29           O   tau(  29) = (   0.2960289   0.2645400   0.7500000  )
        30           O   tau(  30) = (   0.7039711   0.7936201   0.2500000  )
        31           O   tau(  31) = (   0.2039711   0.2645400   0.2500000  )
        32           O   tau(  32) = (   0.7960289   0.7936201   0.7500000  )

     number of k points=   112  gaussian smearing, width (Ry)=  0.0007

     Number of k-points >= 100: set verbosity='high' to print them.

     Initial potential from superposition of free atoms

     starting charge  367.99656, renormalised to  368.00000
     Starting wfc are  232 randomized atomic wfcs

     Self-consistent Calculation

     iteration #  1     ecut=   120.00 Ry     beta= 0.70
     Davidson diagonalization with overlap
     ethr =  1.00E-02,  avg # of iterations =  5.1

     total energy              =   -6254.01292471 Ry
     Harris-Foulkes estimate   =   -6264.58886587 Ry
     estimated scf accuracy    <      13.39919305 Ry

[...]

     End of self-consistent calculation

     Number of k-points >= 100: set verbosity='high' to print the bands.

     the Fermi energy is     8.9859 ev

!    total energy              =   -6261.10577827 Ry
     Harris-Foulkes estimate   =   -6261.10577827 Ry
     estimated scf accuracy    <          6.0E-09 Ry

     The total energy is the sum of the following terms:

     one-electron contribution =   -4737.16646617 Ry
     hartree contribution      =    2605.29950915 Ry
     xc contribution           =    -965.83608322 Ry
     ewald contribution        =   -3163.40273803 Ry
     smearing contrib. (-TS)   =      -0.00000000 Ry

     convergence has been achieved in  14 iterations

     Forces acting on atoms (cartesian axes, Ry/au):

     atom    1 type  1   force =    -0.00000762    0.01576583   -0.00000589
     atom    2 type  1   force =     0.00000762   -0.01576583    0.00000589
     atom    3 type  1   force =    -0.00000941   -0.01574638    0.00000725
     atom    4 type  1   force =     0.00000941    0.01574638   -0.00000725
     atom    5 type  1   force =     0.00001239    0.01576299   -0.00000095
     atom    6 type  1   force =    -0.00001239   -0.01576299    0.00000095
     atom    7 type  1   force =     0.00000932   -0.01573418    0.00000091
     atom    8 type  1   force =    -0.00000932    0.01573418   -0.00000091
     atom    9 type  2   force =    -0.00000062   -0.00791492   -0.00000018
     atom   10 type  2   force =     0.00000062    0.00791492    0.00000018
     atom   11 type  2   force =    -0.00000108    0.00791775    0.00000034
     atom   12 type  2   force =     0.00000108   -0.00791775   -0.00000034
     atom   13 type  2   force =     0.00000193   -0.00791321   -0.00000056
     atom   14 type  2   force =    -0.00000193    0.00791321    0.00000056
     atom   15 type  2   force =     0.00000160    0.00791669    0.00000053
     atom   16 type  2   force =    -0.00000160   -0.00791669   -0.00000053
     atom   17 type  2   force =     0.00000110   -0.00000022   -0.00415463
     atom   18 type  2   force =    -0.00000110    0.00000022    0.00415463
     atom   19 type  2   force =    -0.00000045   -0.00000003   -0.00415566
     atom   20 type  2   force =     0.00000045    0.00000003    0.00415566
     atom   21 type  2   force =     0.00000055   -0.00000037    0.00415484
     atom   22 type  2   force =    -0.00000055    0.00000037   -0.00415484
     atom   23 type  2   force =    -0.00000081   -0.00000074    0.00415515
     atom   24 type  2   force =     0.00000081    0.00000074   -0.00415515
     atom   25 type  2   force =    -0.00415344   -0.00000029   -0.00000130
     atom   26 type  2   force =     0.00415344    0.00000029    0.00000130
     atom   27 type  2   force =     0.00415645   -0.00000027    0.00000141
     atom   28 type  2   force =    -0.00415645    0.00000027   -0.00000141
     atom   29 type  2   force =     0.00415320   -0.00000050   -0.00000150
     atom   30 type  2   force =    -0.00415320    0.00000050    0.00000150
     atom   31 type  2   force =    -0.00415560   -0.00000042    0.00000089
     atom   32 type  2   force =     0.00415560    0.00000042   -0.00000089

     Total force =     0.000000     Total SCF correction =     0.000000

     Computing stress (Cartesian axis) and pressure

          total   stress  (Ry/bohr**3)                   (kbar)     P=   14.74
   0.00019976   0.00000000  -0.00000000         29.39      0.00     -0.00
   0.00000000  -0.00009884  -0.00000001          0.00    -14.54     -0.00
  -0.00000000  -0.00000001   0.00019975         -0.00     -0.00     29.38

     BFGS Geometry Optimization

     number of scf cycles    =   1
     number of bfgs steps    =   0

     enthalpy new            =   -6261.1057782671 Ry

     new trust radius        =       0.0528995147 bohr
     new conv_thr            =       0.0000000100 Ry

     new unit-cell volume =   2826.06681 a.u.^3 (   418.77989 Ang^3 )
     density =      7.35425 g/cm^3

CELL_PARAMETERS (angstrom)
   7.360221043   0.000000226  -0.000000031
   0.000000239   7.730441229  -0.000001053
  -0.000000031  -0.000000995   7.360218001

ATOMIC_POSITIONS (crystal)
W        0.250000000   0.280047847   0.000000000    0   0   0
W        0.749999990   0.719952153   0.000000000    0   0   0
W        0.250000000   0.219952169   0.500000000    0   0   0
W        0.749999990   0.780047835   0.500000000    0   0   0
W        0.749999990   0.280047847   0.500000000    0   0   0
W        0.250000000   0.719952153   0.500000000    0   0   0
W        0.749999990   0.219952169  -0.000000000    0   0   0
W        0.250000000   0.780047835   0.000000000    0   0   0
O        0.250000000   0.007826315   0.000000000    0   0   0
O        0.749999990   0.992173695   0.000000000    0   0   0
[...]
O        0.250000000   0.992173695   0.500000000    0   0   0
O        0.749999990   0.492173683  -0.000000000    0   0   0
O        0.250000000   0.507826305   0.000000000    0   0   0
O        0.500000000   0.250000000   0.453971082    0   0   0
O        0.500000000   0.749999994   0.546028905    0   0   0
O        0.000000000   0.250000000   0.953971115    0   0   0
O       -0.000000000   0.749999994   0.046028917    0   0   0
O        0.500000000   0.250000000   0.046028917    0   0   0
O        0.500000000   0.749999994   0.953971115    0   0   0
O       -0.000000000   0.250000000   0.546028905    0   0   0
O        0.000000000   0.749999994   0.453971082    0   0   0
O        0.703971105   0.250000000   0.749999990    0   0   0
O        0.296028908   0.749999994   0.250000000    0   0   0
O        0.796028915   0.250000000   0.250000000    0   0   0
O        0.203971098   0.749999994   0.749999990    0   0   0
O        0.296028908   0.250000000   0.749999990    0   0   0
O        0.703971105   0.749999994   0.250000000    0   0   0
O        0.203971098   0.250000000   0.250000000    0   0   0
O        0.796028915   0.749999994   0.749999990    0   0   0

     Writing output data file Landau_13.save
     NEW-OLD atomic charge density approx. for the potential
     extrapolated charge  370.74561, renormalised to  368.00000

[...]

     enthalpy old            =   -6261.1057782671 Ry
     enthalpy new            =   -6261.1083951918 Ry

     CASE: enthalpy_new < enthalpy_old

[...]

     Threshold (ethr) on eigenvalues was too large:
     Diagonalizing with lowered threshold

     Davidson diagonalization with overlap
     ethr =  9.07E-08,  avg # of iterations =  2.4

[...]

     number of scf cycles    =   4
     number of bfgs steps    =   3

     enthalpy old            =   -6261.1085076787 Ry
     enthalpy new            =   -6261.1085099784 Ry

     CASE: enthalpy_new < enthalpy_old

     new trust radius        =       0.0001566437 bohr
     new conv_thr            =            1.0E-10 Ry

     new unit-cell volume =   2820.19759 a.u.^3 (   417.91016 Ang^3 )
     density =      7.36955 g/cm^3

[...]

ATOMIC_POSITIONS (crystal)
W        0.250000000   0.280047847  -0.000000000    0   0   0
W        0.749999990   0.719952153   0.000000000    0   0   0
W        0.250000000   0.219952169   0.500000000    0   0   0
W        0.749999990   0.780047835   0.500000000    0   0   0
W        0.749999990   0.280047847   0.500000000    0   0   0
W        0.250000000   0.719952153   0.500000000    0   0   0
W        0.749999990   0.219952169  -0.000000000    0   0   0
W        0.250000000   0.780047835  -0.000000000    0   0   0
O        0.250000000   0.007826315   0.000000000    0   0   0
O        0.749999990   0.992173695  -0.000000000    0   0   0
O        0.250000000   0.492173683   0.500000000    0   0   0
O        0.749999990   0.507826305   0.500000000    0   0   0
O        0.749999990   0.007826315   0.500000000    0   0   0
O        0.250000000   0.992173695   0.500000000    0   0   0
O        0.749999990   0.492173683  -0.000000000    0   0   0
O        0.250000000   0.507826305   0.000000000    0   0   0
O        0.500000000   0.250000000   0.453971082    0   0   0
O        0.500000000   0.749999994   0.546028905    0   0   0
O        0.000000000   0.250000000   0.953971115    0   0   0
O        0.000000000   0.749999994   0.046028917    0   0   0
O        0.500000000   0.250000000   0.046028917    0   0   0
O        0.500000000   0.749999994   0.953971115    0   0   0
O        0.000000000   0.250000000   0.546028905    0   0   0
O        0.000000000   0.749999994   0.453971082    0   0   0
O        0.703971105   0.250000000   0.749999990    0   0   0
O        0.296028908   0.749999994   0.250000000    0   0   0
O        0.796028915   0.250000000   0.250000000    0   0   0
O        0.203971098   0.749999994   0.749999990    0   0   0
O        0.296028908   0.250000000   0.749999990    0   0   0
O        0.703971105   0.749999994   0.250000000    0   0   0
O        0.203971098   0.250000000   0.250000000    0   0   0
O        0.796028915   0.749999994   0.749999990    0   0   0

     Writing output data file Landau_13.save
     NEW-OLD atomic charge density approx. for the potential
     extrapolated charge  368.00098, renormalised to  368.00000

[...]

     Threshold (ethr) on eigenvalues was too large:
     Diagonalizing with lowered threshold

     Davidson diagonalization with overlap
     ethr =  1.37E-11,  avg # of iterations =  3.7

[...]

     bfgs converged in   5 scf cycles and   4 bfgs steps
     (criteria: energy <  1.0E-07 Ry, force <  1.0E-07Ry/Bohr, cell <  5.0E-01kbar)

     End of BFGS Geometry Optimization

     Final enthalpy =   -6261.1085099993 Ry
Begin final coordinates
     new unit-cell volume =   2820.19759 a.u.^3 (   417.91016 Ang^3 )
     density =      7.36955 g/cm^3

CELL_PARAMETERS (angstrom)
   7.354249305   0.000000500  -0.000000025
   0.000000531   7.726916776  -0.000000451
  -0.000000025  -0.000000430   7.354249302

ATOMIC_POSITIONS (crystal)
W        0.250000000   0.280047847  -0.000000000    0   0   0
W        0.749999990   0.719952153   0.000000000    0   0   0
W        0.250000000   0.219952169   0.500000000    0   0   0
W        0.749999990   0.780047835   0.500000000    0   0   0
W        0.749999990   0.280047847   0.500000000    0   0   0
W        0.250000000   0.719952153   0.500000000    0   0   0
W        0.749999990   0.219952169  -0.000000000    0   0   0
W        0.250000000   0.780047835  -0.000000000    0   0   0
O        0.250000000   0.007826315   0.000000000    0   0   0
O        0.749999990   0.992173695  -0.000000000    0   0   0
O        0.250000000   0.492173683   0.500000000    0   0   0
O        0.749999990   0.507826305   0.500000000    0   0   0
O        0.749999990   0.007826315   0.500000000    0   0   0
O        0.250000000   0.992173695   0.500000000    0   0   0
O        0.749999990   0.492173683  -0.000000000    0   0   0
O        0.250000000   0.507826305  -0.000000000    0   0   0
O        0.500000000   0.250000000   0.453971082    0   0   0
O        0.500000000   0.749999994   0.546028905    0   0   0
O        0.000000000   0.250000000   0.953971115    0   0   0
O        0.000000000   0.749999994   0.046028917    0   0   0
O        0.500000000   0.250000000   0.046028917    0   0   0
O        0.500000000   0.749999994   0.953971115    0   0   0
O        0.000000000   0.250000000   0.546028905    0   0   0
O        0.000000000   0.749999994   0.453971082    0   0   0
O        0.703971105   0.250000000   0.749999990    0   0   0
O        0.296028908   0.749999994   0.250000000    0   0   0
O        0.796028915   0.250000000   0.250000000    0   0   0
O        0.203971098   0.749999994   0.749999990    0   0   0
O        0.296028908   0.250000000   0.749999990    0   0   0
O        0.703971105   0.749999994   0.250000000    0   0   0
O        0.203971098   0.250000000   0.250000000    0   0   0
O        0.796028915   0.749999994   0.749999990    0   0   0
End final coordinates

     A final scf calculation at the relaxed structure.
     The G-vectors are recalculated for the final unit cell
     Results may differ from those at the preceding step.

     bravais-lattice index     =            0
     lattice parameter (alat)  =      13.8397  a.u.
     unit-cell volume          =    2820.1976 (a.u.)^3
     number of atoms/cell      =           32
     number of atomic types    =            2
     number of electrons       =       368.00
     number of Kohn-Sham states=          221
     kinetic-energy cutoff     =     120.0000  Ry
     charge density cutoff     =     480.0000  Ry
     convergence threshold     =      1.0E-10
     mixing beta               =       0.7000
     number of iterations used =            8  plain     mixing
     Exchange-correlation      = SLA PW NOGX NOGC ( 1  4  0  0 0 0)

     celldm(1)=  13.839685  celldm(2)=   0.000000  celldm(3)=   0.000000
     celldm(4)=   0.000000  celldm(5)=   0.000000  celldm(6)=   0.000000

     crystal axes: (cart. coord. in units of alat)
               a(1) = (   1.004179   0.000000  -0.000000 )
               a(2) = (   0.000000   1.055064  -0.000000 )
               a(3) = (  -0.000000  -0.000000   1.004179 )

     reciprocal axes: (cart. coord. in units 2 pi/alat)
               b(1) = (  0.995839 -0.000000  0.000000 )
               b(2) = ( -0.000000  0.947810  0.000000 )
               b(3) = (  0.000000  0.000000  0.995839 )

     PseudoPot. # 1 for W  read from file:
     /cluster/scratch/mnoe/QE/pps/W_ONCV_LDA-4.0.upf
     MD5 check sum: ba0307d5d4cd419d6f1d13dc49d7c13a
     Pseudo is Norm-conserving + core correction, Zval = 28.0
     Generated using ONCVPSP code by D. R. Hamann
     Using radial grid of 1380 points,  8 beta functions with:
                l(1) =   0
                l(2) =   0
                l(3) =   1
                l(4) =   1
                l(5) =   2
                l(6) =   2
                l(7) =   3
                l(8) =   3

     PseudoPot. # 2 for O  read from file:
     /cluster/scratch/mnoe/QE/pps/O_ONCV_LDA-3.0.upf
     MD5 check sum: a1bd6164e7280c17a38c229939bfbd54
     Pseudo is Norm-conserving + core correction, Zval =  6.0
     Generated using ONCVPSP code by D. R. Hamann
     Using radial grid of  926 points,  5 beta functions with:
                l(1) =   0
                l(2) =   0
                l(3) =   1
                l(4) =   1
                l(5) =   2

     atomic species   valence    mass     pseudopotential
        W             28.00   183.84000     W ( 1.00)
        O              6.00    15.99940     O ( 1.00)

      2 Sym. Ops., with inversion, found

   Cartesian axes

     site n.     atom                  positions (alat units)
         1           W   tau(   1) = (   0.2510447   0.2954685  -0.0000000  )
         2           W   tau(   2) = (   0.7531341   0.7595958  -0.0000000  )
         3           W   tau(   3) = (   0.2510447   0.2320636   0.5020893  )
         4           W   tau(   4) = (   0.7531341   0.8230006   0.5020893  )
         5           W   tau(   5) = (   0.7531340   0.2954685   0.5020893  )
         6           W   tau(   6) = (   0.2510447   0.7595957   0.5020893  )
         7           W   tau(   7) = (   0.7531340   0.2320637  -0.0000000  )
         8           W   tau(   8) = (   0.2510447   0.8230006  -0.0000000  )
         9           O   tau(   9) = (   0.2510447   0.0082573  -0.0000000  )
        10           O   tau(  10) = (   0.7531341   1.0468070  -0.0000001  )
        11           O   tau(  11) = (   0.2510447   0.5192748   0.5020893  )
        12           O   tau(  12) = (   0.7531340   0.5357894   0.5020893  )
        13           O   tau(  13) = (   0.7531340   0.0082573   0.5020893  )
        14           O   tau(  14) = (   0.2510447   1.0468069   0.5020893  )
        15           O   tau(  15) = (   0.7531340   0.5192749  -0.0000000  )
        16           O   tau(  16) = (   0.2510447   0.5357894  -0.0000000  )
        17           O   tau(  17) = (   0.5020894   0.2637661   0.4558681  )
        18           O   tau(  18) = (   0.5020894   0.7912981   0.5483105  )
        19           O   tau(  19) = (   0.0000000   0.2637660   0.9579574  )
        20           O   tau(  20) = (   0.0000001   0.7912981   0.0462212  )
        21           O   tau(  21) = (   0.5020894   0.2637661   0.0462212  )
        22           O   tau(  22) = (   0.5020894   0.7912981   0.9579574  )
        23           O   tau(  23) = (   0.0000000   0.2637660   0.5483106  )
        24           O   tau(  24) = (   0.0000001   0.7912981   0.4558680  )
        25           O   tau(  25) = (   0.7069128   0.2637661   0.7531340  )
        26           O   tau(  26) = (   0.2972660   0.7912981   0.2510446  )
        27           O   tau(  27) = (   0.7993553   0.2637661   0.2510447  )
        28           O   tau(  28) = (   0.2048235   0.7912981   0.7531340  )
        29           O   tau(  29) = (   0.2972659   0.2637660   0.7531340  )
        30           O   tau(  30) = (   0.7069128   0.7912982   0.2510446  )
        31           O   tau(  31) = (   0.2048234   0.2637660   0.2510447  )
        32           O   tau(  32) = (   0.7993553   0.7912982   0.7531340  )

     number of k points=   112  gaussian smearing, width (Ry)=  0.0007

     Number of k-points >= 100: set verbosity='high' to print them.

     Initial potential from superposition of free atoms

     starting charge  367.99656, renormalised to  368.00000
     Starting wfc are  232 randomized atomic wfcs

     Writing output data file Landau_13.save

     Self-consistent Calculation

[...]

     total energy              =   -6261.10859051 Ry
     Harris-Foulkes estimate   =   -6261.10859051 Ry
     estimated scf accuracy    <          2.0E-10 Ry

     iteration # 17     ecut=   120.00 Ry     beta= 0.70
     Davidson diagonalization with overlap
     ethr =  1.00E-13,  avg # of iterations =  2.0

     End of self-consistent calculation

     Number of k-points >= 100: set verbosity='high' to print the bands.

     the Fermi energy is     8.5060 ev

!    total energy              =   -6261.10859051 Ry
     Harris-Foulkes estimate   =   -6261.10859051 Ry
     estimated scf accuracy    <          4.0E-11 Ry

     The total energy is the sum of the following terms:

     one-electron contribution =   -4744.65467520 Ry
     hartree contribution      =    2607.76423403 Ry
     xc contribution           =    -965.66905994 Ry
     ewald contribution        =   -3158.54908940 Ry
     smearing contrib. (-TS)   =      -0.00000000 Ry

     convergence has been achieved in  17 iterations

     Forces acting on atoms (cartesian axes, Ry/au):

     atom    1 type  1   force =     0.00000540    0.00462593    0.00000354
     atom    2 type  1   force =    -0.00000540   -0.00462593   -0.00000354
     atom    3 type  1   force =     0.00000390   -0.00462258   -0.00000354
     atom    4 type  1   force =    -0.00000390    0.00462258    0.00000354
     atom    5 type  1   force =    -0.00000301    0.00462456   -0.00000418
     atom    6 type  1   force =     0.00000301   -0.00462456    0.00000418
     atom    7 type  1   force =    -0.00000584   -0.00462163    0.00000473
     atom    8 type  1   force =     0.00000584    0.00462163   -0.00000473
     atom    9 type  2   force =    -0.00000005   -0.00232358    0.00000001
     atom   10 type  2   force =     0.00000005    0.00232358   -0.00000001
     atom   11 type  2   force =     0.00000000    0.00232391    0.00000001
     atom   12 type  2   force =    -0.00000000   -0.00232391   -0.00000001
     atom   13 type  2   force =     0.00000005   -0.00232367   -0.00000000
     atom   14 type  2   force =    -0.00000005    0.00232367    0.00000000
     atom   15 type  2   force =     0.00000003    0.00232363   -0.00000005
     atom   16 type  2   force =    -0.00000003   -0.00232363    0.00000005
     atom   17 type  2   force =     0.00000008   -0.00000001   -0.00079363
     atom   18 type  2   force =    -0.00000008    0.00000001    0.00079363
     atom   19 type  2   force =     0.00000020   -0.00000002   -0.00079364
     atom   20 type  2   force =    -0.00000020    0.00000002    0.00079364
     atom   21 type  2   force =    -0.00000010   -0.00000004    0.00079367
     atom   22 type  2   force =     0.00000010    0.00000004   -0.00079367
     atom   23 type  2   force =    -0.00000009   -0.00000005    0.00079357
     atom   24 type  2   force =     0.00000009    0.00000005   -0.00079357
     atom   25 type  2   force =    -0.00079366    0.00000004   -0.00000033
     atom   26 type  2   force =     0.00079366   -0.00000004    0.00000033
     atom   27 type  2   force =     0.00079367    0.00000002    0.00000034
     atom   28 type  2   force =    -0.00079367   -0.00000002   -0.00000034
     atom   29 type  2   force =     0.00079368   -0.00000001   -0.00000009
     atom   30 type  2   force =    -0.00079368    0.00000001    0.00000009
     atom   31 type  2   force =    -0.00079363   -0.00000001    0.00000006
     atom   32 type  2   force =     0.00079363    0.00000001   -0.00000006

     Total force =     0.000000     Total SCF correction =     0.000000

     Computing stress (Cartesian axis) and pressure

          total   stress  (Ry/bohr**3)                   (kbar)     P=    0.13
   0.00000137  -0.00000000   0.00000000          0.20     -0.00      0.00
  -0.00000000  -0.00000006   0.00000000         -0.00     -0.01      0.00
   0.00000000   0.00000000   0.00000136          0.00      0.00      0.20

     Writing output data file Landau_13.save

     General routines

     Parallel routines

   This run was terminated on:   7:28:23  11Mar2020

   JOB DONE.