     Program PWSCF v.6.4.1 starts on 21Nov2019 at 17:45: 0

     K-points division:     npool     =      40
     Reading input from rscf.in

     Current dimensions of program PWSCF are:
     Max number of different atomic species (ntypx) = 10
     Max number of k-points (npk) =  40000
     Max angular momentum in pseudopotentials (lmaxx) =  3

     Subspace diagonalization in iterative solution of the eigenvalue problem:
     a serial algorithm will be used

     Message from routine setup:
     using ibrav=0 with symmetry is DISCOURAGED, use correct ibrav instead

     bravais-lattice index     =            0
     lattice parameter (alat)  =       9.7849  a.u.
     unit-cell volume          =    1402.1515 (a.u.)^3
     number of atoms/cell      =           16
     number of atomic types    =            2
     number of electrons       =       184.00
     number of Kohn-Sham states=          110
     kinetic-energy cutoff     =     120.0000  Ry
     charge density cutoff     =     480.0000  Ry
     convergence threshold     =      1.0E-08
     mixing beta               =       0.7000
     number of iterations used =            8  plain     mixing
     Exchange-correlation      = SLA PW NOGX NOGC ( 1  4  0  0 0 0)
     nstep                     =           50

     celldm(1)=   9.784926  celldm(2)=   0.000000  celldm(3)=   0.000000
     celldm(4)=   0.000000  celldm(5)=   0.000000  celldm(6)=   0.000000

     crystal axes: (cart. coord. in units of alat)
               a(1) = (   1.000000   0.000000   0.000000 )
               a(2) = (   0.000000   1.000000   0.000000 )
               a(3) = (   0.000000   0.000000   1.496657 )

     reciprocal axes: (cart. coord. in units 2 pi/alat)
               b(1) = (  1.000000  0.000000  0.000000 )
               b(2) = (  0.000000  1.000000  0.000000 )
               b(3) = (  0.000000  0.000000  0.668156 )

     PseudoPot. # 1 for W  read from file:
     /cluster/scratch/mnoe/QE/pps/W_ONCV_LDA-4.0.upf
     MD5 check sum: ba0307d5d4cd419d6f1d13dc49d7c13a
     Pseudo is Norm-conserving + core correction, Zval = 28.0
     Generated using ONCVPSP code by D. R. Hamann
     Using radial grid of 1380 points,  8 beta functions with:
                l(1) =   0
                l(2) =   0
                l(3) =   1
                l(4) =   1
                l(5) =   2
                l(6) =   2
                l(7) =   3
                l(8) =   3

     PseudoPot. # 2 for O  read from file:
     /cluster/scratch/mnoe/QE/pps/O_ONCV_LDA-3.0.upf
     MD5 check sum: b55cdb4f45ae2203d24ad12cf8d61a31
     Pseudo is Norm-conserving + core correction, Zval =  6.0
     Generated using ONCVPSP code by D. R. Hamann
     Using radial grid of  926 points,  5 beta functions with:
                l(1) =   0
                l(2) =   0
                l(3) =   1
                l(4) =   1
                l(5) =   2

     atomic species   valence    mass     pseudopotential
        W             28.00   183.84000     W ( 1.00)
        O              6.00    15.99940     O ( 1.00)

     16 Sym. Ops., with inversion, found (14 have fractional translation)

   Cartesian axes

     site n.     atom                  positions (alat units)
         1           W   tau(   1) = (   0.2500000   0.2500000   0.3173048  )
         2           W   tau(   2) = (   0.7500000   0.7500000   1.1793522  )
         3           W   tau(   3) = (   0.7500000   0.7500000   0.4310237  )
         4           W   tau(   4) = (   0.2500000   0.2500000   1.0656333  )
         5           O   tau(   5) = (   0.2500000   0.2500000   0.7185534  )
         6           O   tau(   6) = (   0.7500000   0.7500000   0.7781036  )
         7           O   tau(   7) = (   0.7500000   0.7500000   0.0297751  )
         8           O   tau(   8) = (   0.2500000   0.2500000   1.4668819  )
         9           O   tau(   9) = (   0.4810074   0.5189925   0.3741643  )
        10           O   tau(  10) = (   0.5189926   0.4810075   1.1224928  )
        11           O   tau(  11) = (   0.0189926   0.9810075   0.3741643  )
        12           O   tau(  12) = (   0.9810074   0.0189926   1.1224928  )
        13           O   tau(  13) = (   0.9810075   0.4810074   0.3741643  )
        14           O   tau(  14) = (   0.0189926   0.5189926   1.1224928  )
        15           O   tau(  15) = (   0.5189925   0.0189926   0.3741643  )
        16           O   tau(  16) = (   0.4810075   0.9810074   1.1224928  )

     number of k points=    60  gaussian smearing, width (Ry)=  0.0007
                       cart. coord. in units 2pi/alat
        k(    1) = (   0.0000000   0.0000000   0.0000000), wk =   0.0041152
        k(    2) = (   0.0000000   0.0000000   0.1113593), wk =   0.0082305
        k(    3) = (   0.0000000   0.0000000   0.2227186), wk =   0.0082305
        k(    4) = (   0.0000000   0.0000000  -0.3340779), wk =   0.0041152
        k(    5) = (   0.0000000   0.1111111   0.0000000), wk =   0.0164609
        k(    6) = (   0.0000000   0.1111111   0.1113593), wk =   0.0329218
        k(    7) = (   0.0000000   0.1111111   0.2227186), wk =   0.0329218
        k(    8) = (   0.0000000   0.1111111  -0.3340779), wk =   0.0164609
        k(    9) = (   0.0000000   0.2222222   0.0000000), wk =   0.0164609
        k(   10) = (   0.0000000   0.2222222   0.1113593), wk =   0.0329218
        k(   11) = (   0.0000000   0.2222222   0.2227186), wk =   0.0329218
        k(   12) = (   0.0000000   0.2222222  -0.3340779), wk =   0.0164609
        k(   13) = (   0.0000000   0.3333333   0.0000000), wk =   0.0164609
        k(   14) = (   0.0000000   0.3333333   0.1113593), wk =   0.0329218
        k(   15) = (   0.0000000   0.3333333   0.2227186), wk =   0.0329218
        k(   16) = (   0.0000000   0.3333333  -0.3340779), wk =   0.0164609
        k(   17) = (   0.0000000   0.4444444   0.0000000), wk =   0.0164609
        k(   18) = (   0.0000000   0.4444444   0.1113593), wk =   0.0329218
        k(   19) = (   0.0000000   0.4444444   0.2227186), wk =   0.0329218
        k(   20) = (   0.0000000   0.4444444  -0.3340779), wk =   0.0164609
        k(   21) = (   0.1111111   0.1111111   0.0000000), wk =   0.0164609
        k(   22) = (   0.1111111   0.1111111   0.1113593), wk =   0.0329218
        k(   23) = (   0.1111111   0.1111111   0.2227186), wk =   0.0329218
        k(   24) = (   0.1111111   0.1111111  -0.3340779), wk =   0.0164609
        k(   25) = (   0.1111111   0.2222222   0.0000000), wk =   0.0329218
        k(   26) = (   0.1111111   0.2222222   0.1113593), wk =   0.0658436
        k(   27) = (   0.1111111   0.2222222   0.2227186), wk =   0.0658436
        k(   28) = (   0.1111111   0.2222222  -0.3340779), wk =   0.0329218
        k(   29) = (   0.1111111   0.3333333   0.0000000), wk =   0.0329218
        k(   30) = (   0.1111111   0.3333333   0.1113593), wk =   0.0658436
        k(   31) = (   0.1111111   0.3333333   0.2227186), wk =   0.0658436
        k(   32) = (   0.1111111   0.3333333  -0.3340779), wk =   0.0329218
        k(   33) = (   0.1111111   0.4444444   0.0000000), wk =   0.0329218
        k(   34) = (   0.1111111   0.4444444   0.1113593), wk =   0.0658436
        k(   35) = (   0.1111111   0.4444444   0.2227186), wk =   0.0658436
        k(   36) = (   0.1111111   0.4444444  -0.3340779), wk =   0.0329218
        k(   37) = (   0.2222222   0.2222222   0.0000000), wk =   0.0164609
        k(   38) = (   0.2222222   0.2222222   0.1113593), wk =   0.0329218
        k(   39) = (   0.2222222   0.2222222   0.2227186), wk =   0.0329218
        k(   40) = (   0.2222222   0.2222222  -0.3340779), wk =   0.0164609
        k(   41) = (   0.2222222   0.3333333   0.0000000), wk =   0.0329218
        k(   42) = (   0.2222222   0.3333333   0.1113593), wk =   0.0658436
        k(   43) = (   0.2222222   0.3333333   0.2227186), wk =   0.0658436
        k(   44) = (   0.2222222   0.3333333  -0.3340779), wk =   0.0329218
        k(   45) = (   0.2222222   0.4444444   0.0000000), wk =   0.0329218
        k(   46) = (   0.2222222   0.4444444   0.1113593), wk =   0.0658436
        k(   47) = (   0.2222222   0.4444444   0.2227186), wk =   0.0658436
        k(   48) = (   0.2222222   0.4444444  -0.3340779), wk =   0.0329218
        k(   49) = (   0.3333333   0.3333333   0.0000000), wk =   0.0164609
        k(   50) = (   0.3333333   0.3333333   0.1113593), wk =   0.0329218
        k(   51) = (   0.3333333   0.3333333   0.2227186), wk =   0.0329218
        k(   52) = (   0.3333333   0.3333333  -0.3340779), wk =   0.0164609
        k(   53) = (   0.3333333   0.4444444   0.0000000), wk =   0.0329218
        k(   54) = (   0.3333333   0.4444444   0.1113593), wk =   0.0658436
        k(   55) = (   0.3333333   0.4444444   0.2227186), wk =   0.0658436
        k(   56) = (   0.3333333   0.4444444  -0.3340779), wk =   0.0329218
        k(   57) = (   0.4444444   0.4444444   0.0000000), wk =   0.0164609
        k(   58) = (   0.4444444   0.4444444   0.1113593), wk =   0.0329218
        k(   59) = (   0.4444444   0.4444444   0.2227186), wk =   0.0329218
        k(   60) = (   0.4444444   0.4444444  -0.3340779), wk =   0.0164609

     Initial potential from superposition of free atoms

     starting charge  183.99828, renormalised to  184.00000
     Starting wfcs are  116 randomized atomic wfcs

     Self-consistent Calculation

     iteration #  1     ecut=   120.00 Ry     beta= 0.70
     Davidson diagonalization with overlap
     ethr =  1.00E-02,  avg # of iterations =  4.3

     total energy              =   -3126.95778662 Ry
     Harris-Foulkes estimate   =   -3132.28023570 Ry
     estimated scf accuracy    <       6.74843961 Ry

[...]

     End of self-consistent calculation

          k = 0.0000 0.0000 0.0000 ( 31095 PWs)   bands (ev):

   -66.1370 -66.1366 -66.1353 -66.1349 -30.5402 -30.5402 -30.5369 -30.5369
   -30.4560 -30.4505 -30.4448 -30.4448 -30.4422 -30.4422 -30.3965 -30.3923
   -20.2858 -20.2858 -20.2857 -20.2857 -20.2713 -20.2713 -20.2713 -20.2713
   -20.2692 -20.2692 -20.2691 -20.2691 -20.2594 -20.2594 -20.2561 -20.2559
   -20.2559 -20.2558 -20.2537 -20.2536 -20.2534 -20.2534 -20.2521 -20.2521
   -20.2494 -20.2494 -20.2482 -20.2482 -10.0718  -9.8221  -9.1893  -9.1706
    -8.9173  -8.7239  -7.7362  -7.7362  -7.7159  -7.7159  -7.6714  -7.5439
     0.8563   0.8574   1.2492   1.3291   1.6727   1.7233   2.2425   2.3346
     2.5681   2.5681   3.9771   3.9771   4.9742   5.1074   5.1074   5.6053
     5.6053   5.7097   5.7097   5.9298   6.0399   6.0399   6.1377   6.8042
     6.8042   6.8134   7.0474   7.1742   7.1742   7.1933   7.2075   7.2075
     8.3069   8.3100   8.3149   8.3149   9.0108   9.0132   9.7694   9.7694
    12.3867  12.3867  13.6105  13.6105  13.6510  13.8485  13.8568  14.3468
    14.3468  14.7259  14.9044  14.9088  15.4829  16.8022

[...]

     the Fermi energy is     8.7894 ev

!    total energy              =   -3130.51889292 Ry
     Harris-Foulkes estimate   =   -3130.51889293 Ry
     estimated scf accuracy    <          5.3E-09 Ry

     The total energy is the sum of the following terms:

     one-electron contribution =   -2383.23545427 Ry
     hartree contribution      =    1310.18944326 Ry
[...]
     NEW-OLD atomic charge density approx. for the potential
     extrapolated charge  188.18763, renormalised to  184.00000

[...]

     enthalpy old            =   -3130.5188929234 Ry
     enthalpy new            =   -3130.5320111647 Ry

     CASE: enthalpy_new < enthalpy_old

[...]

     Threshold (ethr) on eigenvalues was too large:
     Diagonalizing with lowered threshold

     Davidson diagonalization with overlap
     ethr =  1.64E-11,  avg # of iterations =  4.0

[...]

     number of scf cycles    =   5
     number of bfgs steps    =   4

     enthalpy old            =   -3130.5325835425 Ry
     enthalpy new            =   -3130.5325836574 Ry

     CASE: enthalpy_new < enthalpy_old

     small trust_radius: resetting bfgs history

     new trust radius        =       0.0000054843 bohr
     new conv_thr            =            1.0E-10 Ry

     new unit-cell volume =   1425.23989 a.u.^3 (   211.19876 Ang^3 )
     density =      7.29126 g/cm^3

[...]

ATOMIC_POSITIONS (crystal)
W        0.250000000   0.250000000   0.212009058    0   0   0
W        0.750000023   0.750000023   0.787990957    0   0   0
W        0.750000023   0.750000023   0.287990957    0   0   0
W        0.250000000   0.250000000   0.712009043    0   0   0
O        0.250000000   0.250000000   0.480105621    0   0   0
O        0.750000023   0.750000023   0.519894379    0   0   0
O        0.750000023   0.750000023   0.019894392    0   0   0
O        0.250000000   0.250000000   0.980105621    0   0   0
O        0.481007414   0.518992540   0.250000000    0   0   0
O        0.518992586   0.481007460   0.750000000    0   0   0
O        0.018992569   0.981007460   0.250000000    0   0   0
O        0.981007368   0.018992603   0.750000000    0   0   0
O        0.981007460   0.481007414   0.250000000    0   0   0
O        0.018992603   0.518992586   0.750000000    0   0   0
O        0.518992540   0.018992569   0.250000000    0   0   0
O        0.481007460   0.981007368   0.750000000    0   0   0

     Writing output data file Landau_18.save/
     NEW-OLD atomic charge density approx. for the potential
     extrapolated charge  184.00020, renormalised to  184.00000

[...]

     Threshold (ethr) on eigenvalues was too large:
     Diagonalizing with lowered threshold

     Davidson diagonalization with overlap
     ethr =  1.55E-12,  avg # of iterations =  2.5

[...]

     bfgs converged in   6 scf cycles and   5 bfgs steps
     (criteria: energy <  1.0E-07 Ry, force <  1.0E-07Ry/Bohr, cell <  5.0E-01kbar)

     End of BFGS Geometry Optimization

     Final enthalpy =   -3130.5325836576 Ry
Begin final coordinates
     new unit-cell volume =   1425.23989 a.u.^3 (   211.19876 Ang^3 )
     density =      7.29126 g/cm^3

CELL_PARAMETERS (angstrom)
   5.246571174   0.000000000   0.000000000
   0.000000000   5.246571174   0.000000000
   0.000000000   0.000000000   7.672558763

ATOMIC_POSITIONS (crystal)
W        0.250000000   0.250000000   0.212009058    0   0   0
W        0.750000023   0.750000023   0.787990957    0   0   0
W        0.750000023   0.750000023   0.287990957    0   0   0
W        0.250000000   0.250000000   0.712009043    0   0   0
O        0.250000000   0.250000000   0.480105621    0   0   0
O        0.750000023   0.750000023   0.519894379    0   0   0
O        0.750000023   0.750000023   0.019894392    0   0   0
O        0.250000000   0.250000000   0.980105621    0   0   0
O        0.481007414   0.518992540   0.250000000    0   0   0
O        0.518992586   0.481007460   0.750000000    0   0   0
O        0.018992569   0.981007460   0.250000000    0   0   0
O        0.981007368   0.018992603   0.750000000    0   0   0
O        0.981007460   0.481007414   0.250000000    0   0   0
O        0.018992603   0.518992586   0.750000000    0   0   0
O        0.518992540   0.018992569   0.250000000    0   0   0
O        0.481007460   0.981007368   0.750000000    0   0   0
End final coordinates

     Writing output data file Landau_18.save/

     Final scf calculation at the relaxed structure.
     The G-vectors are recalculated for the final unit cell
     Results may differ from those at the preceding step.

     bravais-lattice index     =            0
     lattice parameter (alat)  =       9.7849  a.u.
     unit-cell volume          =    1425.2399 (a.u.)^3
     number of atoms/cell      =           16
     number of atomic types    =            2
     number of electrons       =       184.00
     number of Kohn-Sham states=          110
     kinetic-energy cutoff     =     120.0000  Ry
     charge density cutoff     =     480.0000  Ry
     convergence threshold     =      1.0E-10
     mixing beta               =       0.7000
     number of iterations used =            8  plain     mixing
     Exchange-correlation      = SLA PW NOGX NOGC ( 1  4  0  0 0 0)

     celldm(1)=   9.784926  celldm(2)=   0.000000  celldm(3)=   0.000000
     celldm(4)=   0.000000  celldm(5)=   0.000000  celldm(6)=   0.000000

     crystal axes: (cart. coord. in units of alat)
               a(1) = (   1.013251   0.000000   0.000000 )
               a(2) = (   0.000000   1.013251   0.000000 )
               a(3) = (   0.000000   0.000000   1.481773 )

     reciprocal axes: (cart. coord. in units 2 pi/alat)
               b(1) = (  0.986923  0.000000  0.000000 )
               b(2) = (  0.000000  0.986923  0.000000 )
               b(3) = (  0.000000  0.000000  0.674867 )

     PseudoPot. # 1 for W  read from file:
     /cluster/scratch/mnoe/QE/pps/W_ONCV_LDA-4.0.upf
     MD5 check sum: ba0307d5d4cd419d6f1d13dc49d7c13a
     Pseudo is Norm-conserving + core correction, Zval = 28.0
     Generated using ONCVPSP code by D. R. Hamann
     Using radial grid of 1380 points,  8 beta functions with:
                l(1) =   0
                l(2) =   0
                l(3) =   1
                l(4) =   1
                l(5) =   2
                l(6) =   2
                l(7) =   3
                l(8) =   3

     PseudoPot. # 2 for O  read from file:
     /cluster/scratch/mnoe/QE/pps/O_ONCV_LDA-3.0.upf
     MD5 check sum: b55cdb4f45ae2203d24ad12cf8d61a31
     Pseudo is Norm-conserving + core correction, Zval =  6.0
     Generated using ONCVPSP code by D. R. Hamann
     Using radial grid of  926 points,  5 beta functions with:
                l(1) =   0
                l(2) =   0
                l(3) =   1
                l(4) =   1
                l(5) =   2

     atomic species   valence    mass     pseudopotential
        W             28.00   183.84000     W ( 1.00)
        O              6.00    15.99940     O ( 1.00)

     16 Sym. Ops., with inversion, found (14 have fractional translation)

   Cartesian axes

     site n.     atom                  positions (alat units)
         1           W   tau(   1) = (   0.2533127   0.2533127   0.3141492  )
         2           W   tau(   2) = (   0.7599380   0.7599380   1.1676234  )
         3           W   tau(   3) = (   0.7599380   0.7599380   0.4267371  )
         4           W   tau(   4) = (   0.2533127   0.2533127   1.0550354  )
         5           O   tau(   5) = (   0.2533127   0.2533127   0.7114073  )
         6           O   tau(   6) = (   0.7599380   0.7599380   0.7703652  )
         7           O   tau(   7) = (   0.7599380   0.7599380   0.0294790  )
         8           O   tau(   8) = (   0.2533127   0.2533127   1.4522936  )
         9           O   tau(   9) = (   0.4873811   0.5258695   0.3704431  )
        10           O   tau(  10) = (   0.5258696   0.4873811   1.1113294  )
        11           O   tau(  11) = (   0.0192442   0.9940064   0.3704431  )
        12           O   tau(  12) = (   0.9940063   0.0192443   1.1113294  )
        13           O   tau(  13) = (   0.9940064   0.4873811   0.3704431  )
        14           O   tau(  14) = (   0.0192443   0.5258696   1.1113294  )
        15           O   tau(  15) = (   0.5258695   0.0192442   0.3704431  )
        16           O   tau(  16) = (   0.4873811   0.9940063   1.1113294  )

     number of k points=    60  gaussian smearing, width (Ry)=  0.0007
                       cart. coord. in units 2pi/alat
        k(    1) = (   0.0000000   0.0000000   0.0000000), wk =   0.0041152
        k(    2) = (   0.0000000   0.0000000   0.1124779), wk =   0.0082305
        k(    3) = (   0.0000000   0.0000000   0.2249558), wk =   0.0082305
        k(    4) = (   0.0000000   0.0000000  -0.3374337), wk =   0.0041152
        k(    5) = (   0.0000000   0.1096581   0.0000000), wk =   0.0164609
        k(    6) = (   0.0000000   0.1096581   0.1124779), wk =   0.0329218
        k(    7) = (   0.0000000   0.1096581   0.2249558), wk =   0.0329218
        k(    8) = (   0.0000000   0.1096581  -0.3374337), wk =   0.0164609
        k(    9) = (   0.0000000   0.2193161   0.0000000), wk =   0.0164609
        k(   10) = (   0.0000000   0.2193161   0.1124779), wk =   0.0329218
        k(   11) = (   0.0000000   0.2193161   0.2249558), wk =   0.0329218
        k(   12) = (   0.0000000   0.2193161  -0.3374337), wk =   0.0164609
        k(   13) = (   0.0000000   0.3289742   0.0000000), wk =   0.0164609
        k(   14) = (   0.0000000   0.3289742   0.1124779), wk =   0.0329218
        k(   15) = (   0.0000000   0.3289742   0.2249558), wk =   0.0329218
        k(   16) = (   0.0000000   0.3289742  -0.3374337), wk =   0.0164609
        k(   17) = (   0.0000000   0.4386323   0.0000000), wk =   0.0164609
        k(   18) = (   0.0000000   0.4386323   0.1124779), wk =   0.0329218
        k(   19) = (   0.0000000   0.4386323   0.2249558), wk =   0.0329218
        k(   20) = (   0.0000000   0.4386323  -0.3374337), wk =   0.0164609
        k(   21) = (   0.1096581   0.1096581   0.0000000), wk =   0.0164609
        k(   22) = (   0.1096581   0.1096581   0.1124779), wk =   0.0329218
        k(   23) = (   0.1096581   0.1096581   0.2249558), wk =   0.0329218
        k(   24) = (   0.1096581   0.1096581  -0.3374337), wk =   0.0164609
        k(   25) = (   0.1096581   0.2193161   0.0000000), wk =   0.0329218
        k(   26) = (   0.1096581   0.2193161   0.1124779), wk =   0.0658436
        k(   27) = (   0.1096581   0.2193161   0.2249558), wk =   0.0658436
        k(   28) = (   0.1096581   0.2193161  -0.3374337), wk =   0.0329218
        k(   29) = (   0.1096581   0.3289742   0.0000000), wk =   0.0329218
        k(   30) = (   0.1096581   0.3289742   0.1124779), wk =   0.0658436
        k(   31) = (   0.1096581   0.3289742   0.2249558), wk =   0.0658436
        k(   32) = (   0.1096581   0.3289742  -0.3374337), wk =   0.0329218
        k(   33) = (   0.1096581   0.4386323   0.0000000), wk =   0.0329218
        k(   34) = (   0.1096581   0.4386323   0.1124779), wk =   0.0658436
        k(   35) = (   0.1096581   0.4386323   0.2249558), wk =   0.0658436
        k(   36) = (   0.1096581   0.4386323  -0.3374337), wk =   0.0329218
        k(   37) = (   0.2193161   0.2193161   0.0000000), wk =   0.0164609
        k(   38) = (   0.2193161   0.2193161   0.1124779), wk =   0.0329218
        k(   39) = (   0.2193161   0.2193161   0.2249558), wk =   0.0329218
        k(   40) = (   0.2193161   0.2193161  -0.3374337), wk =   0.0164609
        k(   41) = (   0.2193161   0.3289742   0.0000000), wk =   0.0329218
        k(   42) = (   0.2193161   0.3289742   0.1124779), wk =   0.0658436
        k(   43) = (   0.2193161   0.3289742   0.2249558), wk =   0.0658436
        k(   44) = (   0.2193161   0.3289742  -0.3374337), wk =   0.0329218
        k(   45) = (   0.2193161   0.4386323   0.0000000), wk =   0.0329218
        k(   46) = (   0.2193161   0.4386323   0.1124779), wk =   0.0658436
        k(   47) = (   0.2193161   0.4386323   0.2249558), wk =   0.0658436
        k(   48) = (   0.2193161   0.4386323  -0.3374337), wk =   0.0329218
        k(   49) = (   0.3289742   0.3289742   0.0000000), wk =   0.0164609
        k(   50) = (   0.3289742   0.3289742   0.1124779), wk =   0.0329218
        k(   51) = (   0.3289742   0.3289742   0.2249558), wk =   0.0329218
        k(   52) = (   0.3289742   0.3289742  -0.3374337), wk =   0.0164609
        k(   53) = (   0.3289742   0.4386323   0.0000000), wk =   0.0329218
        k(   54) = (   0.3289742   0.4386323   0.1124779), wk =   0.0658436
        k(   55) = (   0.3289742   0.4386323   0.2249558), wk =   0.0658436
        k(   56) = (   0.3289742   0.4386323  -0.3374337), wk =   0.0329218
        k(   57) = (   0.4386323   0.4386323   0.0000000), wk =   0.0164609
        k(   58) = (   0.4386323   0.4386323   0.1124779), wk =   0.0329218
        k(   59) = (   0.4386323   0.4386323   0.2249558), wk =   0.0329218
        k(   60) = (   0.4386323   0.4386323  -0.3374337), wk =   0.0164609

     Initial potential from superposition of free atoms

     starting charge  183.99828, renormalised to  184.00000
     Starting wfcs are  116 randomized atomic wfcs

     Self-consistent Calculation

[...]

     total energy              =   -3130.53277896 Ry
     Harris-Foulkes estimate   =   -3130.53277896 Ry
     estimated scf accuracy    <          2.7E-10 Ry

     iteration # 14     ecut=   120.00 Ry     beta= 0.70
     Davidson diagonalization with overlap
     ethr =  1.44E-13,  avg # of iterations =  2.0

     End of self-consistent calculation

[...]

          k = 0.4386 0.4386-0.3374 ( 31640 PWs)   bands (ev):

   -66.4486 -66.4486 -66.4486 -66.4486 -30.7885 -30.7885 -30.7865 -30.7865
   -30.7689 -30.7689 -30.7684 -30.7684 -30.7014 -30.7014 -30.6991 -30.6991
   -20.6143 -20.6143 -20.6143 -20.6143 -20.6031 -20.6031 -20.6031 -20.6031
   -20.5979 -20.5979 -20.5979 -20.5979 -20.5852 -20.5852 -20.5852 -20.5851
   -20.5849 -20.5849 -20.5848 -20.5848 -20.5788 -20.5788 -20.5787 -20.5787
   -20.5755 -20.5755 -20.5754 -20.5754  -9.5937  -9.5937  -9.5522  -9.5522
    -8.6766  -8.6766  -8.6714  -8.6714  -8.0346  -8.0346  -7.9793  -7.9793
     1.0216   1.0216   1.1366   1.1366   2.9115   2.9116   2.9171   2.9172
     3.1532   3.1532   3.1783   3.1783   4.3135   4.3135   4.5027   4.5027
     5.0265   5.0265   5.1502   5.1502   5.6478   5.6478   5.8116   5.8116
     6.0335   6.0335   6.1671   6.1671   6.5083   6.5083   6.6057   6.6057
     7.3069   7.3069   7.3158   7.3158  11.0154  11.0154  11.0734  11.0734
    12.1764  12.1764  12.2807  12.2807  13.3157  13.3157  13.4092  13.4092
    14.9516  14.9516  15.1335  15.1335  17.6756  17.6756

     the Fermi energy is     8.4900 ev

!    total energy              =   -3130.53277896 Ry
     Harris-Foulkes estimate   =   -3130.53277896 Ry
     estimated scf accuracy    <          1.5E-12 Ry

     The total energy is the sum of the following terms:

     one-electron contribution =   -2395.81184565 Ry
     hartree contribution      =    1314.55458974 Ry
     xc contribution           =    -482.85522977 Ry
     ewald contribution        =   -1566.42029328 Ry
     smearing contrib. (-TS)   =      -0.00000000 Ry

     convergence has been achieved in  14 iterations

     Forces acting on atoms (cartesian axes, Ry/au):

     atom    1 type  1   force =     0.00000000    0.00000000   -0.01034938
     atom    2 type  1   force =     0.00000000    0.00000000    0.01034938
     atom    3 type  1   force =     0.00000000    0.00000000    0.01034938
     atom    4 type  1   force =     0.00000000    0.00000000   -0.01034938
     atom    5 type  2   force =     0.00000000    0.00000000    0.05496465
     atom    6 type  2   force =     0.00000000    0.00000000   -0.05496465
     atom    7 type  2   force =     0.00000000    0.00000000   -0.05496465
     atom    8 type  2   force =     0.00000000    0.00000000    0.05496465
     atom    9 type  2   force =    -0.00122772    0.00122772    0.00000000
     atom   10 type  2   force =     0.00122772   -0.00122772    0.00000000
     atom   11 type  2   force =     0.00122772   -0.00122772    0.00000000
     atom   12 type  2   force =    -0.00122772    0.00122772    0.00000000
     atom   13 type  2   force =    -0.00122772   -0.00122772    0.00000000
     atom   14 type  2   force =     0.00122772    0.00122772    0.00000000
     atom   15 type  2   force =     0.00122772    0.00122772    0.00000000
     atom   16 type  2   force =    -0.00122772   -0.00122772    0.00000000

     Total force =     0.000000     Total SCF correction =     0.000000

     Computing stress (Cartesian axis) and pressure

          total   stress  (Ry/bohr**3)                   (kbar)     P=    0.65
   0.00000643   0.00000000   0.00000000          0.95      0.00      0.00
   0.00000000   0.00000643   0.00000000          0.00      0.95      0.00
   0.00000000   0.00000000   0.00000043          0.00      0.00      0.06

     Writing output data file Landau_18.save/

     General routines

     Parallel routines

   This run was terminated on:  18:35:23  21Nov2019

   JOB DONE.