     Program PWSCF v.6.2 (svn rev. 14038) starts on 11Mar2020 at  2:17: 4

     K-points division:     npool     =      40
     Reading input from rscf.in

     Current dimensions of program PWSCF are:
     Max number of different atomic species (ntypx) = 10
     Max number of k-points (npk) =  40000
     Max angular momentum in pseudopotentials (lmaxx) =  3

     Subspace diagonalization in iterative solution of the eigenvalue problem:
     a serial algorithm will be used

     Found symmetry operation: I + (  0.5000  0.0000 -0.5000)
     This is a supercell, fractional translations are disabled

     bravais-lattice index     =            0
     lattice parameter (alat)  =      13.8397  a.u.
     unit-cell volume          =    2804.9816 (a.u.)^3
     number of atoms/cell      =           32
     number of atomic types    =            2
     number of electrons       =       368.00
     number of Kohn-Sham states=          221
     kinetic-energy cutoff     =     120.0000  Ry
     charge density cutoff     =     480.0000  Ry
     convergence threshold     =      1.0E-08
     mixing beta               =       0.7000
     number of iterations used =            8  plain     mixing
     Exchange-correlation      = SLA PW NOGX NOGC ( 1  4  0  0 0 0)
     nstep                     =           50

     celldm(1)=  13.839685  celldm(2)=   0.000000  celldm(3)=   0.000000
     celldm(4)=   0.000000  celldm(5)=   0.000000  celldm(6)=   0.000000

     crystal axes: (cart. coord. in units of alat)
               a(1) = (   1.000000   0.000000   0.000000 )
               a(2) = (   0.000000   1.058160   0.000000 )
               a(3) = (   0.000000   0.000000   1.000000 )

     reciprocal axes: (cart. coord. in units 2 pi/alat)
               b(1) = (  1.000000  0.000000  0.000000 )
               b(2) = (  0.000000  0.945037  0.000000 )
               b(3) = (  0.000000  0.000000  1.000000 )

     PseudoPot. # 1 for W  read from file:
     /cluster/scratch/mnoe/QE/pps/W_ONCV_LDA-4.0.upf
     MD5 check sum: ba0307d5d4cd419d6f1d13dc49d7c13a
     Pseudo is Norm-conserving + core correction, Zval = 28.0
     Generated using ONCVPSP code by D. R. Hamann
     Using radial grid of 1380 points,  8 beta functions with:
                l(1) =   0
                l(2) =   0
                l(3) =   1
                l(4) =   1
                l(5) =   2
                l(6) =   2
                l(7) =   3
                l(8) =   3

     PseudoPot. # 2 for O  read from file:
     /cluster/scratch/mnoe/QE/pps/O_ONCV_LDA-3.0.upf
     MD5 check sum: a1bd6164e7280c17a38c229939bfbd54
     Pseudo is Norm-conserving + core correction, Zval =  6.0
     Generated using ONCVPSP code by D. R. Hamann
     Using radial grid of  926 points,  5 beta functions with:
                l(1) =   0
                l(2) =   0
                l(3) =   1
                l(4) =   1
                l(5) =   2

     atomic species   valence    mass     pseudopotential
        W             28.00   183.84000     W ( 1.00)
        O              6.00    15.99940     O ( 1.00)

      2 Sym. Ops., with inversion, found

   Cartesian axes

     site n.     atom                  positions (alat units)
         1           W   tau(   1) = (   0.2500000   0.2979580   0.0000000  )
         2           W   tau(   2) = (   0.7500000   0.7602021   0.0000000  )
         3           W   tau(   3) = (   0.2500000   0.2311221   0.5000000  )
         4           W   tau(   4) = (   0.7500000   0.8270380   0.5000000  )
         5           W   tau(   5) = (   0.7500000   0.2979580   0.5000000  )
         6           W   tau(   6) = (   0.2500000   0.7602021   0.5000000  )
         7           W   tau(   7) = (   0.7500000   0.2311221   0.0000000  )
         8           W   tau(   8) = (   0.2500000   0.8270380   0.0000000  )
         9           O   tau(   9) = (   0.2500000   0.0087235   0.0000000  )
        10           O   tau(  10) = (   0.7500000   1.0494366   0.0000000  )
        11           O   tau(  11) = (   0.2500000   0.5203565   0.5000000  )
        12           O   tau(  12) = (   0.7500000   0.5378035   0.5000000  )
        13           O   tau(  13) = (   0.7500000   0.0087235   0.5000000  )
        14           O   tau(  14) = (   0.2500000   1.0494366   0.5000000  )
        15           O   tau(  15) = (   0.7500000   0.5203565   0.0000000  )
        16           O   tau(  16) = (   0.2500000   0.5378035   0.0000000  )
        17           O   tau(  17) = (   0.5000000   0.2645400   0.4502217  )
        18           O   tau(  18) = (   0.5000000   0.7936200   0.5497783  )
        19           O   tau(  19) = (   0.0000000   0.2645400   0.9502217  )
        20           O   tau(  20) = (   0.0000000   0.7936200   0.0497783  )
        21           O   tau(  21) = (   0.5000000   0.2645400   0.0497783  )
        22           O   tau(  22) = (   0.5000000   0.7936200   0.9502217  )
        23           O   tau(  23) = (   0.0000000   0.2645400   0.5497783  )
        24           O   tau(  24) = (   0.0000000   0.7936200   0.4502217  )
        25           O   tau(  25) = (   0.7002217   0.2645400   0.7500000  )
        26           O   tau(  26) = (   0.2997783   0.7936200   0.2500000  )
        27           O   tau(  27) = (   0.7997783   0.2645400   0.2500000  )
        28           O   tau(  28) = (   0.2002217   0.7936200   0.7500000  )
        29           O   tau(  29) = (   0.2997783   0.2645400   0.7500000  )
        30           O   tau(  30) = (   0.7002217   0.7936200   0.2500000  )
        31           O   tau(  31) = (   0.2002217   0.2645400   0.2500000  )
        32           O   tau(  32) = (   0.7997783   0.7936200   0.7500000  )

     number of k points=   112  gaussian smearing, width (Ry)=  0.0007

     Number of k-points >= 100: set verbosity='high' to print them.

     Initial potential from superposition of free atoms

     starting charge  367.99656, renormalised to  368.00000
     Starting wfc are  232 randomized atomic wfcs

     Self-consistent Calculation

     iteration #  1     ecut=   120.00 Ry     beta= 0.70
     Davidson diagonalization with overlap
     ethr =  1.00E-02,  avg # of iterations =  5.1

     total energy              =   -6253.98485941 Ry
     Harris-Foulkes estimate   =   -6264.58757188 Ry
     estimated scf accuracy    <      13.42642375 Ry

[...]

     End of self-consistent calculation

     Number of k-points >= 100: set verbosity='high' to print the bands.

     the Fermi energy is     8.9643 ev

!    total energy              =   -6261.10928517 Ry
     Harris-Foulkes estimate   =   -6261.10928517 Ry
     estimated scf accuracy    <          5.1E-09 Ry

     The total energy is the sum of the following terms:

     one-electron contribution =   -4724.15229798 Ry
     hartree contribution      =    2598.77479608 Ry
     xc contribution           =    -965.69377501 Ry
     ewald contribution        =   -3170.03800827 Ry
     smearing contrib. (-TS)   =      -0.00000000 Ry

     convergence has been achieved in  14 iterations

     Forces acting on atoms (cartesian axes, Ry/au):

     atom    1 type  1   force =    -0.00000082    0.00263999   -0.00000917
     atom    2 type  1   force =     0.00000082   -0.00263999    0.00000917
     atom    3 type  1   force =    -0.00000464   -0.00265289    0.00000951
     atom    4 type  1   force =     0.00000464    0.00265289   -0.00000951
     atom    5 type  1   force =     0.00000474    0.00261866   -0.00000250
     atom    6 type  1   force =    -0.00000474   -0.00261866    0.00000250
     atom    7 type  1   force =     0.00000209   -0.00265545    0.00000403
     atom    8 type  1   force =    -0.00000209    0.00265545   -0.00000403
     atom    9 type  2   force =    -0.00000026   -0.00136277   -0.00000061
     atom   10 type  2   force =     0.00000026    0.00136277    0.00000061
     atom   11 type  2   force =    -0.00000024    0.00135972    0.00000032
     atom   12 type  2   force =     0.00000024   -0.00135972   -0.00000032
     atom   13 type  2   force =     0.00000100   -0.00136182   -0.00000112
     atom   14 type  2   force =    -0.00000100    0.00136182    0.00000112
     atom   15 type  2   force =     0.00000040    0.00135904    0.00000095
     atom   16 type  2   force =    -0.00000040   -0.00135904   -0.00000095
     atom   17 type  2   force =     0.00000134    0.00000043   -0.00070681
     atom   18 type  2   force =    -0.00000134   -0.00000043    0.00070681
     atom   19 type  2   force =    -0.00000041    0.00000024   -0.00070747
     atom   20 type  2   force =     0.00000041   -0.00000024    0.00070747
     atom   21 type  2   force =     0.00000101    0.00000045    0.00070650
     atom   22 type  2   force =    -0.00000101   -0.00000045   -0.00070650
     atom   23 type  2   force =    -0.00000167    0.00000026    0.00070763
     atom   24 type  2   force =     0.00000167   -0.00000026   -0.00070763
     atom   25 type  2   force =    -0.00070637    0.00000030    0.00000027
     atom   26 type  2   force =     0.00070637   -0.00000030   -0.00000027
     atom   27 type  2   force =     0.00070737    0.00000024    0.00000032
     atom   28 type  2   force =    -0.00070737   -0.00000024   -0.00000032
     atom   29 type  2   force =     0.00070635    0.00000096    0.00000136
     atom   30 type  2   force =    -0.00070635   -0.00000096   -0.00000136
     atom   31 type  2   force =    -0.00070743    0.00000055   -0.00000104
     atom   32 type  2   force =     0.00070743   -0.00000055    0.00000104

     Total force =     0.000000     Total SCF correction =     0.000000

     Computing stress (Cartesian axis) and pressure

          total   stress  (Ry/bohr**3)                   (kbar)     P=    2.14
   0.00003019   0.00000000   0.00000000          4.44      0.00      0.00
   0.00000000  -0.00001679  -0.00000001          0.00     -2.47     -0.00
   0.00000000  -0.00000001   0.00003021          0.00     -0.00      4.44

     BFGS Geometry Optimization

     number of scf cycles    =   1
     number of bfgs steps    =   0

     enthalpy new            =   -6261.1092851657 Ry

     new trust radius        =       0.0079989266 bohr
     new conv_thr            =       0.0000000100 Ry

     new unit-cell volume =   2808.03935 a.u.^3 (   416.10849 Ang^3 )
     density =      7.40146 g/cm^3

CELL_PARAMETERS (angstrom)
   7.329174042   0.000000529   0.000000042
   0.000000560   7.746336578  -0.000002381
   0.000000042  -0.000002250   7.329176564

ATOMIC_POSITIONS (crystal)
W        0.250000000   0.281581210   0.000000000    0   0   0
W        0.749999999   0.718418790  -0.000000000    0   0   0
W        0.250000000   0.218418805   0.500000000    0   0   0
W        0.749999999   0.781581182   0.500000000    0   0   0
W        0.749999999   0.281581210   0.500000000    0   0   0
W        0.250000000   0.718418790   0.500000000    0   0   0
W        0.749999999   0.218418805  -0.000000000    0   0   0
W        0.250000000   0.781581182   0.000000000    0   0   0
O        0.250000000   0.008244048  -0.000000000    0   0   0
O        0.749999999   0.991755973  -0.000000000    0   0   0
O        0.250000000   0.491755944   0.500000000    0   0   0
O        0.749999999   0.508244027   0.500000000    0   0   0
O        0.749999999   0.008244048   0.500000000    0   0   0
O        0.250000000   0.991755973   0.500000000    0   0   0
O        0.749999999   0.491755944  -0.000000000    0   0   0
O        0.250000000   0.508244027  -0.000000000    0   0   0
O        0.500000000   0.250000000   0.450221708    0   0   0
O        0.500000000   0.749999986   0.549778262    0   0   0
O       -0.000000000   0.250000000   0.950221741    0   0   0
O       -0.000000000   0.749999986   0.049778305    0   0   0
O        0.500000000   0.250000000   0.049778305    0   0   0
O        0.500000000   0.749999986   0.950221741    0   0   0
O       -0.000000000   0.250000000   0.549778262    0   0   0
O       -0.000000000   0.749999986   0.450221708    0   0   0
O        0.700221740   0.250000000   0.749999999    0   0   0
O        0.299778290   0.749999986   0.250000000    0   0   0
O        0.799778263   0.250000000   0.250000000    0   0   0
O        0.200221724   0.749999986   0.749999999    0   0   0
O        0.299778290   0.250000000   0.749999999    0   0   0
O        0.700221740   0.749999986   0.250000000    0   0   0
O        0.200221724   0.250000000   0.250000000    0   0   0
O        0.799778263   0.749999986   0.749999999    0   0   0

     Writing output data file Landau_2.save
     NEW-OLD atomic charge density approx. for the potential
     extrapolated charge  368.40071, renormalised to  368.00000

[...]

     enthalpy old            =   -6261.1092851657 Ry
     enthalpy new            =   -6261.1093484346 Ry

     CASE: enthalpy_new < enthalpy_old

[...]

     number of scf cycles    =   3
     number of bfgs steps    =   2

     enthalpy old            =   -6261.1093484346 Ry
     enthalpy new            =   -6261.1093506468 Ry

     CASE: enthalpy_new < enthalpy_old

     new trust radius        =       0.0003262876 bohr
     new conv_thr            =            1.0E-10 Ry

     new unit-cell volume =   2807.22157 a.u.^3 (   415.98731 Ang^3 )
     density =      7.40362 g/cm^3

[...]

ATOMIC_POSITIONS (crystal)
W        0.250000000   0.281581210  -0.000000000    0   0   0
W        0.749999999   0.718418790  -0.000000000    0   0   0
W        0.250000000   0.218418805   0.500000000    0   0   0
W        0.749999999   0.781581182   0.500000000    0   0   0
W        0.749999999   0.281581210   0.500000000    0   0   0
W        0.250000000   0.718418790   0.500000000    0   0   0
W        0.749999999   0.218418805  -0.000000000    0   0   0
W        0.250000000   0.781581182   0.000000000    0   0   0
O        0.250000000   0.008244048  -0.000000000    0   0   0
O        0.749999999   0.991755973  -0.000000000    0   0   0
O        0.250000000   0.491755944   0.500000000    0   0   0
O        0.749999999   0.508244027   0.500000000    0   0   0
O        0.749999999   0.008244048   0.500000000    0   0   0
O        0.250000000   0.991755973   0.500000000    0   0   0
O        0.749999999   0.491755944  -0.000000000    0   0   0
O        0.250000000   0.508244027  -0.000000000    0   0   0
O        0.500000000   0.250000000   0.450221708    0   0   0
O        0.500000000   0.749999986   0.549778262    0   0   0
O        0.000000000   0.250000000   0.950221741    0   0   0
O       -0.000000000   0.749999986   0.049778305    0   0   0
O        0.500000000   0.250000000   0.049778305    0   0   0
O        0.500000000   0.749999986   0.950221741    0   0   0
O       -0.000000000   0.250000000   0.549778262    0   0   0
O       -0.000000000   0.749999986   0.450221708    0   0   0
O        0.700221740   0.250000000   0.749999999    0   0   0
O        0.299778290   0.749999986   0.250000000    0   0   0
O        0.799778263   0.250000000   0.250000000    0   0   0
O        0.200221724   0.749999986   0.749999999    0   0   0
O        0.299778290   0.250000000   0.749999999    0   0   0
O        0.700221740   0.749999986   0.250000000    0   0   0
O        0.200221724   0.250000000   0.250000000    0   0   0
O        0.799778263   0.749999986   0.749999999    0   0   0

     Writing output data file Landau_2.save
     NEW-OLD atomic charge density approx. for the potential
     extrapolated charge  368.01371, renormalised to  368.00000

[...]

     Threshold (ethr) on eigenvalues was too large:
     Diagonalizing with lowered threshold

     Davidson diagonalization with overlap
     ethr =  2.82E-09,  avg # of iterations =  2.7

[...]

     bfgs converged in   4 scf cycles and   3 bfgs steps
     (criteria: energy <  1.0E-07 Ry, force <  1.0E-07Ry/Bohr, cell <  5.0E-01kbar)

     End of BFGS Geometry Optimization

     Final enthalpy =   -6261.1093506994 Ry
Begin final coordinates
     new unit-cell volume =   2807.22157 a.u.^3 (   415.98731 Ang^3 )
     density =      7.40362 g/cm^3

CELL_PARAMETERS (angstrom)
   7.328348147   0.000000467   0.000000039
   0.000000494   7.745828833  -0.000001581
   0.000000039  -0.000001495   7.328348192

ATOMIC_POSITIONS (crystal)
W        0.250000000   0.281581210  -0.000000000    0   0   0
W        0.749999999   0.718418790  -0.000000000    0   0   0
W        0.250000000   0.218418805   0.500000000    0   0   0
W        0.749999999   0.781581182   0.500000000    0   0   0
W        0.749999999   0.281581210   0.500000000    0   0   0
W        0.250000000   0.718418790   0.500000000    0   0   0
W        0.749999999   0.218418805  -0.000000000    0   0   0
W        0.250000000   0.781581182  -0.000000000    0   0   0
O        0.250000000   0.008244048   0.000000000    0   0   0
O        0.749999999   0.991755973  -0.000000000    0   0   0
O        0.250000000   0.491755944   0.500000000    0   0   0
O        0.749999999   0.508244027   0.500000000    0   0   0
O        0.749999999   0.008244048   0.500000000    0   0   0
O        0.250000000   0.991755973   0.500000000    0   0   0
O        0.749999999   0.491755944  -0.000000000    0   0   0
O        0.250000000   0.508244027  -0.000000000    0   0   0
O        0.500000000   0.250000000   0.450221708    0   0   0
O        0.500000000   0.749999986   0.549778262    0   0   0
O        0.000000000   0.250000000   0.950221741    0   0   0
O       -0.000000000   0.749999986   0.049778305    0   0   0
O        0.500000000   0.250000000   0.049778305    0   0   0
O        0.500000000   0.749999986   0.950221741    0   0   0
O       -0.000000000   0.250000000   0.549778262    0   0   0
O        0.000000000   0.749999986   0.450221708    0   0   0
O        0.700221740   0.250000000   0.749999999    0   0   0
O        0.299778290   0.749999986   0.250000000    0   0   0
O        0.799778263   0.250000000   0.250000000    0   0   0
O        0.200221724   0.749999986   0.749999999    0   0   0
O        0.299778290   0.250000000   0.749999999    0   0   0
O        0.700221740   0.749999986   0.250000000    0   0   0
O        0.200221724   0.250000000   0.250000000    0   0   0
O        0.799778263   0.749999986   0.749999999    0   0   0
End final coordinates

     A final scf calculation at the relaxed structure.
     The G-vectors are recalculated for the final unit cell
     Results may differ from those at the preceding step.

     bravais-lattice index     =            0
     lattice parameter (alat)  =      13.8397  a.u.
     unit-cell volume          =    2807.2216 (a.u.)^3
     number of atoms/cell      =           32
     number of atomic types    =            2
     number of electrons       =       368.00
     number of Kohn-Sham states=          221
     kinetic-energy cutoff     =     120.0000  Ry
     charge density cutoff     =     480.0000  Ry
     convergence threshold     =      1.0E-10
     mixing beta               =       0.7000
     number of iterations used =            8  plain     mixing
     Exchange-correlation      = SLA PW NOGX NOGC ( 1  4  0  0 0 0)

     celldm(1)=  13.839685  celldm(2)=   0.000000  celldm(3)=   0.000000
     celldm(4)=   0.000000  celldm(5)=   0.000000  celldm(6)=   0.000000

     crystal axes: (cart. coord. in units of alat)
               a(1) = (   1.000642   0.000000   0.000000 )
               a(2) = (   0.000000   1.057647  -0.000000 )
               a(3) = (   0.000000  -0.000000   1.000642 )

     reciprocal axes: (cart. coord. in units 2 pi/alat)
               b(1) = (  0.999358 -0.000000 -0.000000 )
               b(2) = ( -0.000000  0.945495  0.000000 )
               b(3) = ( -0.000000  0.000000  0.999358 )

     PseudoPot. # 1 for W  read from file:
     /cluster/scratch/mnoe/QE/pps/W_ONCV_LDA-4.0.upf
     MD5 check sum: ba0307d5d4cd419d6f1d13dc49d7c13a
     Pseudo is Norm-conserving + core correction, Zval = 28.0
     Generated using ONCVPSP code by D. R. Hamann
     Using radial grid of 1380 points,  8 beta functions with:
                l(1) =   0
                l(2) =   0
                l(3) =   1
                l(4) =   1
                l(5) =   2
                l(6) =   2
                l(7) =   3
                l(8) =   3

     PseudoPot. # 2 for O  read from file:
     /cluster/scratch/mnoe/QE/pps/O_ONCV_LDA-3.0.upf
     MD5 check sum: a1bd6164e7280c17a38c229939bfbd54
     Pseudo is Norm-conserving + core correction, Zval =  6.0
     Generated using ONCVPSP code by D. R. Hamann
     Using radial grid of  926 points,  5 beta functions with:
                l(1) =   0
                l(2) =   0
                l(3) =   1
                l(4) =   1
                l(5) =   2

     atomic species   valence    mass     pseudopotential
        W             28.00   183.84000     W ( 1.00)
        O              6.00    15.99940     O ( 1.00)

      2 Sym. Ops., with inversion, found

   Cartesian axes

     site n.     atom                  positions (alat units)
         1           W   tau(   1) = (   0.2501605   0.2978134  -0.0000001  )
         2           W   tau(   2) = (   0.7504816   0.7598332  -0.0000002  )
         3           W   tau(   3) = (   0.2501605   0.2310098   0.5003210  )
         4           W   tau(   4) = (   0.7504816   0.8266366   0.5003209  )
         5           W   tau(   5) = (   0.7504816   0.2978133   0.5003210  )
         6           W   tau(   6) = (   0.2501606   0.7598331   0.5003209  )
         7           W   tau(   7) = (   0.7504815   0.2310099  -0.0000000  )
         8           W   tau(   8) = (   0.2501606   0.8266366  -0.0000002  )
         9           O   tau(   9) = (   0.2501605   0.0087193  -0.0000000  )
        10           O   tau(  10) = (   0.7504816   1.0489273  -0.0000002  )
        11           O   tau(  11) = (   0.2501605   0.5201039   0.5003209  )
        12           O   tau(  12) = (   0.7504816   0.5375425   0.5003209  )
        13           O   tau(  13) = (   0.7504815   0.0087192   0.5003210  )
        14           O   tau(  14) = (   0.2501606   1.0489272   0.5003208  )
        15           O   tau(  15) = (   0.7504816   0.5201040  -0.0000001  )
        16           O   tau(  16) = (   0.2501605   0.5375425  -0.0000001  )
        17           O   tau(  17) = (   0.5003210   0.2644116   0.4505107  )
        18           O   tau(  18) = (   0.5003211   0.7932348   0.5501311  )
        19           O   tau(  19) = (   0.0000000   0.2644114   0.9508318  )
        20           O   tau(  20) = (   0.0000001   0.7932349   0.0498101  )
        21           O   tau(  21) = (   0.5003210   0.2644117   0.0498102  )
        22           O   tau(  22) = (   0.5003211   0.7932347   0.9508317  )
        23           O   tau(  23) = (   0.0000000   0.2644115   0.5501312  )
        24           O   tau(  24) = (   0.0000001   0.7932348   0.4505106  )
        25           O   tau(  25) = (   0.7006713   0.2644115   0.7504815  )
        26           O   tau(  26) = (   0.2999708   0.7932348   0.2501604  )
        27           O   tau(  27) = (   0.8002918   0.2644116   0.2501605  )
        28           O   tau(  28) = (   0.2003503   0.7932347   0.7504814  )
        29           O   tau(  29) = (   0.2999708   0.2644115   0.7504815  )
        30           O   tau(  30) = (   0.7006714   0.7932349   0.2501604  )
        31           O   tau(  31) = (   0.2003503   0.2644116   0.2501605  )
        32           O   tau(  32) = (   0.8002918   0.7932348   0.7504814  )

     number of k points=   112  gaussian smearing, width (Ry)=  0.0007

     Number of k-points >= 100: set verbosity='high' to print them.

     Initial potential from superposition of free atoms

     starting charge  367.99656, renormalised to  368.00000
     Starting wfc are  232 randomized atomic wfcs

     Writing output data file Landau_2.save

     Self-consistent Calculation

[...]

     total energy              =   -6261.10936030 Ry
     Harris-Foulkes estimate   =   -6261.10936030 Ry
     estimated scf accuracy    <          2.0E-10 Ry

     iteration # 17     ecut=   120.00 Ry     beta= 0.70
     Davidson diagonalization with overlap
     ethr =  1.00E-13,  avg # of iterations =  2.0

     End of self-consistent calculation

     Number of k-points >= 100: set verbosity='high' to print the bands.

     the Fermi energy is     8.5361 ev

!    total energy              =   -6261.10936030 Ry
     Harris-Foulkes estimate   =   -6261.10936030 Ry
     estimated scf accuracy    <          5.4E-11 Ry

     The total energy is the sum of the following terms:

     one-electron contribution =   -4725.23586658 Ry
     hartree contribution      =    2599.12762816 Ry
     xc contribution           =    -965.66936403 Ry
     ewald contribution        =   -3169.33175785 Ry
     smearing contrib. (-TS)   =      -0.00000000 Ry

     convergence has been achieved in  17 iterations

     Forces acting on atoms (cartesian axes, Ry/au):

     atom    1 type  1   force =    -0.00000350    0.00077295    0.00000544
     atom    2 type  1   force =     0.00000350   -0.00077295   -0.00000544
     atom    3 type  1   force =    -0.00000148   -0.00077937   -0.00000437
     atom    4 type  1   force =     0.00000148    0.00077937    0.00000437
     atom    5 type  1   force =     0.00000090    0.00077274    0.00000330
     atom    6 type  1   force =    -0.00000090   -0.00077274   -0.00000330
     atom    7 type  1   force =     0.00000202   -0.00077931   -0.00000201
     atom    8 type  1   force =    -0.00000202    0.00077931    0.00000201
     atom    9 type  2   force =    -0.00000002   -0.00037527    0.00000001
     atom   10 type  2   force =     0.00000002    0.00037527   -0.00000001
     atom   11 type  2   force =     0.00000000    0.00037493    0.00000004
     atom   12 type  2   force =    -0.00000000   -0.00037493   -0.00000004
     atom   13 type  2   force =    -0.00000000   -0.00037481   -0.00000005
     atom   14 type  2   force =     0.00000000    0.00037481    0.00000005
     atom   15 type  2   force =     0.00000004    0.00037464   -0.00000001
     atom   16 type  2   force =    -0.00000004   -0.00037464    0.00000001
     atom   17 type  2   force =    -0.00000008   -0.00000002   -0.00016949
     atom   18 type  2   force =     0.00000008    0.00000002    0.00016949
     atom   19 type  2   force =    -0.00000020   -0.00000009   -0.00016950
     atom   20 type  2   force =     0.00000020    0.00000009    0.00016950
     atom   21 type  2   force =     0.00000028   -0.00000001    0.00016950
     atom   22 type  2   force =    -0.00000028    0.00000001   -0.00016950
     atom   23 type  2   force =     0.00000015   -0.00000002    0.00016955
     atom   24 type  2   force =    -0.00000015    0.00000002   -0.00016955
     atom   25 type  2   force =    -0.00016957   -0.00000005    0.00000031
     atom   26 type  2   force =     0.00016957    0.00000005   -0.00000031
     atom   27 type  2   force =     0.00016959   -0.00000005   -0.00000030
     atom   28 type  2   force =    -0.00016959    0.00000005    0.00000030
     atom   29 type  2   force =     0.00016947   -0.00000004   -0.00000001
     atom   30 type  2   force =    -0.00016947    0.00000004    0.00000001
     atom   31 type  2   force =    -0.00016960   -0.00000000   -0.00000000
     atom   32 type  2   force =     0.00016960    0.00000000    0.00000000

     Total force =     0.000000     Total SCF correction =     0.000000

     Computing stress (Cartesian axis) and pressure

          total   stress  (Ry/bohr**3)                   (kbar)     P=    0.01
   0.00000015  -0.00000000   0.00000000          0.02     -0.00      0.00
  -0.00000000  -0.00000015   0.00000000         -0.00     -0.02      0.00
   0.00000000   0.00000000   0.00000016          0.00      0.00      0.02

     Writing output data file Landau_2.save

     General routines

     Parallel routines

   This run was terminated on:   7: 6:17  11Mar2020

   JOB DONE.