     Program PWSCF v.6.2 (svn rev. 14038) starts on 28Aug2019 at 14:58:34

     K-points division:     npool     =      64
     Reading input from scf.in

     Current dimensions of program PWSCF are:
     Max number of different atomic species (ntypx) = 10
     Max number of k-points (npk) =  40000
     Max angular momentum in pseudopotentials (lmaxx) =  3

     Subspace diagonalization in iterative solution of the eigenvalue problem:
     a serial algorithm will be used

     bravais-lattice index     =            0
     lattice parameter (alat)  =      13.8209  a.u.
     unit-cell volume          =    2774.0979 (a.u.)^3
     number of atoms/cell      =           32
     number of atomic types    =            2
     number of electrons       =       368.52
     number of Kohn-Sham states=          221
     kinetic-energy cutoff     =     120.0000  Ry
     charge density cutoff     =     480.0000  Ry
     convergence threshold     =      1.0E-08
     mixing beta               =       0.7000
     number of iterations used =            8  plain     mixing
     Exchange-correlation      = SLA PW NOGX NOGC ( 1  4  0  0 0 0)

     celldm(1)=  13.820861  celldm(2)=   0.000000  celldm(3)=   0.000000
     celldm(4)=   0.000000  celldm(5)=   0.000000  celldm(6)=   0.000000

     crystal axes: (cart. coord. in units of alat)
               a(1) = (   1.000000   0.000000   0.000000 )
               a(2) = (   0.000000   1.044041   0.000000 )
               a(3) = (   0.000000   0.000000   1.006466 )

     reciprocal axes: (cart. coord. in units 2 pi/alat)
               b(1) = (  1.000000  0.000000  0.000000 )
               b(2) = (  0.000000  0.957817  0.000000 )
               b(3) = (  0.000000  0.000000  0.993576 )

     PseudoPot. # 1 for W  read from file:
     /cluster/scratch/mnoe/QE/pps/W_ONCV_LDA-4.0.upf
     MD5 check sum: ba0307d5d4cd419d6f1d13dc49d7c13a
     Pseudo is Norm-conserving + core correction, Zval = 28.0
     Generated using ONCVPSP code by D. R. Hamann
     Using radial grid of 1380 points,  8 beta functions with:
                l(1) =   0
                l(2) =   0
                l(3) =   1
                l(4) =   1
                l(5) =   2
                l(6) =   2
                l(7) =   3
                l(8) =   3

     PseudoPot. # 2 for O  read from file:
     /cluster/scratch/mnoe/QE/pps/O_ONCV_LDA-3.0.upf
     MD5 check sum: b55cdb4f45ae2203d24ad12cf8d61a31
     Pseudo is Norm-conserving + core correction, Zval =  6.0
     Generated using ONCVPSP code by D. R. Hamann
     Using radial grid of  926 points,  5 beta functions with:
                l(1) =   0
                l(2) =   0
                l(3) =   1
                l(4) =   1
                l(5) =   2

     atomic species   valence    mass     pseudopotential
        W             28.00   183.84000     W ( 1.00)
        O              6.00    15.99940     O ( 1.00)

      8 Sym. Ops., with inversion, found ( 6 have fractional translation)

   Cartesian axes

     site n.     atom                  positions (alat units)
         1           W   tau(   1) = (   0.2338100   0.2942734   0.0153889  )
         2           W   tau(   2) = (   0.7661900   0.7497677   0.9910767  )
         3           W   tau(   3) = (   0.2661900   0.2277471   0.5186217  )
         4           W   tau(   4) = (   0.7338100   0.8162939   0.4878439  )
         5           W   tau(   5) = (   0.7661900   0.2942734   0.4878439  )
         6           W   tau(   6) = (   0.2338100   0.7497677   0.5186217  )
         7           W   tau(   7) = (   0.7338100   0.2277471   0.9910767  )
         8           W   tau(   8) = (   0.2661900   0.8162939   0.0153889  )
         9           O   tau(   9) = (   0.2201400   0.0086864   0.0047807  )
        10           O   tau(  10) = (   0.7798600   1.0353547   1.0016848  )
        11           O   tau(  11) = (   0.2798600   0.5133341   0.5080135  )
        12           O   tau(  12) = (   0.7201400   0.5307069   0.4984521  )
        13           O   tau(  13) = (   0.7798600   0.0086864   0.4984521  )
        14           O   tau(  14) = (   0.2201400   1.0353547   0.5080135  )
        15           O   tau(  15) = (   0.7201400   0.5133341   1.0016848  )
        16           O   tau(  16) = (   0.2798600   0.5307069   0.0047807  )
        17           O   tau(  17) = (   0.5044200   0.2290313   0.4524465  )
        18           O   tau(  18) = (   0.4955800   0.8150098   0.5540190  )
        19           O   tau(  19) = (   0.9955800   0.2929893   0.9556793  )
        20           O   tau(  20) = (   0.0044200   0.7510519   0.0507863  )
        21           O   tau(  21) = (   0.4955800   0.2290313   0.0507863  )
        22           O   tau(  22) = (   0.5044200   0.8150098   0.9556793  )
        23           O   tau(  23) = (   0.0044200   0.2929893   0.5540190  )
        24           O   tau(  24) = (   0.9955800   0.7510519   0.4524465  )
        25           O   tau(  25) = (   0.6995400   0.2540256   0.7480958  )
        26           O   tau(  26) = (   0.3004600   0.7900155   0.2583698  )
        27           O   tau(  27) = (   0.8004600   0.2679949   0.2448629  )
        28           O   tau(  28) = (   0.1995400   0.7760462   0.7616025  )
        29           O   tau(  29) = (   0.3004600   0.2540256   0.7616025  )
        30           O   tau(  30) = (   0.6995400   0.7900155   0.2448629  )
        31           O   tau(  31) = (   0.1995400   0.2679949   0.2583698  )
        32           O   tau(  32) = (   0.8004600   0.7760462   0.7480958  )

     number of k points=    64  gaussian smearing, width (Ry)=  0.0007
                       cart. coord. in units 2pi/alat
        k(    1) = (   0.0000000   0.0000000   0.0000000), wk =   0.0092593
        k(    2) = (   0.0000000   0.0000000   0.1655960), wk =   0.0185185
        k(    3) = (   0.0000000   0.0000000   0.3311920), wk =   0.0185185
        k(    4) = (   0.0000000   0.0000000  -0.4967880), wk =   0.0092593
        k(    5) = (   0.0000000   0.1596361   0.0000000), wk =   0.0185185
        k(    6) = (   0.0000000   0.1596361   0.1655960), wk =   0.0370370
        k(    7) = (   0.0000000   0.1596361   0.3311920), wk =   0.0370370
        k(    8) = (   0.0000000   0.1596361  -0.4967880), wk =   0.0185185
        k(    9) = (   0.0000000   0.3192722   0.0000000), wk =   0.0185185
        k(   10) = (   0.0000000   0.3192722   0.1655960), wk =   0.0370370
        k(   11) = (   0.0000000   0.3192722   0.3311920), wk =   0.0370370
        k(   12) = (   0.0000000   0.3192722  -0.4967880), wk =   0.0185185
        k(   13) = (   0.0000000  -0.4789084   0.0000000), wk =   0.0092593
        k(   14) = (   0.0000000  -0.4789084   0.1655960), wk =   0.0185185
        k(   15) = (   0.0000000  -0.4789084   0.3311920), wk =   0.0185185
        k(   16) = (   0.0000000  -0.4789084  -0.4967880), wk =   0.0092593
        k(   17) = (   0.1666667   0.0000000   0.0000000), wk =   0.0185185
        k(   18) = (   0.1666667   0.0000000   0.1655960), wk =   0.0370370
        k(   19) = (   0.1666667   0.0000000   0.3311920), wk =   0.0370370
        k(   20) = (   0.1666667   0.0000000  -0.4967880), wk =   0.0185185
        k(   21) = (   0.1666667   0.1596361   0.0000000), wk =   0.0370370
        k(   22) = (   0.1666667   0.1596361   0.1655960), wk =   0.0740741
        k(   23) = (   0.1666667   0.1596361   0.3311920), wk =   0.0740741
        k(   24) = (   0.1666667   0.1596361  -0.4967880), wk =   0.0370370
        k(   25) = (   0.1666667   0.3192722   0.0000000), wk =   0.0370370
        k(   26) = (   0.1666667   0.3192722   0.1655960), wk =   0.0740741
        k(   27) = (   0.1666667   0.3192722   0.3311920), wk =   0.0740741
        k(   28) = (   0.1666667   0.3192722  -0.4967880), wk =   0.0370370
        k(   29) = (   0.1666667  -0.4789084   0.0000000), wk =   0.0185185
        k(   30) = (   0.1666667  -0.4789084   0.1655960), wk =   0.0370370
        k(   31) = (   0.1666667  -0.4789084   0.3311920), wk =   0.0370370
        k(   32) = (   0.1666667  -0.4789084  -0.4967880), wk =   0.0185185
        k(   33) = (   0.3333333   0.0000000   0.0000000), wk =   0.0185185
        k(   34) = (   0.3333333   0.0000000   0.1655960), wk =   0.0370370
        k(   35) = (   0.3333333   0.0000000   0.3311920), wk =   0.0370370
        k(   36) = (   0.3333333   0.0000000  -0.4967880), wk =   0.0185185
        k(   37) = (   0.3333333   0.1596361   0.0000000), wk =   0.0370370
        k(   38) = (   0.3333333   0.1596361   0.1655960), wk =   0.0740741
        k(   39) = (   0.3333333   0.1596361   0.3311920), wk =   0.0740741
        k(   40) = (   0.3333333   0.1596361  -0.4967880), wk =   0.0370370
        k(   41) = (   0.3333333   0.3192722   0.0000000), wk =   0.0370370
        k(   42) = (   0.3333333   0.3192722   0.1655960), wk =   0.0740741
        k(   43) = (   0.3333333   0.3192722   0.3311920), wk =   0.0740741
        k(   44) = (   0.3333333   0.3192722  -0.4967880), wk =   0.0370370
        k(   45) = (   0.3333333  -0.4789084   0.0000000), wk =   0.0185185
        k(   46) = (   0.3333333  -0.4789084   0.1655960), wk =   0.0370370
        k(   47) = (   0.3333333  -0.4789084   0.3311920), wk =   0.0370370
        k(   48) = (   0.3333333  -0.4789084  -0.4967880), wk =   0.0185185
        k(   49) = (  -0.5000000   0.0000000   0.0000000), wk =   0.0092593
        k(   50) = (  -0.5000000   0.0000000   0.1655960), wk =   0.0185185
        k(   51) = (  -0.5000000   0.0000000   0.3311920), wk =   0.0185185
        k(   52) = (  -0.5000000   0.0000000  -0.4967880), wk =   0.0092593
        k(   53) = (  -0.5000000   0.1596361   0.0000000), wk =   0.0185185
        k(   54) = (  -0.5000000   0.1596361   0.1655960), wk =   0.0370370
        k(   55) = (  -0.5000000   0.1596361   0.3311920), wk =   0.0370370
        k(   56) = (  -0.5000000   0.1596361  -0.4967880), wk =   0.0185185
        k(   57) = (  -0.5000000   0.3192722   0.0000000), wk =   0.0185185
        k(   58) = (  -0.5000000   0.3192722   0.1655960), wk =   0.0370370
        k(   59) = (  -0.5000000   0.3192722   0.3311920), wk =   0.0370370
        k(   60) = (  -0.5000000   0.3192722  -0.4967880), wk =   0.0185185
        k(   61) = (  -0.5000000  -0.4789084   0.0000000), wk =   0.0092593
        k(   62) = (  -0.5000000  -0.4789084   0.1655960), wk =   0.0185185
        k(   63) = (  -0.5000000  -0.4789084   0.3311920), wk =   0.0185185
        k(   64) = (  -0.5000000  -0.4789084  -0.4967880), wk =   0.0092593

     Initial potential from superposition of free atoms

     starting charge  367.99656, renormalised to  368.52000
     Starting wfc are  232 randomized atomic wfcs

     Self-consistent Calculation

     iteration #  1     ecut=   120.00 Ry     beta= 0.70
     Davidson diagonalization with overlap
     ethr =  1.00E-02,  avg # of iterations =  5.0

     total energy              =   -6253.53941272 Ry
     Harris-Foulkes estimate   =   -6264.25025999 Ry
     estimated scf accuracy    <      13.50566403 Ry

[...]

     total energy              =   -6260.72265158 Ry
     Harris-Foulkes estimate   =   -6260.72265159 Ry
     estimated scf accuracy    <       0.00000002 Ry

     iteration # 13     ecut=   120.00 Ry     beta= 0.70
     Davidson diagonalization with overlap
     ethr =  6.40E-12,  avg # of iterations =  2.3

     End of self-consistent calculation

          k = 0.0000 0.0000 0.0000 ( 61575 PWs)   bands (ev):

   -65.8365 -65.8360 -65.8356 -65.8355 -65.8351 -65.8349 -65.8346 -65.8340
   -30.2760 -30.2685 -30.2675 -30.2597 -30.2318 -30.2232 -30.2193 -30.2104
   -30.2100 -30.1981 -30.1940 -30.1848 -30.1785 -30.1737 -30.1684 -30.1489
   -30.1134 -30.1119 -30.1056 -30.1026 -30.0916 -30.0845 -30.0831 -30.0762
   -19.9876 -19.9874 -19.9870 -19.9869 -19.9863 -19.9861 -19.9856 -19.9855
   -19.9734 -19.9730 -19.9729 -19.9723 -19.9723 -19.9721 -19.9719 -19.9713
   -19.9692 -19.9690 -19.9681 -19.9679 -19.9674 -19.9667 -19.9661 -19.9657
   -19.9656 -19.9649 -19.9648 -19.9643 -19.9634 -19.9630 -19.9630 -19.9626
   -19.9547 -19.9545 -19.9543 -19.9542 -19.9515 -19.9513 -19.9510 -19.9509
   -19.9390 -19.9389 -19.9378 -19.9378 -19.9333 -19.9333 -19.9323 -19.9323
   -19.9289 -19.9288 -19.9277 -19.9276 -19.9250 -19.9249 -19.9238 -19.9237
    -9.7430  -9.4188  -9.2960  -9.2884  -8.9877  -8.9489  -8.8796  -8.7637
    -8.7413  -8.6690  -8.6232  -8.6173  -7.7207  -7.6381  -7.6135  -7.5812
    -7.5738  -7.5647  -7.5615  -7.5131  -7.4752  -7.4474  -7.4381  -7.4273
     1.5426   1.5569   1.6003   1.6024   1.6321   1.6385   1.6883   1.8234
     1.8361   1.9138   1.9381   2.1426   2.6001   2.6983   2.7313   2.7778
     2.8744   2.9532   4.3005   4.3942   4.5486   4.7584   4.8346   4.9448
     4.9935   5.0091   5.0256   5.0282   5.2767   5.3243   5.4074   5.5599
     5.6856   5.7346   5.7587   5.7654   5.8475   5.8588   5.9475   5.9851
     6.0028   6.0204   6.0437   6.0760   6.1360   6.1646   6.2008   6.2990
     6.3329   6.4282   6.4709   6.6902   6.7147   6.9264   6.9573   7.0258
     7.0291   7.1154   7.1361   7.1386   7.1460   7.2194   7.3762   7.4193
     7.4987   7.5368   7.8986   7.9276   8.0914   8.1581   8.2900   8.3408
     9.9297   9.9634  10.3589  10.3681  10.4257  10.4406  12.3641  12.4802
    12.5920  12.6287  12.7343  12.7607  12.7765  12.8697  12.9499  12.9522
    13.4553  13.4713  13.5147  13.5812  13.8167  13.9084  14.2886  14.2929
    14.7992  14.8041  15.0708  15.1016  15.6448  15.6875  15.8391  16.1524
    16.2767  16.9494  17.0767  17.2365  17.8016

[...]

          k = 0.3333-0.4789-0.4968 ( 61536 PWs)   bands (ev):

[...]

          k =-0.5000 0.0000 0.0000 ( 61576 PWs)   bands (ev):

[...]

          k =-0.5000-0.4789-0.4968 ( 61616 PWs)   bands (ev):

   -65.8353 -65.8353 -65.8353 -65.8353 -65.8353 -65.8353 -65.8353 -65.8353
   -30.2379 -30.2379 -30.2379 -30.2379 -30.2369 -30.2369 -30.2369 -30.2369
   -30.1641 -30.1641 -30.1641 -30.1640 -30.1614 -30.1614 -30.1614 -30.1614
   -30.1247 -30.1247 -30.1247 -30.1247 -30.1220 -30.1220 -30.1220 -30.1220
   -19.9865 -19.9865 -19.9865 -19.9865 -19.9865 -19.9865 -19.9865 -19.9865
   -19.9725 -19.9725 -19.9725 -19.9725 -19.9723 -19.9723 -19.9723 -19.9723
   -19.9673 -19.9673 -19.9673 -19.9673 -19.9671 -19.9671 -19.9671 -19.9671
   -19.9646 -19.9646 -19.9645 -19.9645 -19.9642 -19.9642 -19.9642 -19.9642
   -19.9529 -19.9529 -19.9529 -19.9529 -19.9526 -19.9526 -19.9526 -19.9526
   -19.9358 -19.9357 -19.9357 -19.9357 -19.9357 -19.9357 -19.9357 -19.9357
   -19.9265 -19.9264 -19.9264 -19.9264 -19.9264 -19.9263 -19.9263 -19.9263
    -8.7509  -8.7509  -8.7509  -8.7509  -8.7181  -8.7181  -8.7180  -8.7180
    -8.2145  -8.2145  -8.2144  -8.2144  -8.1626  -8.1626  -8.1626  -8.1626
    -8.1335  -8.1335  -8.1335  -8.1335  -8.0886  -8.0886  -8.0885  -8.0885
     3.0763   3.0763   3.0763   3.0763   3.1801   3.1801   3.1801   3.1801
     3.3593   3.3593   3.3593   3.3593   3.4912   3.4912   3.4912   3.4912
     3.5559   3.5559   3.5559   3.5559   3.7656   3.7656   3.7657   3.7657
     4.3464   4.3464   4.3464   4.3464   4.3854   4.3854   4.3855   4.3855
     4.5532   4.5532   4.5532   4.5532   4.6393   4.6393   4.6393   4.6393
     4.7214   4.7214   4.7214   4.7214   4.8135   4.8135   4.8135   4.8136
     7.2498   7.2498   7.2499   7.2499   7.4422   7.4422   7.4423   7.4423
     7.5122   7.5122   7.5122   7.5122   7.5825   7.5825   7.5825   7.5825
     7.7260   7.7260   7.7260   7.7260   7.8150   7.8150   7.8151   7.8151
    12.1361  12.1361  12.1361  12.1361  12.1664  12.1664  12.1664  12.1664
    12.4168  12.4168  12.4168  12.4168  12.6151  12.6151  12.6152  12.6152
    12.7765  12.7765  12.7765  12.7765  12.9046  12.9046  12.9046  12.9046
    17.2034  17.2034  17.2034  17.2034  17.3139  17.3139  17.3139  17.3139
    17.5548  17.5548  17.5548  17.5548  17.6548

     the Fermi energy is    10.2606 ev

!    total energy              =   -6260.72265158 Ry
     Harris-Foulkes estimate   =   -6260.72265158 Ry
     estimated scf accuracy    <          1.8E-09 Ry

     The total energy is the sum of the following terms:

     one-electron contribution =   -4665.39210753 Ry
     hartree contribution      =    2573.63740204 Ry
     xc contribution           =    -966.23354529 Ry
     ewald contribution        =   -3202.73438178 Ry
     smearing contrib. (-TS)   =      -0.00001902 Ry

     convergence has been achieved in  13 iterations

     Writing output data file Landau_35.save

     General routines

     Parallel routines

   This run was terminated on:  15: 9:28  28Aug2019

   JOB DONE.