     Program PWSCF v.6.2 (svn rev. 14038) starts on 17Sep2019 at 13:12:39

     K-points division:     npool     =      40
     Reading input from scf.in

     Current dimensions of program PWSCF are:
     Max number of different atomic species (ntypx) = 10
     Max number of k-points (npk) =  40000
     Max angular momentum in pseudopotentials (lmaxx) =  3

     Subspace diagonalization in iterative solution of the eigenvalue problem:
     a serial algorithm will be used

     bravais-lattice index     =            0
     lattice parameter (alat)  =      13.8396  a.u.
     unit-cell volume          =    2804.5887 (a.u.)^3
     number of atoms/cell      =           32
     number of atomic types    =            2
     number of electrons       =       368.68
     number of Kohn-Sham states=          221
     kinetic-energy cutoff     =     120.0000  Ry
     charge density cutoff     =     480.0000  Ry
     convergence threshold     =      1.0E-08
     mixing beta               =       0.7000
     number of iterations used =            8  plain     mixing
     Exchange-correlation      = SLA PW NOGX NOGC ( 1  4  0  0 0 0)

     celldm(1)=  13.839581  celldm(2)=   0.000000  celldm(3)=   0.000000
     celldm(4)=   0.000000  celldm(5)=   0.000000  celldm(6)=   0.000000

     crystal axes: (cart. coord. in units of alat)
               a(1) = (   1.000000   0.000000   0.000000 )
               a(2) = (   0.000000   1.058036   0.000000 )
               a(3) = (   0.000000   0.000000   1.000000 )

     reciprocal axes: (cart. coord. in units 2 pi/alat)
               b(1) = (  1.000000  0.000000  0.000000 )
               b(2) = (  0.000000  0.945148  0.000000 )
               b(3) = (  0.000000  0.000000  1.000000 )

     PseudoPot. # 1 for W  read from file:
     /cluster/scratch/mnoe/QE/pps/W_ONCV_LDA-4.0.upf
     MD5 check sum: ba0307d5d4cd419d6f1d13dc49d7c13a
     Pseudo is Norm-conserving + core correction, Zval = 28.0
     Generated using ONCVPSP code by D. R. Hamann
     Using radial grid of 1380 points,  8 beta functions with:
                l(1) =   0
                l(2) =   0
                l(3) =   1
                l(4) =   1
                l(5) =   2
                l(6) =   2
                l(7) =   3
                l(8) =   3

     PseudoPot. # 2 for O  read from file:
     /cluster/scratch/mnoe/QE/pps/O_ONCV_LDA-3.0.upf
     MD5 check sum: ca1549d10c4e927e51167f6fca52ae32
     Pseudo is Norm-conserving + core correction, Zval =  6.0
     Generated using ONCVPSP code by D. R. Hamann
     Using radial grid of  926 points,  5 beta functions with:
                l(1) =   0
                l(2) =   0
                l(3) =   1
                l(4) =   1
                l(5) =   2

     atomic species   valence    mass     pseudopotential
        W             28.00   183.84000     W ( 1.00)
        O              6.00    15.99940     O ( 1.00)

      8 Sym. Ops. (no inversion) found ( 4 have fractional translation)

   Cartesian axes

     site n.     atom                  positions (alat units)
         1           W   tau(   1) = (   0.2517900   0.2982179   0.2500500  )
         2           W   tau(   2) = (  -0.2500500   0.7598178  -0.7482101  )
         3           W   tau(   3) = (   0.2482100   0.2307999   0.7500500  )
         4           W   tau(   4) = (   0.7500500   0.8272358   0.7517900  )
         5           W   tau(   5) = (   0.7482100   0.2982179   0.7499500  )
         6           W   tau(   6) = (   0.2500500   0.7598178   0.7482100  )
         7           W   tau(   7) = (  -0.2482101   0.2307999  -0.7500500  )
         8           W   tau(   8) = (   0.2499500   0.8272358   0.2482100  )
         9           O   tau(   9) = (   0.2519800   0.0088029   0.2514400  )
        10           O   tau(  10) = (  -0.2514399   1.0492329  -0.7480200  )
        11           O   tau(  11) = (   0.2480200   0.5202150   0.7514400  )
        12           O   tau(  12) = (   0.7514400   0.5378207   0.7519800  )
        13           O   tau(  13) = (   0.7480200   0.0088029   0.7485600  )
        14           O   tau(  14) = (   0.2514400   1.0492329   0.7480200  )
        15           O   tau(  15) = (  -0.2480200   0.5202150  -0.7514400  )
        16           O   tau(  16) = (   0.2485600   0.5378207   0.2480200  )
        17           O   tau(  17) = (   0.4993700   0.2667625   0.6995400  )
        18           O   tau(  18) = (   0.4998700   0.7920772   0.8004600  )
        19           O   tau(  19) = (  -0.9993700   0.2622553   1.1995400  )
        20           O   tau(  20) = (   0.0001301   0.7949762   0.3004600  )
        21           O   tau(  21) = (   0.5006300   0.2667625   0.3004600  )
        22           O   tau(  22) = (   0.5001300   0.7920772   1.1995400  )
        23           O   tau(  23) = (  -0.0006300   0.2622553   0.8004600  )
        24           O   tau(  24) = (  -1.0001300   0.7949762   0.6995400  )
        25           O   tau(  25) = (   0.6995400   0.2630594   2.0001300  )
        26           O   tau(  26) = (   0.3004600   0.7912731   0.4993700  )
        27           O   tau(  27) = (   0.8004600   0.2659585   0.5001300  )
        28           O   tau(  28) = (   0.1995400   0.7957803   1.9993700  )
        29           O   tau(  29) = (   0.3004600   0.2630594   0.9998700  )
        30           O   tau(  30) = (   0.6995400   0.7912731   0.5006300  )
        31           O   tau(  31) = (   0.1995400   0.2659585   0.4998700  )
        32           O   tau(  32) = (   0.8004600   0.7957803   1.0006300  )

     number of k points=    40  gaussian smearing, width (Ry)=  0.0007
                       cart. coord. in units 2pi/alat
        k(    1) = (   0.0000000   0.0000000   0.0000000), wk =   0.0092593
        k(    2) = (   0.0000000   0.0000000   0.1666667), wk =   0.0370370
        k(    3) = (   0.0000000   0.0000000   0.3333333), wk =   0.0370370
        k(    4) = (   0.0000000   0.0000000  -0.5000000), wk =   0.0185185
        k(    5) = (   0.0000000   0.1575246   0.0000000), wk =   0.0185185
        k(    6) = (   0.0000000   0.1575246   0.1666667), wk =   0.0740741
        k(    7) = (   0.0000000   0.1575246   0.3333333), wk =   0.0740741
        k(    8) = (   0.0000000   0.1575246  -0.5000000), wk =   0.0370370
        k(    9) = (   0.0000000   0.3150492   0.0000000), wk =   0.0185185
        k(   10) = (   0.0000000   0.3150492   0.1666667), wk =   0.0740741
        k(   11) = (   0.0000000   0.3150492   0.3333333), wk =   0.0740741
        k(   12) = (   0.0000000   0.3150492  -0.5000000), wk =   0.0370370
        k(   13) = (   0.0000000  -0.4725738   0.0000000), wk =   0.0092593
        k(   14) = (   0.0000000  -0.4725738   0.1666667), wk =   0.0370370
        k(   15) = (   0.0000000  -0.4725738   0.3333333), wk =   0.0370370
        k(   16) = (   0.0000000  -0.4725738  -0.5000000), wk =   0.0185185
        k(   17) = (   0.1666667   0.0000000   0.1666667), wk =   0.0370370
        k(   18) = (   0.1666667   0.0000000   0.3333333), wk =   0.0740741
        k(   19) = (   0.1666667   0.0000000  -0.5000000), wk =   0.0370370
        k(   20) = (   0.1666667   0.1575246   0.1666667), wk =   0.0740741
        k(   21) = (   0.1666667   0.1575246   0.3333333), wk =   0.1481481
        k(   22) = (   0.1666667   0.1575246  -0.5000000), wk =   0.0740741
        k(   23) = (   0.1666667   0.3150492   0.1666667), wk =   0.0740741
        k(   24) = (   0.1666667   0.3150492   0.3333333), wk =   0.1481481
        k(   25) = (   0.1666667   0.3150492  -0.5000000), wk =   0.0740741
        k(   26) = (   0.1666667  -0.4725738   0.1666667), wk =   0.0370370
        k(   27) = (   0.1666667  -0.4725738   0.3333333), wk =   0.0740741
        k(   28) = (   0.1666667  -0.4725738  -0.5000000), wk =   0.0370370
        k(   29) = (   0.3333333   0.0000000   0.3333333), wk =   0.0370370
        k(   30) = (   0.3333333   0.0000000  -0.5000000), wk =   0.0370370
        k(   31) = (   0.3333333   0.1575246   0.3333333), wk =   0.0740741
        k(   32) = (   0.3333333   0.1575246  -0.5000000), wk =   0.0740741
        k(   33) = (   0.3333333   0.3150492   0.3333333), wk =   0.0740741
        k(   34) = (   0.3333333   0.3150492  -0.5000000), wk =   0.0740741
        k(   35) = (   0.3333333  -0.4725738   0.3333333), wk =   0.0370370
        k(   36) = (   0.3333333  -0.4725738  -0.5000000), wk =   0.0370370
        k(   37) = (  -0.5000000   0.0000000  -0.5000000), wk =   0.0092593
        k(   38) = (  -0.5000000   0.1575246  -0.5000000), wk =   0.0185185
        k(   39) = (  -0.5000000   0.3150492  -0.5000000), wk =   0.0185185
        k(   40) = (  -0.5000000  -0.4725738  -0.5000000), wk =   0.0092593

     Initial potential from superposition of free atoms

     starting charge  367.99656, renormalised to  368.68000
     Starting wfc are  232 randomized atomic wfcs

     Self-consistent Calculation

     iteration #  1     ecut=   120.00 Ry     beta= 0.70
     Davidson diagonalization with overlap
     ethr =  1.00E-02,  avg # of iterations =  5.1

     total energy              =   -6253.37014073 Ry
     Harris-Foulkes estimate   =   -6264.22377412 Ry
     estimated scf accuracy    <      13.66319958 Ry

[...]

     total energy              =   -6260.62741558 Ry
     Harris-Foulkes estimate   =   -6260.62741563 Ry
     estimated scf accuracy    <       0.00000008 Ry

     iteration # 13     ecut=   120.00 Ry     beta= 0.70
     Davidson diagonalization with overlap
     ethr =  2.14E-11,  avg # of iterations =  2.6

     End of self-consistent calculation

          k = 0.0000 0.0000 0.0000 ( 62239 PWs)   bands (ev):

   -66.0145 -66.0141 -66.0135 -66.0135 -66.0131 -66.0131 -66.0125 -66.0121
   -30.4648 -30.4615 -30.4615 -30.4583 -30.4048 -30.4020 -30.4020 -30.3994
   -30.3541 -30.3537 -30.3505 -30.3503 -30.3485 -30.3485 -30.3451 -30.3451
   -30.2519 -30.2519 -30.2491 -30.2491 -30.2476 -30.2473 -30.2448 -30.2445
   -20.1677 -20.1675 -20.1674 -20.1672 -20.1623 -20.1620 -20.1620 -20.1617
   -20.1615 -20.1614 -20.1613 -20.1613 -20.1613 -20.1613 -20.1612 -20.1612
   -20.1548 -20.1547 -20.1546 -20.1545 -20.1536 -20.1536 -20.1535 -20.1535
   -20.1517 -20.1517 -20.1516 -20.1516 -20.1506 -20.1506 -20.1504 -20.1504
   -20.1390 -20.1389 -20.1386 -20.1386 -20.1385 -20.1385 -20.1383 -20.1382
   -20.1074 -20.1073 -20.1073 -20.1073 -20.1058 -20.1058 -20.1058 -20.1058
   -20.1013 -20.1013 -20.1012 -20.1012 -20.0998 -20.0998 -20.0998 -20.0997
    -9.9103  -9.6179  -9.4729  -9.4729  -9.1818  -9.1818  -9.0670  -8.9914
    -8.9793  -8.8543  -8.8192  -8.8192  -7.8485  -7.7885  -7.7885  -7.7365
    -7.7227  -7.7222  -7.6967  -7.6959  -7.5656  -7.5656  -7.5443  -7.5443
     1.2775   1.2780   1.3465   1.3466   1.3695   1.3695   1.4128   1.6579
     1.6579   1.6597   1.7143   1.9097   2.4474   2.5225   2.5984   2.5992
     2.7510   2.7510   4.1766   4.1766   4.4021   4.4022   4.8533   4.8557
     4.9191   4.9191   4.9459   4.9459   5.0599   5.0599   5.0858   5.4455
     5.4456   5.5533   5.5533   5.5635   5.5635   5.6001   5.6001   5.8364
     5.8364   5.9170   5.9171   5.9603   5.9759   6.0824   6.0830   6.1769
     6.1769   6.2851   6.2852   6.6032   6.6032   6.8218   6.8218   6.8574
     6.8576   6.9133   7.0459   7.0514   7.1185   7.1185   7.4511   7.4511
     7.4954   7.4954   7.8331   7.8474   8.0981   8.0981   8.1627   8.1640
     9.3589   9.3663  10.0572  10.0575  10.0936  10.0936  12.3344  12.3344
    12.3509  12.3509  12.4088  12.4088  12.5604  12.5620  12.9692  12.9763
    13.2990  13.3034  13.4760  13.4760  13.8412  14.2260  14.2260  14.2263
    14.2304  14.4293  14.4293  14.8650  15.5290  15.5346  15.5459  16.1495
    16.1495  16.8748  17.1101  17.1101  17.4312

[...]

          k = 0.3333-0.4726-0.5000 ( 62196 PWs)   bands (ev):

[...]

          k =-0.5000 0.0000-0.5000 ( 62308 PWs)   bands (ev):

[...]

          k =-0.5000-0.4726-0.5000 ( 62272 PWs)   bands (ev):

   -66.0133 -66.0133 -66.0133 -66.0133 -66.0133 -66.0133 -66.0133 -66.0133
   -30.4327 -30.4327 -30.4327 -30.4327 -30.4327 -30.4327 -30.4326 -30.4326
   -30.2996 -30.2996 -30.2996 -30.2995 -30.2995 -30.2995 -30.2995 -30.2995
   -30.2981 -30.2981 -30.2981 -30.2981 -30.2981 -30.2981 -30.2981 -30.2981
   -20.1649 -20.1649 -20.1649 -20.1649 -20.1649 -20.1649 -20.1649 -20.1649
   -20.1613 -20.1613 -20.1613 -20.1613 -20.1613 -20.1613 -20.1613 -20.1613
   -20.1527 -20.1527 -20.1527 -20.1527 -20.1527 -20.1527 -20.1527 -20.1527
   -20.1524 -20.1524 -20.1524 -20.1524 -20.1524 -20.1524 -20.1524 -20.1524
   -20.1385 -20.1385 -20.1385 -20.1385 -20.1385 -20.1385 -20.1385 -20.1385
   -20.1038 -20.1038 -20.1038 -20.1038 -20.1037 -20.1037 -20.1037 -20.1037
   -20.1036 -20.1036 -20.1036 -20.1036 -20.1036 -20.1036 -20.1036 -20.1035
    -8.8950  -8.8950  -8.8931  -8.8931  -8.8930  -8.8930  -8.8917  -8.8917
    -8.3714  -8.3714  -8.3678  -8.3677  -8.3677  -8.3677  -8.3655  -8.3655
    -8.3015  -8.3015  -8.3014  -8.3014  -8.3014  -8.3013  -8.2992  -8.2991
     3.0552   3.0552   3.0581   3.0581   3.0581   3.0581   3.0615   3.0615
     3.1959   3.1959   3.1993   3.1993   3.1993   3.1993   3.2032   3.2032
     3.4776   3.4777   3.4925   3.4925   3.4925   3.4925   3.5057   3.5057
     4.2001   4.2001   4.2024   4.2024   4.2024   4.2024   4.2036   4.2036
     4.4125   4.4125   4.4125   4.4125   4.4133   4.4133   4.4145   4.4145
     4.4975   4.4975   4.5021   4.5021   4.5021   4.5021   4.5046   4.5046
     7.2062   7.2063   7.2244   7.2244   7.2245   7.2245   7.2438   7.2438
     7.3597   7.3598   7.3624   7.3624   7.3624   7.3624   7.3645   7.3645
     7.6477   7.6477   7.6518   7.6518   7.6518   7.6518   7.6564   7.6564
    11.8969  11.8969  11.8982  11.8982  11.8982  11.8982  11.8997  11.8997
    12.3373  12.3373  12.3534  12.3534  12.3534  12.3534  12.3708  12.3708
    12.6054  12.6054  12.6128  12.6129  12.6129  12.6129  12.6194  12.6194
    17.1629  17.1630  17.1719  17.1720  17.1720  17.1720  17.1809  17.1810
    17.4107  17.4108  17.4125  17.4125  17.4128

     the Fermi energy is     9.9638 ev

!    total energy              =   -6260.62741560 Ry
     Harris-Foulkes estimate   =   -6260.62741560 Ry
     estimated scf accuracy    <          1.3E-09 Ry

     The total energy is the sum of the following terms:

     one-electron contribution =   -4722.86593273 Ry
     hartree contribution      =    2600.22509884 Ry
     xc contribution           =    -966.42291610 Ry
     ewald contribution        =   -3171.56365438 Ry
     smearing contrib. (-TS)   =      -0.00001122 Ry

     convergence has been achieved in  13 iterations

     Writing output data file Landau_2.save

     General routines

     Parallel routines

   This run was terminated on:  13:30: 3  17Sep2019

   JOB DONE.