     Program PWSCF v.6.2 (svn rev. 14038) starts on  5Mar2020 at  0: 9:57

     K-points division:     npool     =      64
     Reading input from rscf.in

     Current dimensions of program PWSCF are:
     Max number of different atomic species (ntypx) = 10
     Max number of k-points (npk) =  40000
     Max angular momentum in pseudopotentials (lmaxx) =  3

     Subspace diagonalization in iterative solution of the eigenvalue problem:
     a serial algorithm will be used

     Found symmetry operation: I + (  0.5000  0.0000 -0.5000)
     This is a supercell, fractional translations are disabled

     bravais-lattice index     =            0
     lattice parameter (alat)  =      13.8397  a.u.
     unit-cell volume          =    2804.9816 (a.u.)^3
     number of atoms/cell      =           32
     number of atomic types    =            2
     number of electrons       =       368.00
     number of Kohn-Sham states=          221
     kinetic-energy cutoff     =     120.0000  Ry
     charge density cutoff     =     480.0000  Ry
     convergence threshold     =      1.0E-08
     mixing beta               =       0.7000
     number of iterations used =            8  plain     mixing
     Exchange-correlation      = SLA PW NOGX NOGC ( 1  4  0  0 0 0)
     nstep                     =           50

     celldm(1)=  13.839685  celldm(2)=   0.000000  celldm(3)=   0.000000
     celldm(4)=   0.000000  celldm(5)=   0.000000  celldm(6)=   0.000000

     crystal axes: (cart. coord. in units of alat)
               a(1) = (   1.000000   0.000000   0.000000 )
               a(2) = (   0.000000   1.058160   0.000000 )
               a(3) = (   0.000000   0.000000   1.000000 )

     reciprocal axes: (cart. coord. in units 2 pi/alat)
               b(1) = (  1.000000  0.000000  0.000000 )
               b(2) = (  0.000000  0.945037  0.000000 )
               b(3) = (  0.000000  0.000000  1.000000 )

     PseudoPot. # 1 for W  read from file:
     /cluster/scratch/mnoe/QE/pps/W_ONCV_LDA-4.0.upf
     MD5 check sum: ba0307d5d4cd419d6f1d13dc49d7c13a
     Pseudo is Norm-conserving + core correction, Zval = 28.0
     Generated using ONCVPSP code by D. R. Hamann
     Using radial grid of 1380 points,  8 beta functions with:
                l(1) =   0
                l(2) =   0
                l(3) =   1
                l(4) =   1
                l(5) =   2
                l(6) =   2
                l(7) =   3
                l(8) =   3

     PseudoPot. # 2 for O  read from file:
     /cluster/scratch/mnoe/QE/pps/O_ONCV_LDA-3.0.upf
     MD5 check sum: a1bd6164e7280c17a38c229939bfbd54
     Pseudo is Norm-conserving + core correction, Zval =  6.0
     Generated using ONCVPSP code by D. R. Hamann
     Using radial grid of  926 points,  5 beta functions with:
                l(1) =   0
                l(2) =   0
                l(3) =   1
                l(4) =   1
                l(5) =   2

     atomic species   valence    mass     pseudopotential
        W             28.00   183.84000     W ( 1.00)
        O              6.00    15.99940     O ( 1.00)

      2 Sym. Ops., with inversion, found

   Cartesian axes

     site n.     atom                  positions (alat units)
         1           W   tau(   1) = (   0.2500000   0.2856191   0.0000000  )
         2           W   tau(   2) = (   0.7499999   0.7725409   0.0000000  )
         3           W   tau(   3) = (   0.2500000   0.2434609   0.5000000  )
         4           W   tau(   4) = (   0.7499999   0.8146993   0.5000000  )
         5           W   tau(   5) = (   0.7499999   0.2856191   0.5000000  )
         6           W   tau(   6) = (   0.2500000   0.7725409   0.5000000  )
         7           W   tau(   7) = (   0.7499999   0.2434609   0.0000000  )
         8           W   tau(   8) = (   0.2500000   0.8146993   0.0000000  )
         9           O   tau(   9) = (   0.2500000   0.0053621   0.0000000  )
        10           O   tau(  10) = (   0.7499999   1.0527980   0.0000000  )
        11           O   tau(  11) = (   0.2500000   0.5237180   0.5000000  )
        12           O   tau(  12) = (   0.7499999   0.5344422   0.5000000  )
        13           O   tau(  13) = (   0.7499999   0.0053621   0.5000000  )
        14           O   tau(  14) = (   0.2500000   1.0527980   0.5000000  )
        15           O   tau(  15) = (   0.7499999   0.5237180   0.0000000  )
        16           O   tau(  16) = (   0.2500000   0.5344422   0.0000000  )
        17           O   tau(  17) = (   0.5000000   0.2645400   0.4787343  )
        18           O   tau(  18) = (   0.5000000   0.7936201   0.5212657  )
        19           O   tau(  19) = (   0.0000000   0.2645400   0.9787344  )
        20           O   tau(  20) = (   0.0000000   0.7936201   0.0212656  )
        21           O   tau(  21) = (   0.5000000   0.2645400   0.0212656  )
        22           O   tau(  22) = (   0.5000000   0.7936201   0.9787344  )
        23           O   tau(  23) = (   0.0000000   0.2645400   0.5212657  )
        24           O   tau(  24) = (   0.0000000   0.7936201   0.4787343  )
        25           O   tau(  25) = (   0.7287343   0.2645400   0.7499999  )
        26           O   tau(  26) = (   0.2712656   0.7936201   0.2500000  )
        27           O   tau(  27) = (   0.7712658   0.2645400   0.2500000  )
        28           O   tau(  28) = (   0.2287344   0.7936201   0.7499999  )
        29           O   tau(  29) = (   0.2712656   0.2645400   0.7499999  )
        30           O   tau(  30) = (   0.7287343   0.7936201   0.2500000  )
        31           O   tau(  31) = (   0.2287344   0.2645400   0.2500000  )
        32           O   tau(  32) = (   0.7712658   0.7936201   0.7499999  )

     number of k points=   112  gaussian smearing, width (Ry)=  0.0007

     Number of k-points >= 100: set verbosity='high' to print them.

     Initial potential from superposition of free atoms

     starting charge  367.99656, renormalised to  368.00000
     Starting wfc are  232 randomized atomic wfcs

     Self-consistent Calculation

     iteration #  1     ecut=   120.00 Ry     beta= 0.70
     Davidson diagonalization with overlap
     ethr =  1.00E-02,  avg # of iterations =  5.4

     total energy              =   -6254.02638476 Ry
     Harris-Foulkes estimate   =   -6264.53626959 Ry
     estimated scf accuracy    <      13.34765211 Ry

[...]

     End of self-consistent calculation

     Number of k-points >= 100: set verbosity='high' to print the bands.

     the Fermi energy is     8.9238 ev

!    total energy              =   -6261.00604514 Ry
     Harris-Foulkes estimate   =   -6261.00604514 Ry
     estimated scf accuracy    <          2.3E-09 Ry

     The total energy is the sum of the following terms:

     one-electron contribution =   -4802.72131312 Ry
     hartree contribution      =    2638.23136355 Ry
     xc contribution           =    -966.56446126 Ry
     ewald contribution        =   -3129.95163431 Ry
     smearing contrib. (-TS)   =      -0.00000000 Ry

     convergence has been achieved in  14 iterations

     Forces acting on atoms (cartesian axes, Ry/au):

     atom    1 type  1   force =     0.00001886    0.06410785    0.00002386
     atom    2 type  1   force =    -0.00001886   -0.06410785   -0.00002386
     atom    3 type  1   force =     0.00004602   -0.06410935   -0.00001892
     atom    4 type  1   force =    -0.00004602    0.06410935    0.00001892
     atom    5 type  1   force =    -0.00004149    0.06417437   -0.00000278
     atom    6 type  1   force =     0.00004149   -0.06417437    0.00000278
     atom    7 type  1   force =    -0.00001285   -0.06418484    0.00000180
     atom    8 type  1   force =     0.00001285    0.06418484   -0.00000180
     atom    9 type  2   force =     0.00000088   -0.03166542    0.00000021
     atom   10 type  2   force =    -0.00000088    0.03166542   -0.00000021
     atom   11 type  2   force =     0.00000101    0.03166607   -0.00000016
     atom   12 type  2   force =    -0.00000101   -0.03166607    0.00000016
     atom   13 type  2   force =     0.00000034   -0.03166894   -0.00000015
     atom   14 type  2   force =    -0.00000034    0.03166894    0.00000015
     atom   15 type  2   force =     0.00000002    0.03166929    0.00000019
     atom   16 type  2   force =    -0.00000002   -0.03166929   -0.00000019
     atom   17 type  2   force =    -0.00000116    0.00000076   -0.01074336
     atom   18 type  2   force =     0.00000116   -0.00000076    0.01074336
     atom   19 type  2   force =     0.00000051    0.00000035   -0.01074356
     atom   20 type  2   force =    -0.00000051   -0.00000035    0.01074356
     atom   21 type  2   force =    -0.00000160   -0.00000052    0.01074326
     atom   22 type  2   force =     0.00000160    0.00000052   -0.01074326
     atom   23 type  2   force =     0.00000138   -0.00000027    0.01074308
     atom   24 type  2   force =    -0.00000138    0.00000027   -0.01074308
     atom   25 type  2   force =    -0.01074329   -0.00000022    0.00000057
     atom   26 type  2   force =     0.01074329    0.00000022   -0.00000057
     atom   27 type  2   force =     0.01074301   -0.00000029   -0.00000051
     atom   28 type  2   force =    -0.01074301    0.00000029    0.00000051
     atom   29 type  2   force =     0.01074231   -0.00000014   -0.00000029
     atom   30 type  2   force =    -0.01074231    0.00000014    0.00000029
     atom   31 type  2   force =    -0.01074275   -0.00000003    0.00000027
     atom   32 type  2   force =     0.01074275    0.00000003   -0.00000027

     Total force =     0.000000     Total SCF correction =     0.000000

     Computing stress (Cartesian axis) and pressure

          total   stress  (Ry/bohr**3)                   (kbar)     P=   84.58
   0.00114034   0.00000000  -0.00000000        167.75      0.00     -0.00
   0.00000000  -0.00055576  -0.00000000          0.00    -81.76     -0.00
  -0.00000000  -0.00000000   0.00114035         -0.00     -0.00    167.75

     BFGS Geometry Optimization

     number of scf cycles    =   1
     number of bfgs steps    =   0

     enthalpy new            =   -6261.0060451400 Ry

     new trust radius        =       0.3019772108 bohr
     new conv_thr            =       0.0000000100 Ry

     new unit-cell volume =   2925.96729 a.u.^3 (   433.58361 Ang^3 )
     density =      7.10315 g/cm^3

CELL_PARAMETERS (angstrom)
   7.532431561   0.000000041  -0.000000020
   0.000000043   7.641916700  -0.000000089
  -0.000000020  -0.000000085   7.532434540

ATOMIC_POSITIONS (crystal)
W        0.250000000   0.269920537   0.000000000    0   0   0
W        0.749999937   0.730079463  -0.000000000    0   0   0
W        0.250000000   0.230079482   0.500000000    0   0   0
W        0.749999937   0.769920629   0.500000000    0   0   0
W        0.749999937   0.269920537   0.500000000    0   0   0
W        0.250000000   0.730079463   0.500000000    0   0   0
W        0.749999937   0.230079482  -0.000000000    0   0   0
W        0.250000000   0.769920629  -0.000000000    0   0   0
O        0.250000000   0.005067335   0.000000000    0   0   0
O        0.749999937   0.994932604   0.000000000    0   0   0
[...]
O        0.749999937   0.494932696  -0.000000000    0   0   0
O        0.250000000   0.505067396  -0.000000000    0   0   0
O        0.500000000   0.250000000   0.478734348    0   0   0
O        0.500000000   0.750000044   0.521265750    0   0   0
O        0.000000000   0.250000000   0.978734381    0   0   0
O        0.000000000   0.750000044   0.021265557    0   0   0
O        0.500000000   0.250000000   0.021265557    0   0   0
O        0.500000000   0.750000044   0.978734381    0   0   0
O       -0.000000000   0.250000000   0.521265750    0   0   0
O        0.000000000   0.750000044   0.478734348    0   0   0
O        0.728734314   0.250000000   0.749999937    0   0   0
O        0.271265588   0.750000044   0.250000000    0   0   0
O        0.771265813   0.250000000   0.250000000    0   0   0
O        0.228734364   0.750000044   0.749999937    0   0   0
O        0.271265588   0.250000000   0.749999937    0   0   0
O        0.728734314   0.750000044   0.250000000    0   0   0
O        0.228734364   0.250000000   0.250000000    0   0   0
O        0.771265813   0.750000044   0.749999937    0   0   0

     Writing output data file Landau_30.save
     NEW-OLD atomic charge density approx. for the potential
     extrapolated charge  383.21627, renormalised to  368.00000

[...]

     enthalpy old            =   -6261.0060451400 Ry
     enthalpy new            =   -6261.0797486676 Ry

     CASE: enthalpy_new < enthalpy_old

[...]

     Threshold (ethr) on eigenvalues was too large:
     Diagonalizing with lowered threshold

     Davidson diagonalization with overlap
     ethr =  1.33E-08,  avg # of iterations =  3.0

[...]

     number of scf cycles    =   5
     number of bfgs steps    =   4

     enthalpy old            =   -6261.0864996954 Ry
     enthalpy new            =   -6261.0865052890 Ry

     CASE: enthalpy_new < enthalpy_old

     small trust_radius: resetting bfgs history

     new trust radius        =       0.0000153924 bohr
     new conv_thr            =            1.0E-10 Ry

     new unit-cell volume =   2881.89739 a.u.^3 (   427.05313 Ang^3 )
     density =      7.21177 g/cm^3

[...]

ATOMIC_POSITIONS (crystal)
W        0.250000000   0.269920537   0.000000000    0   0   0
W        0.749999937   0.730079463   0.000000000    0   0   0
W        0.250000000   0.230079482   0.500000000    0   0   0
W        0.749999937   0.769920629   0.500000000    0   0   0
W        0.749999937   0.269920537   0.500000000    0   0   0
W        0.250000000   0.730079463   0.500000000    0   0   0
W        0.749999937   0.230079482  -0.000000000    0   0   0
W        0.250000000   0.769920629  -0.000000000    0   0   0
O        0.250000000   0.005067335  -0.000000000    0   0   0
O        0.749999937   0.994932604  -0.000000000    0   0   0
O        0.250000000   0.494932696   0.500000000    0   0   0
O        0.749999937   0.505067396   0.500000000    0   0   0
O        0.749999937   0.005067335   0.500000000    0   0   0
O        0.250000000   0.994932604   0.500000000    0   0   0
O        0.749999937   0.494932696  -0.000000000    0   0   0
O        0.250000000   0.505067396  -0.000000000    0   0   0
O        0.500000000   0.250000000   0.478734348    0   0   0
O        0.500000000   0.750000044   0.521265750    0   0   0
O       -0.000000000   0.250000000   0.978734381    0   0   0
O       -0.000000000   0.750000044   0.021265557    0   0   0
O        0.500000000   0.250000000   0.021265557    0   0   0
O        0.500000000   0.750000044   0.978734381    0   0   0
O       -0.000000000   0.250000000   0.521265750    0   0   0
O       -0.000000000   0.750000044   0.478734348    0   0   0
O        0.728734314   0.250000000   0.749999937    0   0   0
O        0.271265588   0.750000044   0.250000000    0   0   0
O        0.771265813   0.250000000   0.250000000    0   0   0
O        0.228734364   0.750000044   0.749999937    0   0   0
O        0.271265588   0.250000000   0.749999937    0   0   0
O        0.728734314   0.750000044   0.250000000    0   0   0
O        0.228734364   0.250000000   0.250000000    0   0   0
O        0.771265813   0.750000044   0.749999937    0   0   0

     Writing output data file Landau_30.save
     NEW-OLD atomic charge density approx. for the potential
     extrapolated charge  367.99961, renormalised to  368.00000

[...]

     Threshold (ethr) on eigenvalues was too large:
     Diagonalizing with lowered threshold

     Davidson diagonalization with overlap
     ethr =  2.30E-12,  avg # of iterations =  3.0

[...]

     bfgs converged in   6 scf cycles and   5 bfgs steps
     (criteria: energy <  1.0E-07 Ry, force <  1.0E-07Ry/Bohr, cell <  5.0E-01kbar)

     End of BFGS Geometry Optimization

     Final enthalpy =   -6261.0865052880 Ry
Begin final coordinates
     new unit-cell volume =   2881.89739 a.u.^3 (   427.05313 Ang^3 )
     density =      7.21177 g/cm^3

CELL_PARAMETERS (angstrom)
   7.483565410  -0.000000070  -0.000000001
  -0.000000081   7.625437648  -0.000000051
  -0.000000001  -0.000000048   7.483565672

ATOMIC_POSITIONS (crystal)
W        0.250000000   0.269920537   0.000000000    0   0   0
W        0.749999937   0.730079463   0.000000000    0   0   0
W        0.250000000   0.230079482   0.500000000    0   0   0
W        0.749999937   0.769920629   0.500000000    0   0   0
W        0.749999937   0.269920537   0.500000000    0   0   0
W        0.250000000   0.730079463   0.500000000    0   0   0
W        0.749999937   0.230079482  -0.000000000    0   0   0
W        0.250000000   0.769920629  -0.000000000    0   0   0
O        0.250000000   0.005067335  -0.000000000    0   0   0
O        0.749999937   0.994932604  -0.000000000    0   0   0
O        0.250000000   0.494932696   0.500000000    0   0   0
O        0.749999937   0.505067396   0.500000000    0   0   0
O        0.749999937   0.005067335   0.500000000    0   0   0
O        0.250000000   0.994932604   0.500000000    0   0   0
O        0.749999937   0.494932696  -0.000000000    0   0   0
O        0.250000000   0.505067396  -0.000000000    0   0   0
O        0.500000000   0.250000000   0.478734348    0   0   0
O        0.500000000   0.750000044   0.521265750    0   0   0
O       -0.000000000   0.250000000   0.978734381    0   0   0
O       -0.000000000   0.750000044   0.021265557    0   0   0
O        0.500000000   0.250000000   0.021265557    0   0   0
O        0.500000000   0.750000044   0.978734381    0   0   0
O       -0.000000000   0.250000000   0.521265750    0   0   0
O       -0.000000000   0.750000044   0.478734348    0   0   0
O        0.728734314   0.250000000   0.749999937    0   0   0
O        0.271265588   0.750000044   0.250000000    0   0   0
O        0.771265813   0.250000000   0.250000000    0   0   0
O        0.228734364   0.750000044   0.749999937    0   0   0
O        0.271265588   0.250000000   0.749999937    0   0   0
O        0.728734314   0.750000044   0.250000000    0   0   0
O        0.228734364   0.250000000   0.250000000    0   0   0
O        0.771265813   0.750000044   0.749999937    0   0   0
End final coordinates

     A final scf calculation at the relaxed structure.
     The G-vectors are recalculated for the final unit cell
     Results may differ from those at the preceding step.

     bravais-lattice index     =            0
     lattice parameter (alat)  =      13.8397  a.u.
     unit-cell volume          =    2881.8974 (a.u.)^3
     number of atoms/cell      =           32
     number of atomic types    =            2
     number of electrons       =       368.00
     number of Kohn-Sham states=          221
     kinetic-energy cutoff     =     120.0000  Ry
     charge density cutoff     =     480.0000  Ry
     convergence threshold     =      1.0E-10
     mixing beta               =       0.7000
     number of iterations used =            8  plain     mixing
     Exchange-correlation      = SLA PW NOGX NOGC ( 1  4  0  0 0 0)

     celldm(1)=  13.839685  celldm(2)=   0.000000  celldm(3)=   0.000000
     celldm(4)=   0.000000  celldm(5)=   0.000000  celldm(6)=   0.000000

     crystal axes: (cart. coord. in units of alat)
               a(1) = (   1.021836  -0.000000  -0.000000 )
               a(2) = (  -0.000000   1.041208  -0.000000 )
               a(3) = (  -0.000000  -0.000000   1.021836 )

     reciprocal axes: (cart. coord. in units 2 pi/alat)
               b(1) = (  0.978631  0.000000  0.000000 )
               b(2) = (  0.000000  0.960423  0.000000 )
               b(3) = (  0.000000  0.000000  0.978631 )

     PseudoPot. # 1 for W  read from file:
     /cluster/scratch/mnoe/QE/pps/W_ONCV_LDA-4.0.upf
     MD5 check sum: ba0307d5d4cd419d6f1d13dc49d7c13a
     Pseudo is Norm-conserving + core correction, Zval = 28.0
     Generated using ONCVPSP code by D. R. Hamann
     Using radial grid of 1380 points,  8 beta functions with:
                l(1) =   0
                l(2) =   0
                l(3) =   1
                l(4) =   1
                l(5) =   2
                l(6) =   2
                l(7) =   3
                l(8) =   3

     PseudoPot. # 2 for O  read from file:
     /cluster/scratch/mnoe/QE/pps/O_ONCV_LDA-3.0.upf
     MD5 check sum: a1bd6164e7280c17a38c229939bfbd54
     Pseudo is Norm-conserving + core correction, Zval =  6.0
     Generated using ONCVPSP code by D. R. Hamann
     Using radial grid of  926 points,  5 beta functions with:
                l(1) =   0
                l(2) =   0
                l(3) =   1
                l(4) =   1
                l(5) =   2

     atomic species   valence    mass     pseudopotential
        W             28.00   183.84000     W ( 1.00)
        O              6.00    15.99940     O ( 1.00)

      2 Sym. Ops., with inversion, found

   Cartesian axes

     site n.     atom                  positions (alat units)
         1           W   tau(   1) = (   0.2554590   0.2810434  -0.0000000  )
         2           W   tau(   2) = (   0.7663769   0.7601644  -0.0000000  )
         3           W   tau(   3) = (   0.2554590   0.2395606   0.5109180  )
         4           W   tau(   4) = (   0.7663769   0.8016474   0.5109180  )
         5           W   tau(   5) = (   0.7663770   0.2810434   0.5109180  )
         6           W   tau(   6) = (   0.2554590   0.7601644   0.5109180  )
         7           W   tau(   7) = (   0.7663770   0.2395606  -0.0000000  )
         8           W   tau(   8) = (   0.2554590   0.8016474  -0.0000000  )
         9           O   tau(   9) = (   0.2554590   0.0052761  -0.0000000  )
        10           O   tau(  10) = (   0.7663769   1.0359316  -0.0000000  )
        11           O   tau(  11) = (   0.2554590   0.5153278   0.5109180  )
        12           O   tau(  12) = (   0.7663770   0.5258801   0.5109180  )
        13           O   tau(  13) = (   0.7663770   0.0052761   0.5109180  )
        14           O   tau(  14) = (   0.2554590   1.0359316   0.5109180  )
        15           O   tau(  15) = (   0.7663770   0.5153278  -0.0000000  )
        16           O   tau(  16) = (   0.2554590   0.5258801  -0.0000000  )
        17           O   tau(  17) = (   0.5109180   0.2603020   0.4891880  )
        18           O   tau(  18) = (   0.5109180   0.7809059   0.5326481  )
        19           O   tau(  19) = (  -0.0000000   0.2603020   1.0001061  )
        20           O   tau(  20) = (  -0.0000000   0.7809059   0.0217299  )
        21           O   tau(  21) = (   0.5109180   0.2603020   0.0217299  )
        22           O   tau(  22) = (   0.5109180   0.7809059   1.0001061  )
        23           O   tau(  23) = (  -0.0000000   0.2603020   0.5326481  )
        24           O   tau(  24) = (  -0.0000000   0.7809059   0.4891880  )
        25           O   tau(  25) = (   0.7446470   0.2603019   0.7663770  )
        26           O   tau(  26) = (   0.2771889   0.7809059   0.2554590  )
        27           O   tau(  27) = (   0.7881072   0.2603019   0.2554590  )
        28           O   tau(  28) = (   0.2337290   0.7809059   0.7663770  )
        29           O   tau(  29) = (   0.2771889   0.2603020   0.7663770  )
        30           O   tau(  30) = (   0.7446470   0.7809059   0.2554590  )
        31           O   tau(  31) = (   0.2337290   0.2603020   0.2554590  )
        32           O   tau(  32) = (   0.7881072   0.7809059   0.7663770  )

     number of k points=   112  gaussian smearing, width (Ry)=  0.0007

     Number of k-points >= 100: set verbosity='high' to print them.

     Initial potential from superposition of free atoms

     starting charge  367.99656, renormalised to  368.00000
     Starting wfc are  232 randomized atomic wfcs

     Writing output data file Landau_30.save

     Self-consistent Calculation

[...]

     total energy              =   -6261.08750116 Ry
     Harris-Foulkes estimate   =   -6261.08750116 Ry
     estimated scf accuracy    <          1.6E-10 Ry

     iteration # 17     ecut=   120.00 Ry     beta= 0.70
     Davidson diagonalization with overlap
     ethr =  1.00E-13,  avg # of iterations =  2.0

     End of self-consistent calculation

     Number of k-points >= 100: set verbosity='high' to print the bands.

     the Fermi energy is     8.4612 ev

!    total energy              =   -6261.08750116 Ry
     Harris-Foulkes estimate   =   -6261.08750116 Ry
     estimated scf accuracy    <          2.9E-11 Ry

     The total energy is the sum of the following terms:

     one-electron contribution =   -4839.91673002 Ry
     hartree contribution      =    2650.43894797 Ry
     xc contribution           =    -965.67761894 Ry
     ewald contribution        =   -3105.93210017 Ry
     smearing contrib. (-TS)   =      -0.00000000 Ry

     convergence has been achieved in  17 iterations

     Forces acting on atoms (cartesian axes, Ry/au):

     atom    1 type  1   force =     0.00000467    0.02074998   -0.00000351
     atom    2 type  1   force =    -0.00000467   -0.02074998    0.00000351
     atom    3 type  1   force =    -0.00000280   -0.02075653    0.00000580
     atom    4 type  1   force =     0.00000280    0.02075653   -0.00000580
     atom    5 type  1   force =     0.00000512    0.02074759   -0.00000082
     atom    6 type  1   force =    -0.00000512   -0.02074759    0.00000082
     atom    7 type  1   force =    -0.00000649   -0.02075715    0.00000080
     atom    8 type  1   force =     0.00000649    0.02075715   -0.00000080
     atom    9 type  2   force =     0.00000011   -0.01133375    0.00000003
     atom   10 type  2   force =    -0.00000011    0.01133375   -0.00000003
     atom   11 type  2   force =     0.00000009    0.01133386   -0.00000003
     atom   12 type  2   force =    -0.00000009   -0.01133386    0.00000003
     atom   13 type  2   force =     0.00000001   -0.01133333    0.00000002
     atom   14 type  2   force =    -0.00000001    0.01133333   -0.00000002
     atom   15 type  2   force =    -0.00000004    0.01133358   -0.00000002
     atom   16 type  2   force =     0.00000004   -0.01133358    0.00000002
     atom   17 type  2   force =     0.00000008    0.00000003   -0.00130643
     atom   18 type  2   force =    -0.00000008   -0.00000003    0.00130643
     atom   19 type  2   force =    -0.00000007    0.00000000   -0.00130647
     atom   20 type  2   force =     0.00000007   -0.00000000    0.00130647
     atom   21 type  2   force =     0.00000017   -0.00000003    0.00130665
     atom   22 type  2   force =    -0.00000017    0.00000003   -0.00130665
     atom   23 type  2   force =     0.00000006    0.00000010    0.00130632
     atom   24 type  2   force =    -0.00000006   -0.00000010   -0.00130632
     atom   25 type  2   force =    -0.00130654   -0.00000007    0.00000030
     atom   26 type  2   force =     0.00130654    0.00000007   -0.00000030
     atom   27 type  2   force =     0.00130618   -0.00000004   -0.00000034
     atom   28 type  2   force =    -0.00130618    0.00000004    0.00000034
     atom   29 type  2   force =     0.00130649    0.00000003    0.00000030
     atom   30 type  2   force =    -0.00130649   -0.00000003   -0.00000030
     atom   31 type  2   force =    -0.00130625    0.00000003   -0.00000037
     atom   32 type  2   force =     0.00130625   -0.00000003    0.00000037

     Total force =     0.000000     Total SCF correction =     0.000000

     Computing stress (Cartesian axis) and pressure

          total   stress  (Ry/bohr**3)                   (kbar)     P=    1.51
   0.00001464   0.00000000   0.00000000          2.15      0.00      0.00
   0.00000000   0.00000160   0.00000000          0.00      0.24      0.00
   0.00000000   0.00000000   0.00001465          0.00      0.00      2.16

     Writing output data file Landau_30.save

     General routines

     Parallel routines

   This run was terminated on:   4:18:15   5Mar2020

   JOB DONE.