     Program PWSCF v.6.2 (svn rev. 14038) starts on 25Mar2020 at 21: 8: 5

     K-points division:     npool     =      40
     Reading input from scf.in

     Current dimensions of program PWSCF are:
     Max number of different atomic species (ntypx) = 10
     Max number of k-points (npk) =  40000
     Max angular momentum in pseudopotentials (lmaxx) =  3

     Subspace diagonalization in iterative solution of the eigenvalue problem:
     a serial algorithm will be used

     bravais-lattice index     =            0
     lattice parameter (alat)  =      13.9603  a.u.
     unit-cell volume          =    2835.1578 (a.u.)^3
     number of atoms/cell      =           32
     number of atomic types    =            2
     number of electrons       =       368.60
     number of Kohn-Sham states=          221
     kinetic-energy cutoff     =     120.0000  Ry
     charge density cutoff     =     480.0000  Ry
     convergence threshold     =      1.0E-08
     mixing beta               =       0.7000
     number of iterations used =            8  plain     mixing
     Exchange-correlation      = SLA PW NOGX NOGC ( 1  4  0  0 0 0)

     celldm(1)=  13.960332  celldm(2)=   0.000000  celldm(3)=   0.000000
     celldm(4)=   0.000000  celldm(5)=   0.000000  celldm(6)=   0.000000

     crystal axes: (cart. coord. in units of alat)
               a(1) = (   1.000000   0.000000   0.000000 )
               a(2) = (   0.000000   1.042188   0.000000 )
               a(3) = (   0.000000   0.000000   0.999871 )

     reciprocal axes: (cart. coord. in units 2 pi/alat)
               b(1) = (  1.000000  0.000000  0.000000 )
               b(2) = (  0.000000  0.959520  0.000000 )
               b(3) = (  0.000000  0.000000  1.000129 )

     PseudoPot. # 1 for W  read from file:
     /cluster/scratch/mnoe/QE/pps/W_ONCV_LDA-4.0.upf
     MD5 check sum: ba0307d5d4cd419d6f1d13dc49d7c13a
     Pseudo is Norm-conserving + core correction, Zval = 28.0
     Generated using ONCVPSP code by D. R. Hamann
     Using radial grid of 1380 points,  8 beta functions with:
                l(1) =   0
                l(2) =   0
                l(3) =   1
                l(4) =   1
                l(5) =   2
                l(6) =   2
                l(7) =   3
                l(8) =   3

     PseudoPot. # 2 for O  read from file:
     /cluster/scratch/mnoe/QE/pps/O_ONCV_LDA-3.0.upf
     MD5 check sum: a1bd6164e7280c17a38c229939bfbd54
     Pseudo is Norm-conserving + core correction, Zval =  6.0
     Generated using ONCVPSP code by D. R. Hamann
     Using radial grid of  926 points,  5 beta functions with:
                l(1) =   0
                l(2) =   0
                l(3) =   1
                l(4) =   1
                l(5) =   2

     atomic species   valence    mass     pseudopotential
        W             28.00   183.84000     W ( 1.00)
        O              6.00    15.99940     O ( 1.00)

      4 Sym. Ops. (no inversion) found ( 3 have fractional translation)

   Cartesian axes

     site n.     atom                  positions (alat units)
         1           W   tau(   1) = (   0.2462284   0.2897126  -0.0016806  )
         2           W   tau(   2) = (   0.7485377   0.7524755  -0.0038611  )
         3           W   tau(   3) = (   0.2537716   0.2313814   0.4982548  )
         4           W   tau(   4) = (   0.7514622   0.8108067   0.4960743  )
         5           W   tau(   5) = (   0.7537716   0.2897126   0.5016160  )
         6           W   tau(   6) = (   0.2514623   0.7524755   0.5037965  )
         7           W   tau(   7) = (   0.7462284   0.2313814   0.0016806  )
         8           W   tau(   8) = (   0.2485377   0.8108067   0.0038611  )
         9           O   tau(   9) = (   0.2470564   0.0075708  -0.0047730  )
        10           O   tau(  10) = (   0.7513168  -0.0075708  -0.0054507  )
        11           O   tau(  11) = (   0.2529436   0.5135233   0.4951624  )
        12           O   tau(  12) = (   0.7486832   0.5286649   0.4944847  )
        13           O   tau(  13) = (   0.7529436   0.0075708   0.5047084  )
        14           O   tau(  14) = (   0.2486832  -0.0075708   0.5053861  )
        15           O   tau(  15) = (   0.7470564   0.5135233   0.0047730  )
        16           O   tau(  16) = (   0.2513168   0.5286649   0.0054507  )
        17           O   tau(  17) = (   0.5014647   0.2570770   0.4589559  )
        18           O   tau(  18) = (   0.5008331   0.7827257   0.5409150  )
        19           O   tau(  19) = (  -0.0014647   0.2640171   0.9588913  )
        20           O   tau(  20) = (  -0.0008331   0.7805565   0.0409795  )
        21           O   tau(  21) = (   0.4985353   0.2570770   0.0409795  )
        22           O   tau(  22) = (   0.4991669   0.7827257   0.9588913  )
        23           O   tau(  23) = (   0.0014647   0.2640171   0.5409150  )
        24           O   tau(  24) = (   0.0008331   0.7805565   0.4589559  )
        25           O   tau(  25) = (   0.7090152   0.2655156   0.7501823  )
        26           O   tau(  26) = (   0.2909848   0.7876036   0.2512042  )
        27           O   tau(  27) = (   0.7909849   0.2555784   0.2502469  )
        28           O   tau(  28) = (   0.2090152   0.7756785   0.7511396  )
        29           O   tau(  29) = (   0.2909848   0.2655156   0.7496239  )
        30           O   tau(  30) = (   0.7090152   0.7876036   0.2487312  )
        31           O   tau(  31) = (   0.2090152   0.2555784   0.2496885  )
        32           O   tau(  32) = (   0.7909849   0.7756785   0.7486666  )

     number of k points=    64  gaussian smearing, width (Ry)=  0.0007
                       cart. coord. in units 2pi/alat
        k(    1) = (   0.0000000   0.0000000   0.0000000), wk =   0.0092593
        k(    2) = (   0.0000000   0.0000000   0.1666882), wk =   0.0185185
        k(    3) = (   0.0000000   0.0000000   0.3333764), wk =   0.0185185
        k(    4) = (   0.0000000   0.0000000  -0.5000646), wk =   0.0092593
        k(    5) = (   0.0000000   0.1599199   0.0000000), wk =   0.0185185
        k(    6) = (   0.0000000   0.1599199   0.1666882), wk =   0.0370370
        k(    7) = (   0.0000000   0.1599199   0.3333764), wk =   0.0370370
        k(    8) = (   0.0000000   0.1599199  -0.5000646), wk =   0.0185185
        k(    9) = (   0.0000000   0.3198399   0.0000000), wk =   0.0185185
        k(   10) = (   0.0000000   0.3198399   0.1666882), wk =   0.0370370
        k(   11) = (   0.0000000   0.3198399   0.3333764), wk =   0.0370370
        k(   12) = (   0.0000000   0.3198399  -0.5000646), wk =   0.0185185
        k(   13) = (   0.0000000  -0.4797598   0.0000000), wk =   0.0092593
        k(   14) = (   0.0000000  -0.4797598   0.1666882), wk =   0.0185185
        k(   15) = (   0.0000000  -0.4797598   0.3333764), wk =   0.0185185
        k(   16) = (   0.0000000  -0.4797598  -0.5000646), wk =   0.0092593
        k(   17) = (   0.1666667   0.0000000   0.0000000), wk =   0.0185185
        k(   18) = (   0.1666667   0.0000000   0.1666882), wk =   0.0370370
        k(   19) = (   0.1666667   0.0000000   0.3333764), wk =   0.0370370
        k(   20) = (   0.1666667   0.0000000  -0.5000646), wk =   0.0185185
        k(   21) = (   0.1666667   0.1599199   0.0000000), wk =   0.0370370
        k(   22) = (   0.1666667   0.1599199   0.1666882), wk =   0.0740741
        k(   23) = (   0.1666667   0.1599199   0.3333764), wk =   0.0740741
        k(   24) = (   0.1666667   0.1599199  -0.5000646), wk =   0.0370370
        k(   25) = (   0.1666667   0.3198399   0.0000000), wk =   0.0370370
        k(   26) = (   0.1666667   0.3198399   0.1666882), wk =   0.0740741
        k(   27) = (   0.1666667   0.3198399   0.3333764), wk =   0.0740741
        k(   28) = (   0.1666667   0.3198399  -0.5000646), wk =   0.0370370
        k(   29) = (   0.1666667  -0.4797598   0.0000000), wk =   0.0185185
        k(   30) = (   0.1666667  -0.4797598   0.1666882), wk =   0.0370370
        k(   31) = (   0.1666667  -0.4797598   0.3333764), wk =   0.0370370
        k(   32) = (   0.1666667  -0.4797598  -0.5000646), wk =   0.0185185
        k(   33) = (   0.3333333   0.0000000   0.0000000), wk =   0.0185185
        k(   34) = (   0.3333333   0.0000000   0.1666882), wk =   0.0370370
        k(   35) = (   0.3333333   0.0000000   0.3333764), wk =   0.0370370
        k(   36) = (   0.3333333   0.0000000  -0.5000646), wk =   0.0185185
        k(   37) = (   0.3333333   0.1599199   0.0000000), wk =   0.0370370
        k(   38) = (   0.3333333   0.1599199   0.1666882), wk =   0.0740741
        k(   39) = (   0.3333333   0.1599199   0.3333764), wk =   0.0740741
        k(   40) = (   0.3333333   0.1599199  -0.5000646), wk =   0.0370370
        k(   41) = (   0.3333333   0.3198399   0.0000000), wk =   0.0370370
        k(   42) = (   0.3333333   0.3198399   0.1666882), wk =   0.0740741
        k(   43) = (   0.3333333   0.3198399   0.3333764), wk =   0.0740741
        k(   44) = (   0.3333333   0.3198399  -0.5000646), wk =   0.0370370
        k(   45) = (   0.3333333  -0.4797598   0.0000000), wk =   0.0185185
        k(   46) = (   0.3333333  -0.4797598   0.1666882), wk =   0.0370370
        k(   47) = (   0.3333333  -0.4797598   0.3333764), wk =   0.0370370
        k(   48) = (   0.3333333  -0.4797598  -0.5000646), wk =   0.0185185
        k(   49) = (  -0.5000000   0.0000000   0.0000000), wk =   0.0092593
        k(   50) = (  -0.5000000   0.0000000   0.1666882), wk =   0.0185185
        k(   51) = (  -0.5000000   0.0000000   0.3333764), wk =   0.0185185
        k(   52) = (  -0.5000000   0.0000000  -0.5000646), wk =   0.0092593
        k(   53) = (  -0.5000000   0.1599199   0.0000000), wk =   0.0185185
        k(   54) = (  -0.5000000   0.1599199   0.1666882), wk =   0.0370370
        k(   55) = (  -0.5000000   0.1599199   0.3333764), wk =   0.0370370
        k(   56) = (  -0.5000000   0.1599199  -0.5000646), wk =   0.0185185
        k(   57) = (  -0.5000000   0.3198399   0.0000000), wk =   0.0185185
        k(   58) = (  -0.5000000   0.3198399   0.1666882), wk =   0.0370370
        k(   59) = (  -0.5000000   0.3198399   0.3333764), wk =   0.0370370
        k(   60) = (  -0.5000000   0.3198399  -0.5000646), wk =   0.0185185
        k(   61) = (  -0.5000000  -0.4797598   0.0000000), wk =   0.0092593
        k(   62) = (  -0.5000000  -0.4797598   0.1666882), wk =   0.0185185
        k(   63) = (  -0.5000000  -0.4797598   0.3333764), wk =   0.0185185
        k(   64) = (  -0.5000000  -0.4797598  -0.5000646), wk =   0.0092593

     Initial potential from superposition of free atoms

     starting charge  367.99656, renormalised to  368.60000
     Starting wfc are  232 randomized atomic wfcs

     Self-consistent Calculation

     iteration #  1     ecut=   120.00 Ry     beta= 0.70
     Davidson diagonalization with overlap
     ethr =  1.00E-02,  avg # of iterations =  5.2

     total energy              =   -6253.42790354 Ry
     Harris-Foulkes estimate   =   -6264.30046143 Ry
     estimated scf accuracy    <      13.69528999 Ry

[...]

     total energy              =   -6260.69376381 Ry
     Harris-Foulkes estimate   =   -6260.69376383 Ry
     estimated scf accuracy    <       0.00000003 Ry

     iteration # 14     ecut=   120.00 Ry     beta= 0.70
     Davidson diagonalization with overlap
     ethr =  8.14E-12,  avg # of iterations =  3.0

     End of self-consistent calculation

          k = 0.0000 0.0000 0.0000 ( 62967 PWs)   bands (ev):

   -66.2309 -66.2304 -66.2300 -66.2300 -66.2296 -66.2296 -66.2291 -66.2287
   -30.6571 -30.6534 -30.6533 -30.6497 -30.5936 -30.5898 -30.5895 -30.5859
   -30.5691 -30.5676 -30.5647 -30.5635 -30.5631 -30.5631 -30.5597 -30.5584
   -30.4730 -30.4724 -30.4692 -30.4690 -30.4683 -30.4679 -30.4650 -30.4639
   -20.3834 -20.3833 -20.3833 -20.3832 -20.3832 -20.3831 -20.3831 -20.3830
   -20.3826 -20.3823 -20.3822 -20.3819 -20.3768 -20.3764 -20.3764 -20.3760
   -20.3727 -20.3725 -20.3725 -20.3723 -20.3714 -20.3713 -20.3711 -20.3711
   -20.3696 -20.3696 -20.3695 -20.3694 -20.3685 -20.3682 -20.3682 -20.3680
   -20.3603 -20.3601 -20.3597 -20.3596 -20.3595 -20.3595 -20.3591 -20.3589
   -20.3342 -20.3341 -20.3340 -20.3338 -20.3326 -20.3326 -20.3325 -20.3323
   -20.3283 -20.3283 -20.3282 -20.3280 -20.3268 -20.3268 -20.3267 -20.3265
   -10.0694  -9.7690  -9.6732  -9.6731  -9.3802  -9.3788  -9.2880  -9.1636
    -9.1478  -9.0670  -9.0396  -9.0392  -7.9877  -7.9310  -7.9302  -7.8806
    -7.8661  -7.8645  -7.8360  -7.8336  -7.7551  -7.7544  -7.7284  -7.7279
     1.0422   1.0447   1.1127   1.1142   1.1520   1.1549   1.1618   1.3766
     1.4153   1.4171   1.4442   1.6561   2.3379   2.4236   2.4295   2.4325
     2.5644   2.5661   4.0874   4.0907   4.2750   4.2805   4.6450   4.6513
     4.6533   4.6552   4.6892   4.6897   4.8037   4.8038   4.9504   5.3113
     5.3172   5.3460   5.3490   5.4241   5.4292   5.4379   5.4383   5.6845
     5.6853   5.7394   5.7432   5.7438   5.8364   5.9985   5.9994   6.0101
     6.0125   6.1997   6.2021   6.3546   6.3552   6.7074   6.7116   6.7160
     6.7572   6.7601   6.9043   6.9234   6.9635   6.9659   7.2045   7.2073
     7.2225   7.2251   7.8458   7.8585   7.9595   7.9644   8.0246   8.0310
     9.0939   9.1052   9.6781   9.6802   9.6820   9.6835  12.2122  12.2129
    12.2549  12.2586  12.3058  12.3090  12.3953  12.4013  12.9161  12.9772
    13.0555  13.1100  13.1577  13.1616  13.7601  13.9905  14.0198  14.0234
    14.0555  14.2579  14.2881  14.6719  15.1562  15.1665  15.4257  15.9053
    15.9092  16.7845  16.9666  16.9706  17.3036

[...]

          k = 0.3333-0.4798-0.5001 ( 62880 PWs)   bands (ev):

[...]

          k =-0.5000 0.0000 0.0000 ( 62976 PWs)   bands (ev):

[...]

          k =-0.5000-0.4798-0.5001 ( 62880 PWs)   bands (ev):

   -66.2298 -66.2298 -66.2298 -66.2298 -66.2297 -66.2297 -66.2297 -66.2297
   -30.6221 -30.6221 -30.6221 -30.6221 -30.6220 -30.6220 -30.6219 -30.6219
   -30.5186 -30.5186 -30.5183 -30.5183 -30.5180 -30.5180 -30.5177 -30.5177
   -30.5149 -30.5149 -30.5144 -30.5144 -30.5143 -30.5143 -30.5138 -30.5138
   -20.3832 -20.3832 -20.3832 -20.3832 -20.3831 -20.3831 -20.3831 -20.3831
   -20.3796 -20.3796 -20.3796 -20.3796 -20.3794 -20.3794 -20.3794 -20.3794
   -20.3707 -20.3707 -20.3706 -20.3706 -20.3706 -20.3706 -20.3705 -20.3705
   -20.3702 -20.3702 -20.3701 -20.3701 -20.3701 -20.3701 -20.3699 -20.3699
   -20.3596 -20.3596 -20.3596 -20.3596 -20.3595 -20.3595 -20.3595 -20.3595
   -20.3308 -20.3308 -20.3307 -20.3307 -20.3307 -20.3307 -20.3306 -20.3306
   -20.3304 -20.3304 -20.3303 -20.3303 -20.3302 -20.3302 -20.3302 -20.3302
    -9.0638  -9.0637  -9.0613  -9.0613  -9.0589  -9.0589  -9.0580  -9.0579
    -8.5494  -8.5494  -8.5430  -8.5430  -8.5385  -8.5385  -8.5381  -8.5381
    -8.5007  -8.5007  -8.4985  -8.4985  -8.4981  -8.4980  -8.4935  -8.4935
     2.8985   2.8985   2.8996   2.8996   2.9116   2.9116   2.9148   2.9148
     3.0123   3.0123   3.0167   3.0167   3.0327   3.0327   3.0389   3.0389
     3.2789   3.2789   3.3004   3.3004   3.3264   3.3264   3.3419   3.3419
     4.0178   4.0178   4.0229   4.0229   4.0281   4.0281   4.0299   4.0299
     4.1821   4.1821   4.1854   4.1854   4.1868   4.1868   4.1920   4.1920
     4.2776   4.2776   4.2856   4.2856   4.2949   4.2949   4.2969   4.2969
     7.0432   7.0432   7.0614   7.0614   7.0886   7.0886   7.1108   7.1108
     7.2037   7.2037   7.2051   7.2051   7.2071   7.2071   7.2083   7.2083
     7.4680   7.4681   7.4721   7.4721   7.4795   7.4795   7.4855   7.4855
    11.7294  11.7294  11.7301  11.7301  11.7332  11.7332  11.7352  11.7352
    12.0583  12.0583  12.0757  12.0757  12.1027  12.1027  12.1241  12.1241
    12.3021  12.3021  12.3129  12.3129  12.3258  12.3258  12.3331  12.3331
    17.0138  17.0138  17.0236  17.0237  17.0392  17.0392  17.0510  17.0510
    17.3591  17.3592  17.3599  17.3601  17.3684

     the Fermi energy is     9.6723 ev

!    total energy              =   -6260.69376382 Ry
     Harris-Foulkes estimate   =   -6260.69376382 Ry
     estimated scf accuracy    <          4.2E-09 Ry

     The total energy is the sum of the following terms:

     one-electron contribution =   -4768.38076395 Ry
     hartree contribution      =    2620.23086186 Ry
     xc contribution           =    -966.33014615 Ry
     ewald contribution        =   -3146.21368523 Ry
     smearing contrib. (-TS)   =      -0.00003035 Ry

     convergence has been achieved in  14 iterations

     Writing output data file Landau_5.save

     General routines

     Parallel routines

   This run was terminated on:  21:30:46  25Mar2020

   JOB DONE.