     Program PWSCF v.6.4.1 starts on 21Nov2019 at 16: 8:10

     K-points division:     npool     =      40
     Reading input from scf.in

     Current dimensions of program PWSCF are:
     Max number of different atomic species (ntypx) = 10
     Max number of k-points (npk) =  40000
     Max angular momentum in pseudopotentials (lmaxx) =  3

     Subspace diagonalization in iterative solution of the eigenvalue problem:
     a serial algorithm will be used

     Message from routine setup:
     using ibrav=0 with symmetry is DISCOURAGED, use correct ibrav instead

     bravais-lattice index     =            0
     lattice parameter (alat)  =       9.8587  a.u.
     unit-cell volume          =    1416.5967 (a.u.)^3
     number of atoms/cell      =           16
     number of atomic types    =            2
     number of electrons       =       184.42
     number of Kohn-Sham states=          111
     kinetic-energy cutoff     =     120.0000  Ry
     charge density cutoff     =     480.0000  Ry
     convergence threshold     =      1.0E-08
     mixing beta               =       0.7000
     number of iterations used =            8  plain     mixing
     Exchange-correlation      = SLA PW NOGX NOGC ( 1  4  0  0 0 0)

     celldm(1)=   9.858662  celldm(2)=   0.000000  celldm(3)=   0.000000
     celldm(4)=   0.000000  celldm(5)=   0.000000  celldm(6)=   0.000000

     crystal axes: (cart. coord. in units of alat)
               a(1) = (   1.000000   0.000000   0.000000 )
               a(2) = (   0.000000   1.000000   0.000000 )
               a(3) = (   0.000000   0.000000   1.478401 )

     reciprocal axes: (cart. coord. in units 2 pi/alat)
               b(1) = (  1.000000  0.000000  0.000000 )
               b(2) = (  0.000000  1.000000  0.000000 )
               b(3) = (  0.000000  0.000000  0.676406 )

     PseudoPot. # 1 for W  read from file:
     /cluster/scratch/mnoe/QE/pps/W_ONCV_LDA-4.0.upf
     MD5 check sum: ba0307d5d4cd419d6f1d13dc49d7c13a
     Pseudo is Norm-conserving + core correction, Zval = 28.0
     Generated using ONCVPSP code by D. R. Hamann
     Using radial grid of 1380 points,  8 beta functions with:
                l(1) =   0
                l(2) =   0
                l(3) =   1
                l(4) =   1
                l(5) =   2
                l(6) =   2
                l(7) =   3
                l(8) =   3

     PseudoPot. # 2 for O  read from file:
     /cluster/scratch/mnoe/QE/pps/O_ONCV_LDA-3.0.upf
     MD5 check sum: b55cdb4f45ae2203d24ad12cf8d61a31
     Pseudo is Norm-conserving + core correction, Zval =  6.0
     Generated using ONCVPSP code by D. R. Hamann
     Using radial grid of  926 points,  5 beta functions with:
                l(1) =   0
                l(2) =   0
                l(3) =   1
                l(4) =   1
                l(5) =   2

     atomic species   valence    mass     pseudopotential
        W             28.00   183.84000     W ( 1.00)
        O              6.00    15.99940     O ( 1.00)

     16 Sym. Ops., with inversion, found (14 have fractional translation)

   Cartesian axes

     site n.     atom                  positions (alat units)
         1           W   tau(   1) = (   0.2500000   0.2500000   0.3184535  )
         2           W   tau(   2) = (   0.7500000   0.7500000   1.1599476  )
         3           W   tau(   3) = (   0.7500000   0.7500000   0.4207470  )
         4           W   tau(   4) = (   0.2500000   0.2500000   1.0576540  )
         5           O   tau(   5) = (   0.2500000   0.2500000   0.7192869  )
         6           O   tau(   6) = (   0.7500000   0.7500000   0.7591142  )
         7           O   tau(   7) = (   0.7500000   0.7500000   0.0199137  )
         8           O   tau(   8) = (   0.2500000   0.2500000   1.4584874  )
         9           O   tau(   9) = (   0.4634533   0.5365467   0.3696003  )
        10           O   tau(  10) = (   0.5365467   0.4634533   1.1088008  )
        11           O   tau(  11) = (   0.0365467   0.9634533   0.3696003  )
        12           O   tau(  12) = (   0.9634532   0.0365467   1.1088008  )
        13           O   tau(  13) = (   0.9634533   0.4634533   0.3696003  )
        14           O   tau(  14) = (   0.0365467   0.5365467   1.1088008  )
        15           O   tau(  15) = (   0.5365467   0.0365467   0.3696003  )
        16           O   tau(  16) = (   0.4634533   0.9634532   1.1088008  )

     number of k points=    40  gaussian smearing, width (Ry)=  0.0007
                       cart. coord. in units 2pi/alat
        k(    1) = (   0.0000000   0.0000000   0.0000000), wk =   0.0092593
        k(    2) = (   0.0000000   0.0000000   0.1127344), wk =   0.0185185
        k(    3) = (   0.0000000   0.0000000   0.2254688), wk =   0.0185185
        k(    4) = (   0.0000000   0.0000000  -0.3382032), wk =   0.0092593
        k(    5) = (   0.0000000   0.1666667   0.0000000), wk =   0.0370370
        k(    6) = (   0.0000000   0.1666667   0.1127344), wk =   0.0740741
        k(    7) = (   0.0000000   0.1666667   0.2254688), wk =   0.0740741
        k(    8) = (   0.0000000   0.1666667  -0.3382032), wk =   0.0370370
        k(    9) = (   0.0000000   0.3333333   0.0000000), wk =   0.0370370
        k(   10) = (   0.0000000   0.3333333   0.1127344), wk =   0.0740741
        k(   11) = (   0.0000000   0.3333333   0.2254688), wk =   0.0740741
        k(   12) = (   0.0000000   0.3333333  -0.3382032), wk =   0.0370370
        k(   13) = (   0.0000000  -0.5000000   0.0000000), wk =   0.0185185
        k(   14) = (   0.0000000  -0.5000000   0.1127344), wk =   0.0370370
        k(   15) = (   0.0000000  -0.5000000   0.2254688), wk =   0.0370370
        k(   16) = (   0.0000000  -0.5000000  -0.3382032), wk =   0.0185185
        k(   17) = (   0.1666667   0.1666667   0.0000000), wk =   0.0370370
        k(   18) = (   0.1666667   0.1666667   0.1127344), wk =   0.0740741
        k(   19) = (   0.1666667   0.1666667   0.2254688), wk =   0.0740741
        k(   20) = (   0.1666667   0.1666667  -0.3382032), wk =   0.0370370
        k(   21) = (   0.1666667   0.3333333   0.0000000), wk =   0.0740741
        k(   22) = (   0.1666667   0.3333333   0.1127344), wk =   0.1481481
        k(   23) = (   0.1666667   0.3333333   0.2254688), wk =   0.1481481
        k(   24) = (   0.1666667   0.3333333  -0.3382032), wk =   0.0740741
        k(   25) = (   0.1666667  -0.5000000   0.0000000), wk =   0.0370370
        k(   26) = (   0.1666667  -0.5000000   0.1127344), wk =   0.0740741
        k(   27) = (   0.1666667  -0.5000000   0.2254688), wk =   0.0740741
        k(   28) = (   0.1666667  -0.5000000  -0.3382032), wk =   0.0370370
        k(   29) = (   0.3333333   0.3333333   0.0000000), wk =   0.0370370
        k(   30) = (   0.3333333   0.3333333   0.1127344), wk =   0.0740741
        k(   31) = (   0.3333333   0.3333333   0.2254688), wk =   0.0740741
        k(   32) = (   0.3333333   0.3333333  -0.3382032), wk =   0.0370370
        k(   33) = (   0.3333333  -0.5000000   0.0000000), wk =   0.0370370
        k(   34) = (   0.3333333  -0.5000000   0.1127344), wk =   0.0740741
        k(   35) = (   0.3333333  -0.5000000   0.2254688), wk =   0.0740741
        k(   36) = (   0.3333333  -0.5000000  -0.3382032), wk =   0.0370370
        k(   37) = (  -0.5000000  -0.5000000   0.0000000), wk =   0.0092593
        k(   38) = (  -0.5000000  -0.5000000   0.1127344), wk =   0.0185185
        k(   39) = (  -0.5000000  -0.5000000   0.2254688), wk =   0.0185185
        k(   40) = (  -0.5000000  -0.5000000  -0.3382032), wk =   0.0092593

     Initial potential from superposition of free atoms

     starting charge  183.99828, renormalised to  184.42000
     Starting wfcs are  116 randomized atomic wfcs

     Self-consistent Calculation

     iteration #  1     ecut=   120.00 Ry     beta= 0.70
     Davidson diagonalization with overlap
     ethr =  1.00E-02,  avg # of iterations =  4.8

     total energy              =   -3126.59689466 Ry
     Harris-Foulkes estimate   =   -3132.08405195 Ry
     estimated scf accuracy    <       6.89773108 Ry

[...]

     total energy              =   -3130.25659744 Ry
     Harris-Foulkes estimate   =   -3130.25659747 Ry
     estimated scf accuracy    <       0.00000004 Ry

     iteration # 12     ecut=   120.00 Ry     beta= 0.70
     Davidson diagonalization with overlap
     ethr =  2.41E-11,  avg # of iterations =  2.0

     End of self-consistent calculation

          k = 0.0000 0.0000 0.0000 ( 31455 PWs)   bands (ev):

   -66.1522 -66.1517 -66.1505 -66.1500 -30.5956 -30.5899 -30.5314 -30.5269
   -30.4836 -30.4836 -30.4800 -30.4800 -30.3944 -30.3944 -30.3914 -30.3914
   -20.3057 -20.3054 -20.2998 -20.2995 -20.2979 -20.2978 -20.2978 -20.2977
   -20.2930 -20.2930 -20.2919 -20.2919 -20.2901 -20.2901 -20.2889 -20.2889
   -20.2808 -20.2807 -20.2803 -20.2803 -20.2444 -20.2444 -20.2443 -20.2443
   -20.2407 -20.2407 -20.2407 -20.2407 -10.0557  -9.7220  -9.2621  -9.0955
    -9.0785  -8.9936  -7.9736  -7.8613  -7.7411  -7.7411  -7.7180  -7.7180
     1.1017   1.1019   1.2017   1.4341   1.4879   1.6498   2.3903   2.4811
     2.5363   2.5363   4.0504   4.0504   4.8243   4.8243   4.9407   5.4629
     5.4629   5.4804   5.4804   5.7049   5.7049   5.8466   5.8647   6.6237
     6.6237   6.7775   6.9773   6.9828   7.2262   7.2262   7.2535   7.2535
     8.0042   8.0118   8.0351   8.0351   9.1085   9.1104   9.8006   9.8006
    12.2999  12.2999  13.1782  13.1792  13.3252  13.3252  13.6365  14.1356
    14.1356  14.6346  15.0284  15.0355  15.4627  16.6233  17.0441

[...]

          k = 0.3333-0.5000-0.3382 ( 31472 PWs)   bands (ev):

[...]

          k =-0.5000-0.5000 0.0000 ( 31456 PWs)   bands (ev):

[...]

          k =-0.5000-0.5000-0.3382 ( 31488 PWs)   bands (ev):

   -66.1511 -66.1511 -66.1511 -66.1511 -30.5611 -30.5611 -30.5611 -30.5611
   -30.4868 -30.4868 -30.4868 -30.4868 -30.3886 -30.3886 -30.3886 -30.3886
   -20.3027 -20.3026 -20.3026 -20.3026 -20.2978 -20.2978 -20.2978 -20.2978
   -20.2925 -20.2925 -20.2925 -20.2925 -20.2894 -20.2894 -20.2894 -20.2894
   -20.2805 -20.2805 -20.2805 -20.2805 -20.2459 -20.2459 -20.2459 -20.2459
   -20.2391 -20.2391 -20.2391 -20.2391  -9.4268  -9.4268  -9.4268  -9.4268
    -8.5800  -8.5800  -8.5800  -8.5800  -7.8272  -7.8272  -7.8272  -7.8272
     1.2164   1.2164   1.2164   1.2164   3.0575   3.0575   3.0575   3.0575
     3.3005   3.3005   3.3005   3.3005   4.7076   4.7076   4.7076   4.7076
     5.2089   5.2089   5.2089   5.2089   5.9549   5.9549   5.9549   5.9549
     6.1140   6.1140   6.1140   6.1140   6.6253   6.6253   6.6253   6.6253
     7.3662   7.3662   7.3662   7.3662  11.2148  11.2148  11.2148  11.2148
    12.3746  12.3746  12.3746  12.3746  13.5487  13.5487  13.5487  13.5487
    15.3994  15.3994  15.3994  15.3994  17.9796  17.9796  17.9796

     the Fermi energy is     9.7508 ev

!    total energy              =   -3130.25659744 Ry
     Harris-Foulkes estimate   =   -3130.25659745 Ry
     estimated scf accuracy    <          7.6E-10 Ry

     The total energy is the sum of the following terms:

     one-electron contribution =   -2382.75453966 Ry
     hartree contribution      =    1309.90776401 Ry
     xc contribution           =    -483.30633967 Ry
     ewald contribution        =   -1574.10343795 Ry
     smearing contrib. (-TS)   =      -0.00004419 Ry

     convergence has been achieved in  12 iterations

     Writing output data file Landau_8.save/

     General routines

     Parallel routines

   This run was terminated on:  16:11: 6  21Nov2019

   JOB DONE.