     Program PWSCF v.6.4.1 starts on 22Nov2019 at 14: 4:11

     K-points division:     npool     =      40
     Reading input from scf.in

     Current dimensions of program PWSCF are:
     Max number of different atomic species (ntypx) = 10
     Max number of k-points (npk) =  40000
     Max angular momentum in pseudopotentials (lmaxx) =  3

     Subspace diagonalization in iterative solution of the eigenvalue problem:
     a serial algorithm will be used

     Message from routine setup:
     using ibrav=0 with symmetry is DISCOURAGED, use correct ibrav instead

     bravais-lattice index     =            0
     lattice parameter (alat)  =      14.0649  a.u.
     unit-cell volume          =    2840.4232 (a.u.)^3
     number of atoms/cell      =           32
     number of atomic types    =            2
     number of electrons       =       369.00
     number of Kohn-Sham states=          222
     kinetic-energy cutoff     =     120.0000  Ry
     charge density cutoff     =     480.0000  Ry
     convergence threshold     =      1.0E-08
     mixing beta               =       0.7000
     number of iterations used =            8  plain     mixing
     Exchange-correlation      = SLA PW NOGX NOGC ( 1  4  0  0 0 0)

     celldm(1)=  14.064865  celldm(2)=   0.000000  celldm(3)=   0.000000
     celldm(4)=   0.000000  celldm(5)=   0.000000  celldm(6)=   0.000000

     crystal axes: (cart. coord. in units of alat)
               a(1) = (   1.000000   0.000000   0.000000 )
               a(2) = (   0.000000   1.021736   0.000000 )
               a(3) = (   0.000000   0.000000   0.999166 )

     reciprocal axes: (cart. coord. in units 2 pi/alat)
               b(1) = (  1.000000  0.000000  0.000000 )
               b(2) = (  0.000000  0.978726  0.000000 )
               b(3) = (  0.000000  0.000000  1.000835 )

     PseudoPot. # 1 for W  read from file:
     /cluster/scratch/mnoe/QE/pps/W_ONCV_LDA-4.0.upf
     MD5 check sum: ba0307d5d4cd419d6f1d13dc49d7c13a
     Pseudo is Norm-conserving + core correction, Zval = 28.0
     Generated using ONCVPSP code by D. R. Hamann
     Using radial grid of 1380 points,  8 beta functions with:
                l(1) =   0
                l(2) =   0
                l(3) =   1
                l(4) =   1
                l(5) =   2
                l(6) =   2
                l(7) =   3
                l(8) =   3

     PseudoPot. # 2 for O  read from file:
     /cluster/scratch/mnoe/QE/pps/O_ONCV_LDA-3.0.upf
     MD5 check sum: b55cdb4f45ae2203d24ad12cf8d61a31
     Pseudo is Norm-conserving + core correction, Zval =  6.0
     Generated using ONCVPSP code by D. R. Hamann
     Using radial grid of  926 points,  5 beta functions with:
                l(1) =   0
                l(2) =   0
                l(3) =   1
                l(4) =   1
                l(5) =   2

     atomic species   valence    mass     pseudopotential
        W             28.00   183.84000     W ( 1.00)
        O              6.00    15.99940     O ( 1.00)

      8 Sym. Ops., with inversion, found ( 6 have fractional translation)

   Cartesian axes

     site n.     atom                  positions (alat units)
         1           W   tau(   1) = (   0.2389000   0.2963142   0.0104713  )
         2           W   tau(   2) = (   0.7611000   0.7254222   0.9886943  )
         3           W   tau(   3) = (   0.2611000   0.2145540   0.5100540  )
         4           W   tau(   4) = (   0.7389000   0.8071823   0.4891115  )
         5           W   tau(   5) = (   0.7611000   0.2963142   0.4891115  )
         6           W   tau(   6) = (   0.2389000   0.7254222   0.5100540  )
         7           W   tau(   7) = (   0.7389000   0.2145540   0.9886943  )
         8           W   tau(   8) = (   0.2611000   0.8071823   0.0104713  )
         9           O   tau(   9) = (   0.2295300   0.0242585   0.0032573  )
        10           O   tau(  10) = (   0.7704700   0.9974779   0.9959082  )
        11           O   tau(  11) = (   0.2704700   0.4866097   0.5028401  )
        12           O   tau(  12) = (   0.7295300   0.5351267   0.4963255  )
        13           O   tau(  13) = (   0.7704700   0.0242585   0.4963255  )
        14           O   tau(  14) = (   0.2295300   0.9974779   0.5028401  )
        15           O   tau(  15) = (   0.7295300   0.4866097   0.9959082  )
        16           O   tau(  16) = (   0.2704700   0.5351267   0.0032573  )
        17           O   tau(  17) = (   0.5030300   0.2339674   0.4912570  )
        18           O   tau(  18) = (   0.4969700   0.7877689   0.5079086  )
        19           O   tau(  19) = (   0.9969700   0.2769007   0.9908397  )
        20           O   tau(  20) = (   0.0030301   0.7448356   0.0083259  )
        21           O   tau(  21) = (   0.4969700   0.2339674   0.0083259  )
        22           O   tau(  22) = (   0.5030300   0.7877689   0.9908397  )
        23           O   tau(  23) = (   0.0030301   0.2769007   0.5079086  )
        24           O   tau(  24) = (   0.9969700   0.7448356   0.4912570  )
        25           O   tau(  25) = (   0.7416673   0.2507443   0.7447780  )
        26           O   tau(  26) = (   0.2583328   0.7709921   0.2543875  )
        27           O   tau(  27) = (   0.7583328   0.2601239   0.2451952  )
        28           O   tau(  28) = (   0.2416672   0.7616125   0.7539703  )
        29           O   tau(  29) = (   0.2583328   0.2507443   0.7539703  )
        30           O   tau(  30) = (   0.7416673   0.7709921   0.2451952  )
        31           O   tau(  31) = (   0.2416672   0.2601239   0.2543875  )
        32           O   tau(  32) = (   0.7583328   0.7616125   0.7447780  )

     number of k points=    64  gaussian smearing, width (Ry)=  0.0007
                       cart. coord. in units 2pi/alat
        k(    1) = (   0.0000000   0.0000000   0.0000000), wk =   0.0092593
        k(    2) = (   0.0000000   0.0000000   0.1668059), wk =   0.0185185
        k(    3) = (   0.0000000   0.0000000   0.3336117), wk =   0.0185185
        k(    4) = (   0.0000000   0.0000000  -0.5004176), wk =   0.0092593
        k(    5) = (   0.0000000   0.1631210   0.0000000), wk =   0.0185185
        k(    6) = (   0.0000000   0.1631210   0.1668059), wk =   0.0370370
        k(    7) = (   0.0000000   0.1631210   0.3336117), wk =   0.0370370
        k(    8) = (   0.0000000   0.1631210  -0.5004176), wk =   0.0185185
        k(    9) = (   0.0000000   0.3262420   0.0000000), wk =   0.0185185
        k(   10) = (   0.0000000   0.3262420   0.1668059), wk =   0.0370370
        k(   11) = (   0.0000000   0.3262420   0.3336117), wk =   0.0370370
        k(   12) = (   0.0000000   0.3262420  -0.5004176), wk =   0.0185185
        k(   13) = (   0.0000000  -0.4893630   0.0000000), wk =   0.0092593
        k(   14) = (   0.0000000  -0.4893630   0.1668059), wk =   0.0185185
        k(   15) = (   0.0000000  -0.4893630   0.3336117), wk =   0.0185185
        k(   16) = (   0.0000000  -0.4893630  -0.5004176), wk =   0.0092593
        k(   17) = (   0.1666667   0.0000000   0.0000000), wk =   0.0185185
        k(   18) = (   0.1666667   0.0000000   0.1668059), wk =   0.0370370
        k(   19) = (   0.1666667   0.0000000   0.3336117), wk =   0.0370370
        k(   20) = (   0.1666667   0.0000000  -0.5004176), wk =   0.0185185
        k(   21) = (   0.1666667   0.1631210   0.0000000), wk =   0.0370370
        k(   22) = (   0.1666667   0.1631210   0.1668059), wk =   0.0740741
        k(   23) = (   0.1666667   0.1631210   0.3336117), wk =   0.0740741
        k(   24) = (   0.1666667   0.1631210  -0.5004176), wk =   0.0370370
        k(   25) = (   0.1666667   0.3262420   0.0000000), wk =   0.0370370
        k(   26) = (   0.1666667   0.3262420   0.1668059), wk =   0.0740741
        k(   27) = (   0.1666667   0.3262420   0.3336117), wk =   0.0740741
        k(   28) = (   0.1666667   0.3262420  -0.5004176), wk =   0.0370370
        k(   29) = (   0.1666667  -0.4893630   0.0000000), wk =   0.0185185
        k(   30) = (   0.1666667  -0.4893630   0.1668059), wk =   0.0370370
        k(   31) = (   0.1666667  -0.4893630   0.3336117), wk =   0.0370370
        k(   32) = (   0.1666667  -0.4893630  -0.5004176), wk =   0.0185185
        k(   33) = (   0.3333333   0.0000000   0.0000000), wk =   0.0185185
        k(   34) = (   0.3333333   0.0000000   0.1668059), wk =   0.0370370
        k(   35) = (   0.3333333   0.0000000   0.3336117), wk =   0.0370370
        k(   36) = (   0.3333333   0.0000000  -0.5004176), wk =   0.0185185
        k(   37) = (   0.3333333   0.1631210   0.0000000), wk =   0.0370370
        k(   38) = (   0.3333333   0.1631210   0.1668059), wk =   0.0740741
        k(   39) = (   0.3333333   0.1631210   0.3336117), wk =   0.0740741
        k(   40) = (   0.3333333   0.1631210  -0.5004176), wk =   0.0370370
        k(   41) = (   0.3333333   0.3262420   0.0000000), wk =   0.0370370
        k(   42) = (   0.3333333   0.3262420   0.1668059), wk =   0.0740741
        k(   43) = (   0.3333333   0.3262420   0.3336117), wk =   0.0740741
        k(   44) = (   0.3333333   0.3262420  -0.5004176), wk =   0.0370370
        k(   45) = (   0.3333333  -0.4893630   0.0000000), wk =   0.0185185
        k(   46) = (   0.3333333  -0.4893630   0.1668059), wk =   0.0370370
        k(   47) = (   0.3333333  -0.4893630   0.3336117), wk =   0.0370370
        k(   48) = (   0.3333333  -0.4893630  -0.5004176), wk =   0.0185185
        k(   49) = (  -0.5000000   0.0000000   0.0000000), wk =   0.0092593
        k(   50) = (  -0.5000000   0.0000000   0.1668059), wk =   0.0185185
        k(   51) = (  -0.5000000   0.0000000   0.3336117), wk =   0.0185185
        k(   52) = (  -0.5000000   0.0000000  -0.5004176), wk =   0.0092593
        k(   53) = (  -0.5000000   0.1631210   0.0000000), wk =   0.0185185
        k(   54) = (  -0.5000000   0.1631210   0.1668059), wk =   0.0370370
        k(   55) = (  -0.5000000   0.1631210   0.3336117), wk =   0.0370370
        k(   56) = (  -0.5000000   0.1631210  -0.5004176), wk =   0.0185185
        k(   57) = (  -0.5000000   0.3262420   0.0000000), wk =   0.0185185
        k(   58) = (  -0.5000000   0.3262420   0.1668059), wk =   0.0370370
        k(   59) = (  -0.5000000   0.3262420   0.3336117), wk =   0.0370370
        k(   60) = (  -0.5000000   0.3262420  -0.5004176), wk =   0.0185185
        k(   61) = (  -0.5000000  -0.4893630   0.0000000), wk =   0.0092593
        k(   62) = (  -0.5000000  -0.4893630   0.1668059), wk =   0.0185185
        k(   63) = (  -0.5000000  -0.4893630   0.3336117), wk =   0.0185185
        k(   64) = (  -0.5000000  -0.4893630  -0.5004176), wk =   0.0092593

     Initial potential from superposition of free atoms

     starting charge  367.99656, renormalised to  369.00000
     Starting wfcs are  232 randomized atomic wfcs

     Self-consistent Calculation

     iteration #  1     ecut=   120.00 Ry     beta= 0.70
     Davidson diagonalization with overlap
     ethr =  1.00E-02,  avg # of iterations =  5.5

     total energy              =   -6252.91246020 Ry
     Harris-Foulkes estimate   =   -6264.05996068 Ry
     estimated scf accuracy    <      13.98893078 Ry

[...]

     total energy              =   -6260.34223329 Ry
     Harris-Foulkes estimate   =   -6260.34223331 Ry
     estimated scf accuracy    <       0.00000003 Ry

     iteration # 13     ecut=   120.00 Ry     beta= 0.70
     Davidson diagonalization with overlap
     ethr =  6.85E-12,  avg # of iterations =  2.6

     End of self-consistent calculation

          k = 0.0000 0.0000 0.0000 ( 62991 PWs)   bands (ev):

   -66.1443 -66.1437 -66.1437 -66.1436 -66.1431 -66.1431 -66.1430 -66.1425
   -30.5555 -30.5517 -30.5469 -30.5435 -30.5167 -30.5122 -30.5052 -30.4981
   -30.4960 -30.4942 -30.4841 -30.4809 -30.4750 -30.4725 -30.4588 -30.4514
   -30.4229 -30.4220 -30.4190 -30.4126 -30.4057 -30.4045 -30.3985 -30.3970
   -20.2895 -20.2894 -20.2892 -20.2892 -20.2881 -20.2880 -20.2877 -20.2876
   -20.2841 -20.2841 -20.2836 -20.2836 -20.2830 -20.2830 -20.2823 -20.2823
   -20.2784 -20.2783 -20.2777 -20.2776 -20.2746 -20.2744 -20.2743 -20.2741
   -20.2736 -20.2733 -20.2732 -20.2732 -20.2731 -20.2729 -20.2723 -20.2720
   -20.2706 -20.2699 -20.2686 -20.2682 -20.2681 -20.2675 -20.2668 -20.2661
   -20.2561 -20.2560 -20.2544 -20.2544 -20.2522 -20.2521 -20.2506 -20.2506
   -20.2499 -20.2499 -20.2484 -20.2483 -20.2479 -20.2478 -20.2462 -20.2462
   -10.0986  -9.7223  -9.7187  -9.6919  -9.3347  -9.3173  -9.3095  -9.0414
    -9.0117  -8.9573  -8.9516  -8.9486  -7.9869  -7.9030  -7.8939  -7.8692
    -7.8652  -7.8611  -7.8274  -7.8259  -7.8160  -7.7939  -7.7710  -7.7664
     1.1325   1.1334   1.1498   1.1861   1.2019   1.2320   1.2923   1.3265
     1.3445   1.3899   1.4348   1.5422   2.3398   2.3605   2.4046   2.4352
     2.4356   2.5577   4.0059   4.0657   4.1774   4.2650   4.5409   4.5598
     4.5856   4.6168   4.6208   4.7152   4.7273   4.7418   5.0499   5.4151
     5.4324   5.4399   5.4529   5.5556   5.5613   5.6160   5.6861   5.7201
     5.7973   5.8138   5.8189   5.8549   5.8735   5.9117   6.0554   6.0771
     6.1045   6.2834   6.3217   6.3426   6.3450   6.5709   6.5962   6.6314
     6.6383   6.6717   6.9969   7.0077   7.0247   7.0340   7.0390   7.0449
     7.0453   7.0556   8.0654   8.0967   8.2127   8.2354   8.2466   8.2617
     9.2296   9.2466   9.6442   9.6864   9.7736   9.8321  12.4248  12.4901
    12.5404  12.5531  12.5675  12.5873  12.6433  12.6559  12.8074  12.9930
    13.1593  13.2020  13.3378  13.5115  13.7151  13.8734  14.0389  14.0795
    14.1207  14.1306  14.4317  14.5342  14.5974  14.6255  15.3799  15.4791
    15.6503  16.3703  16.8482  16.8483  16.9180  17.1003

[...]

          k = 0.3333-0.4894-0.5004 ( 63044 PWs)   bands (ev):

[...]

          k =-0.5000 0.0000 0.0000 ( 63026 PWs)   bands (ev):

[...]

          k =-0.5000-0.4894-0.5004 ( 62944 PWs)   bands (ev):

   -66.1434 -66.1434 -66.1434 -66.1434 -66.1434 -66.1434 -66.1433 -66.1433
   -30.5171 -30.5170 -30.5170 -30.5170 -30.5158 -30.5158 -30.5158 -30.5158
   -30.4635 -30.4635 -30.4635 -30.4635 -30.4618 -30.4618 -30.4618 -30.4618
   -30.4379 -30.4379 -30.4379 -30.4379 -30.4365 -30.4365 -30.4365 -30.4365
   -20.2885 -20.2885 -20.2885 -20.2885 -20.2884 -20.2884 -20.2884 -20.2884
   -20.2835 -20.2835 -20.2835 -20.2835 -20.2834 -20.2834 -20.2833 -20.2833
   -20.2760 -20.2760 -20.2760 -20.2760 -20.2759 -20.2759 -20.2759 -20.2759
   -20.2734 -20.2734 -20.2733 -20.2733 -20.2731 -20.2731 -20.2731 -20.2731
   -20.2683 -20.2683 -20.2683 -20.2683 -20.2681 -20.2680 -20.2680 -20.2680
   -20.2535 -20.2535 -20.2534 -20.2534 -20.2534 -20.2534 -20.2534 -20.2534
   -20.2482 -20.2482 -20.2482 -20.2482 -20.2482 -20.2482 -20.2481 -20.2481
    -9.1140  -9.1140  -9.1140  -9.1140  -9.0874  -9.0874  -9.0874  -9.0874
    -8.5041  -8.5041  -8.5041  -8.5041  -8.4845  -8.4845  -8.4845  -8.4845
    -8.4444  -8.4444  -8.4444  -8.4444  -8.4056  -8.4056  -8.4056  -8.4056
     2.7052   2.7052   2.7052   2.7052   2.8200   2.8200   2.8200   2.8200
     2.9141   2.9141   2.9141   2.9141   3.0777   3.0777   3.0777   3.0777
     3.2050   3.2050   3.2050   3.2050   3.3417   3.3417   3.3417   3.3417
     4.0586   4.0586   4.0586   4.0586   4.1170   4.1170   4.1170   4.1170
     4.2197   4.2197   4.2197   4.2198   4.2725   4.2725   4.2725   4.2725
     4.3900   4.3900   4.3900   4.3900   4.4663   4.4663   4.4663   4.4663
     7.0581   7.0581   7.0581   7.0582   7.2040   7.2040   7.2040   7.2040
     7.2452   7.2453   7.2453   7.2453   7.3213   7.3213   7.3213   7.3213
     7.4928   7.4928   7.4928   7.4928   7.5614   7.5614   7.5614   7.5614
    11.8072  11.8072  11.8072  11.8072  11.9033  11.9033  11.9033  11.9033
    12.1196  12.1196  12.1196  12.1196  12.2496  12.2496  12.2496  12.2496
    12.3120  12.3120  12.3120  12.3120  12.4215  12.4215  12.4215  12.4215
    16.7038  16.7038  16.7038  16.7038  16.8437  16.8437  16.8437  16.8437
    17.4041  17.4041  17.4041  17.4041  17.4789  17.4789

     the Fermi energy is     9.8165 ev

!    total energy              =   -6260.34223330 Ry
     Harris-Foulkes estimate   =   -6260.34223330 Ry
     estimated scf accuracy    <          1.3E-09 Ry

     The total energy is the sum of the following terms:

     one-electron contribution =   -4775.47259702 Ry
     hartree contribution      =    2624.97655180 Ry
     xc contribution           =    -966.80635381 Ry
     ewald contribution        =   -3143.03975949 Ry
     smearing contrib. (-TS)   =      -0.00007478 Ry

     convergence has been achieved in  13 iterations

     Writing output data file Landau_24.save/

     General routines

     Parallel routines

   This run was terminated on:  14:37:43  22Nov2019

   JOB DONE.