     Program PWSCF v.6.2 (svn rev. 14038) starts on 11Mar2020 at 12: 3:29

     K-points division:     npool     =      40
     Reading input from rscf.in

     Current dimensions of program PWSCF are:
     Max number of different atomic species (ntypx) = 10
     Max number of k-points (npk) =  40000
     Max angular momentum in pseudopotentials (lmaxx) =  3

     Subspace diagonalization in iterative solution of the eigenvalue problem:
     a serial algorithm will be used

     bravais-lattice index     =            0
     lattice parameter (alat)  =      13.8397  a.u.
     unit-cell volume          =    2804.9816 (a.u.)^3
     number of atoms/cell      =           32
     number of atomic types    =            2
     number of electrons       =       368.00
     number of Kohn-Sham states=          221
     kinetic-energy cutoff     =     120.0000  Ry
     charge density cutoff     =     480.0000  Ry
     convergence threshold     =      1.0E-08
     mixing beta               =       0.7000
     number of iterations used =            8  plain     mixing
     Exchange-correlation      = SLA PW NOGX NOGC ( 1  4  0  0 0 0)
     nstep                     =           50

     celldm(1)=  13.839685  celldm(2)=   0.000000  celldm(3)=   0.000000
     celldm(4)=   0.000000  celldm(5)=   0.000000  celldm(6)=   0.000000

     crystal axes: (cart. coord. in units of alat)
               a(1) = (   1.000000   0.000000   0.000000 )
               a(2) = (   0.000000   1.058160   0.000000 )
               a(3) = (   0.000000   0.000000   1.000000 )

     reciprocal axes: (cart. coord. in units 2 pi/alat)
               b(1) = (  1.000000  0.000000  0.000000 )
               b(2) = (  0.000000  0.945037  0.000000 )
               b(3) = (  0.000000  0.000000  1.000000 )

     PseudoPot. # 1 for W  read from file:
     /cluster/scratch/mnoe/QE/pps/W_ONCV_LDA-4.0.upf
     MD5 check sum: ba0307d5d4cd419d6f1d13dc49d7c13a
     Pseudo is Norm-conserving + core correction, Zval = 28.0
     Generated using ONCVPSP code by D. R. Hamann
     Using radial grid of 1380 points,  8 beta functions with:
                l(1) =   0
                l(2) =   0
                l(3) =   1
                l(4) =   1
                l(5) =   2
                l(6) =   2
                l(7) =   3
                l(8) =   3

     PseudoPot. # 2 for O  read from file:
     /cluster/scratch/mnoe/QE/pps/O_ONCV_LDA-3.0.upf
     MD5 check sum: a1bd6164e7280c17a38c229939bfbd54
     Pseudo is Norm-conserving + core correction, Zval =  6.0
     Generated using ONCVPSP code by D. R. Hamann
     Using radial grid of  926 points,  5 beta functions with:
                l(1) =   0
                l(2) =   0
                l(3) =   1
                l(4) =   1
                l(5) =   2

     atomic species   valence    mass     pseudopotential
        W             28.00   183.84000     W ( 1.00)
        O              6.00    15.99940     O ( 1.00)

      8 Sym. Ops., with inversion, found ( 6 have fractional translation)

   Cartesian axes

     site n.     atom                  positions (alat units)
         1           W   tau(   1) = (   0.2430600   0.2958948   0.0065500  )
         2           W   tau(   2) = (   0.7569400   0.7622653   0.9934500  )
         3           W   tau(   3) = (   0.2569400   0.2331852   0.5065500  )
         4           W   tau(   4) = (   0.7430600   0.8249749   0.4934500  )
         5           W   tau(   5) = (   0.7569400   0.2958948   0.4934500  )
         6           W   tau(   6) = (   0.2430600   0.7622653   0.5065500  )
         7           W   tau(   7) = (   0.7430600   0.2331852   0.9934500  )
         8           W   tau(   8) = (   0.2569400   0.8249749   0.0065500  )
         9           O   tau(   9) = (   0.2372000   0.0081615   0.0020400  )
        10           O   tau(  10) = (   0.7627999   1.0499986   0.9979600  )
        11           O   tau(  11) = (   0.2628000   0.5209186   0.5020400  )
        12           O   tau(  12) = (   0.7372000   0.5372415   0.4979600  )
        13           O   tau(  13) = (   0.7627999   0.0081615   0.4979600  )
        14           O   tau(  14) = (   0.2372000   1.0499986   0.5020400  )
        15           O   tau(  15) = (   0.7372000   0.5209186   0.9979600  )
        16           O   tau(  16) = (   0.2628000   0.5372415   0.0020400  )
        17           O   tau(  17) = (   0.5019000   0.2506464   0.4549893  )
        18           O   tau(  18) = (   0.4981000   0.8075137   0.5450107  )
        19           O   tau(  19) = (   0.9981000   0.2784337   0.9549893  )
        20           O   tau(  20) = (   0.0019000   0.7797265   0.0450107  )
        21           O   tau(  21) = (   0.4981000   0.2506464   0.0450107  )
        22           O   tau(  22) = (   0.5019000   0.8075137   0.9549893  )
        23           O   tau(  23) = (   0.0019000   0.2784337   0.5450107  )
        24           O   tau(  24) = (   0.9981000   0.7797265   0.4549893  )
        25           O   tau(  25) = (   0.7049893   0.2615031   0.7471200  )
        26           O   tau(  26) = (   0.2950107   0.7966570   0.2528800  )
        27           O   tau(  27) = (   0.7950107   0.2675769   0.2471200  )
        28           O   tau(  28) = (   0.2049893   0.7905832   0.7528800  )
        29           O   tau(  29) = (   0.2950107   0.2615031   0.7528800  )
        30           O   tau(  30) = (   0.7049893   0.7966570   0.2471200  )
        31           O   tau(  31) = (   0.2049893   0.2675769   0.2528800  )
        32           O   tau(  32) = (   0.7950107   0.7905832   0.7471200  )

     number of k points=    64  gaussian smearing, width (Ry)=  0.0007
                       cart. coord. in units 2pi/alat
        k(    1) = (   0.0000000   0.0000000   0.0000000), wk =   0.0092593
        k(    2) = (   0.0000000   0.0000000   0.1666667), wk =   0.0185185
        k(    3) = (   0.0000000   0.0000000   0.3333333), wk =   0.0185185
        k(    4) = (   0.0000000   0.0000000  -0.5000000), wk =   0.0092593
        k(    5) = (   0.0000000   0.1575061   0.0000000), wk =   0.0185185
        k(    6) = (   0.0000000   0.1575061   0.1666667), wk =   0.0370370
        k(    7) = (   0.0000000   0.1575061   0.3333333), wk =   0.0370370
        k(    8) = (   0.0000000   0.1575061  -0.5000000), wk =   0.0185185
        k(    9) = (   0.0000000   0.3150122   0.0000000), wk =   0.0185185
        k(   10) = (   0.0000000   0.3150122   0.1666667), wk =   0.0370370
        k(   11) = (   0.0000000   0.3150122   0.3333333), wk =   0.0370370
        k(   12) = (   0.0000000   0.3150122  -0.5000000), wk =   0.0185185
        k(   13) = (   0.0000000  -0.4725183   0.0000000), wk =   0.0092593
        k(   14) = (   0.0000000  -0.4725183   0.1666667), wk =   0.0185185
        k(   15) = (   0.0000000  -0.4725183   0.3333333), wk =   0.0185185
        k(   16) = (   0.0000000  -0.4725183  -0.5000000), wk =   0.0092593
        k(   17) = (   0.1666667   0.0000000   0.1666667), wk =   0.0370370
        k(   18) = (   0.1666667   0.0000000   0.3333333), wk =   0.0370370
        k(   19) = (   0.1666667   0.0000000  -0.5000000), wk =   0.0185185
        k(   20) = (   0.1666667   0.1575061   0.1666667), wk =   0.0740741
        k(   21) = (   0.1666667   0.1575061   0.3333333), wk =   0.0740741
        k(   22) = (   0.1666667   0.1575061  -0.5000000), wk =   0.0370370
        k(   23) = (   0.1666667   0.3150122   0.1666667), wk =   0.0740741
        k(   24) = (   0.1666667   0.3150122   0.3333333), wk =   0.0740741
        k(   25) = (   0.1666667   0.3150122  -0.5000000), wk =   0.0370370
        k(   26) = (   0.1666667  -0.4725183   0.1666667), wk =   0.0370370
        k(   27) = (   0.1666667  -0.4725183   0.3333333), wk =   0.0370370
        k(   28) = (   0.1666667  -0.4725183  -0.5000000), wk =   0.0185185
        k(   29) = (   0.3333333   0.0000000   0.3333333), wk =   0.0370370
        k(   30) = (   0.3333333   0.0000000  -0.5000000), wk =   0.0185185
        k(   31) = (   0.3333333   0.1575061   0.3333333), wk =   0.0740741
        k(   32) = (   0.3333333   0.1575061  -0.5000000), wk =   0.0370370
        k(   33) = (   0.3333333   0.3150122   0.3333333), wk =   0.0740741
        k(   34) = (   0.3333333   0.3150122  -0.5000000), wk =   0.0370370
        k(   35) = (   0.3333333  -0.4725183   0.3333333), wk =   0.0370370
        k(   36) = (   0.3333333  -0.4725183  -0.5000000), wk =   0.0185185
        k(   37) = (  -0.5000000   0.0000000  -0.5000000), wk =   0.0092593
        k(   38) = (  -0.5000000   0.1575061  -0.5000000), wk =   0.0185185
        k(   39) = (  -0.5000000   0.3150122  -0.5000000), wk =   0.0185185
        k(   40) = (  -0.5000000  -0.4725183  -0.5000000), wk =   0.0092593
        k(   41) = (   0.1666667   0.0000000   0.0000000), wk =   0.0185185
        k(   42) = (   0.3333333   0.0000000   0.0000000), wk =   0.0185185
        k(   43) = (  -0.5000000   0.0000000   0.0000000), wk =   0.0092593
        k(   44) = (   0.1666667  -0.1575061   0.0000000), wk =   0.0370370
        k(   45) = (   0.3333333  -0.1575061   0.0000000), wk =   0.0370370
        k(   46) = (  -0.5000000  -0.1575061   0.0000000), wk =   0.0185185
        k(   47) = (   0.1666667  -0.3150122   0.0000000), wk =   0.0370370
        k(   48) = (   0.3333333  -0.3150122   0.0000000), wk =   0.0370370
        k(   49) = (  -0.5000000  -0.3150122   0.0000000), wk =   0.0185185
        k(   50) = (   0.1666667   0.4725183   0.0000000), wk =   0.0185185
        k(   51) = (   0.3333333   0.4725183   0.0000000), wk =   0.0185185
        k(   52) = (  -0.5000000   0.4725183   0.0000000), wk =   0.0092593
        k(   53) = (   0.3333333   0.0000000   0.1666667), wk =   0.0370370
        k(   54) = (  -0.5000000   0.0000000   0.1666667), wk =   0.0185185
        k(   55) = (   0.3333333  -0.1575061   0.1666667), wk =   0.0740741
        k(   56) = (  -0.5000000  -0.1575061   0.1666667), wk =   0.0370370
        k(   57) = (   0.3333333  -0.3150122   0.1666667), wk =   0.0740741
        k(   58) = (  -0.5000000  -0.3150122   0.1666667), wk =   0.0370370
        k(   59) = (   0.3333333   0.4725183   0.1666667), wk =   0.0370370
        k(   60) = (  -0.5000000   0.4725183   0.1666667), wk =   0.0185185
        k(   61) = (  -0.5000000   0.0000000   0.3333333), wk =   0.0185185
        k(   62) = (  -0.5000000  -0.1575061   0.3333333), wk =   0.0370370
        k(   63) = (  -0.5000000  -0.3150122   0.3333333), wk =   0.0370370
        k(   64) = (  -0.5000000   0.4725183   0.3333333), wk =   0.0185185

     Initial potential from superposition of free atoms

     starting charge  367.99656, renormalised to  368.00000
     Starting wfc are  232 randomized atomic wfcs

     Self-consistent Calculation

     iteration #  1     ecut=   120.00 Ry     beta= 0.70
     Davidson diagonalization with overlap
     ethr =  1.00E-02,  avg # of iterations =  5.0

     total energy              =   -6254.01326650 Ry
     Harris-Foulkes estimate   =   -6264.58208535 Ry
     estimated scf accuracy    <      13.38969560 Ry

[...]

     End of self-consistent calculation

[...]

     bravais-lattice index     =            0
     lattice parameter (alat)  =      13.8397  a.u.
     unit-cell volume          =    2817.6756 (a.u.)^3
     number of atoms/cell      =           32
     number of atomic types    =            2
     number of electrons       =       368.00
     number of Kohn-Sham states=          221
     kinetic-energy cutoff     =     120.0000  Ry
     charge density cutoff     =     480.0000  Ry
     convergence threshold     =      1.0E-10
     mixing beta               =       0.7000
     number of iterations used =            8  plain     mixing
     Exchange-correlation      = SLA PW NOGX NOGC ( 1  4  0  0 0 0)

     celldm(1)=  13.839685  celldm(2)=   0.000000  celldm(3)=   0.000000
     celldm(4)=   0.000000  celldm(5)=   0.000000  celldm(6)=   0.000000

     crystal axes: (cart. coord. in units of alat)
               a(1) = (   1.004868   0.000000   0.000000 )
               a(2) = (   0.000000   1.051570   0.000000 )
               a(3) = (   0.000000   0.000000   1.005924 )

     reciprocal axes: (cart. coord. in units 2 pi/alat)
               b(1) = (  0.995155  0.000000  0.000000 )
               b(2) = (  0.000000  0.950959  0.000000 )
               b(3) = (  0.000000  0.000000  0.994111 )

     PseudoPot. # 1 for W  read from file:
     /cluster/scratch/mnoe/QE/pps/W_ONCV_LDA-4.0.upf
     MD5 check sum: ba0307d5d4cd419d6f1d13dc49d7c13a
     Pseudo is Norm-conserving + core correction, Zval = 28.0
     Generated using ONCVPSP code by D. R. Hamann
     Using radial grid of 1380 points,  8 beta functions with:
                l(1) =   0
                l(2) =   0
                l(3) =   1
                l(4) =   1
                l(5) =   2
                l(6) =   2
                l(7) =   3
                l(8) =   3

     PseudoPot. # 2 for O  read from file:
     /cluster/scratch/mnoe/QE/pps/O_ONCV_LDA-3.0.upf
     MD5 check sum: a1bd6164e7280c17a38c229939bfbd54
     Pseudo is Norm-conserving + core correction, Zval =  6.0
     Generated using ONCVPSP code by D. R. Hamann
     Using radial grid of  926 points,  5 beta functions with:
                l(1) =   0
                l(2) =   0
                l(3) =   1
                l(4) =   1
                l(5) =   2

     atomic species   valence    mass     pseudopotential
        W             28.00   183.84000     W ( 1.00)
        O              6.00    15.99940     O ( 1.00)

      8 Sym. Ops., with inversion, found ( 6 have fractional translation)

   Cartesian axes

     site n.     atom                  positions (alat units)
         1           W   tau(   1) = (   0.2442433   0.2940520   0.0065888  )
         2           W   tau(   2) = (   0.7606250   0.7575178   0.9993351  )
         3           W   tau(   3) = (   0.2581908   0.2317329   0.5095508  )
         4           W   tau(   4) = (   0.7466774   0.8198368   0.4963731  )
         5           W   tau(   5) = (   0.7606250   0.2940520   0.4963731  )
         6           W   tau(   6) = (   0.2442433   0.7575178   0.5095508  )
         7           W   tau(   7) = (   0.7466774   0.2317329   0.9993351  )
         8           W   tau(   8) = (   0.2581908   0.8198368   0.0065888  )
         9           O   tau(   9) = (   0.2383548   0.0081106   0.0020521  )
        10           O   tau(  10) = (   0.7665134   1.0434592   1.0038718  )
        11           O   tau(  11) = (   0.2640793   0.5176743   0.5050141  )
        12           O   tau(  12) = (   0.7407889   0.5338955   0.5009099  )
        13           O   tau(  13) = (   0.7665134   0.0081106   0.5009099  )
        14           O   tau(  14) = (   0.2383548   1.0434592   0.5050141  )
        15           O   tau(  15) = (   0.7407889   0.5176743   1.0038718  )
        16           O   tau(  16) = (   0.2640793   0.5338955   0.0020521  )
        17           O   tau(  17) = (   0.5043434   0.2490853   0.4576846  )
        18           O   tau(  18) = (   0.5005248   0.8024845   0.5482393  )
        19           O   tau(  19) = (   1.0029590   0.2766996   0.9606466  )
        20           O   tau(  20) = (   0.0019092   0.7748703   0.0452773  )
        21           O   tau(  21) = (   0.5005248   0.2490853   0.0452773  )
        22           O   tau(  22) = (   0.5043434   0.8024845   0.9606466  )
        23           O   tau(  23) = (   0.0019092   0.2766996   0.5482393  )
        24           O   tau(  24) = (   1.0029590   0.7748703   0.4576846  )
        25           O   tau(  25) = (   0.7084214   0.2598744   0.7515459  )
        26           O   tau(  26) = (   0.2964469   0.7916953   0.2543780  )
        27           O   tau(  27) = (   0.7988810   0.2659104   0.2485839  )
        28           O   tau(  28) = (   0.2059872   0.7856594   0.7573399  )
        29           O   tau(  29) = (   0.2964469   0.2598744   0.7573399  )
        30           O   tau(  30) = (   0.7084214   0.7916953   0.2485839  )
        31           O   tau(  31) = (   0.2059872   0.2659104   0.2543780  )
        32           O   tau(  32) = (   0.7988810   0.7856594   0.7515459  )

     number of k points=    64  gaussian smearing, width (Ry)=  0.0007
                       cart. coord. in units 2pi/alat
        k(    1) = (   0.0000000   0.0000000   0.0000000), wk =   0.0092593
        k(    2) = (   0.0000000   0.0000000   0.1656852), wk =   0.0185185
        k(    3) = (   0.0000000   0.0000000   0.3313703), wk =   0.0185185
        k(    4) = (   0.0000000   0.0000000  -0.4970555), wk =   0.0092593
        k(    5) = (   0.0000000   0.1584932   0.0000000), wk =   0.0185185
        k(    6) = (   0.0000000   0.1584932   0.1656852), wk =   0.0370370
        k(    7) = (   0.0000000   0.1584932   0.3313703), wk =   0.0370370
        k(    8) = (   0.0000000   0.1584932  -0.4970555), wk =   0.0185185
        k(    9) = (   0.0000000   0.3169864   0.0000000), wk =   0.0185185
        k(   10) = (   0.0000000   0.3169864   0.1656852), wk =   0.0370370
        k(   11) = (   0.0000000   0.3169864   0.3313703), wk =   0.0370370
        k(   12) = (   0.0000000   0.3169864  -0.4970555), wk =   0.0185185
        k(   13) = (   0.0000000  -0.4754796   0.0000000), wk =   0.0092593
        k(   14) = (   0.0000000  -0.4754796   0.1656852), wk =   0.0185185
        k(   15) = (   0.0000000  -0.4754796   0.3313703), wk =   0.0185185
        k(   16) = (   0.0000000  -0.4754796  -0.4970555), wk =   0.0092593
        k(   17) = (   0.1658592   0.0000000   0.1656852), wk =   0.0370370
        k(   18) = (   0.1658592   0.0000000   0.3313703), wk =   0.0370370
        k(   19) = (   0.1658592   0.0000000  -0.4970555), wk =   0.0185185
        k(   20) = (   0.1658592   0.1584932   0.1656852), wk =   0.0740741
        k(   21) = (   0.1658592   0.1584932   0.3313703), wk =   0.0740741
        k(   22) = (   0.1658592   0.1584932  -0.4970555), wk =   0.0370370
        k(   23) = (   0.1658592   0.3169864   0.1656852), wk =   0.0740741
        k(   24) = (   0.1658592   0.3169864   0.3313703), wk =   0.0740741
        k(   25) = (   0.1658592   0.3169864  -0.4970555), wk =   0.0370370
        k(   26) = (   0.1658592  -0.4754796   0.1656852), wk =   0.0370370
        k(   27) = (   0.1658592  -0.4754796   0.3313703), wk =   0.0370370
        k(   28) = (   0.1658592  -0.4754796  -0.4970555), wk =   0.0185185
        k(   29) = (   0.3317184   0.0000000   0.3313703), wk =   0.0370370
        k(   30) = (   0.3317184   0.0000000  -0.4970555), wk =   0.0185185
        k(   31) = (   0.3317184   0.1584932   0.3313703), wk =   0.0740741
        k(   32) = (   0.3317184   0.1584932  -0.4970555), wk =   0.0370370
        k(   33) = (   0.3317184   0.3169864   0.3313703), wk =   0.0740741
        k(   34) = (   0.3317184   0.3169864  -0.4970555), wk =   0.0370370
        k(   35) = (   0.3317184  -0.4754796   0.3313703), wk =   0.0370370
        k(   36) = (   0.3317184  -0.4754796  -0.4970555), wk =   0.0185185
        k(   37) = (  -0.4975777   0.0000000  -0.4970555), wk =   0.0092593
        k(   38) = (  -0.4975777   0.1584932  -0.4970555), wk =   0.0185185
        k(   39) = (  -0.4975777   0.3169864  -0.4970555), wk =   0.0185185
        k(   40) = (  -0.4975777  -0.4754796  -0.4970555), wk =   0.0092593
        k(   41) = (   0.1658592   0.0000000   0.0000000), wk =   0.0185185
        k(   42) = (   0.3317184   0.0000000   0.0000000), wk =   0.0185185
        k(   43) = (  -0.4975777   0.0000000   0.0000000), wk =   0.0092593
        k(   44) = (   0.1658592  -0.1584932   0.0000000), wk =   0.0370370
        k(   45) = (   0.3317184  -0.1584932   0.0000000), wk =   0.0370370
        k(   46) = (  -0.4975777  -0.1584932   0.0000000), wk =   0.0185185
        k(   47) = (   0.1658592  -0.3169864   0.0000000), wk =   0.0370370
        k(   48) = (   0.3317184  -0.3169864   0.0000000), wk =   0.0370370
        k(   49) = (  -0.4975777  -0.3169864   0.0000000), wk =   0.0185185
        k(   50) = (   0.1658592   0.4754796   0.0000000), wk =   0.0185185
        k(   51) = (   0.3317184   0.4754796   0.0000000), wk =   0.0185185
        k(   52) = (  -0.4975777   0.4754796   0.0000000), wk =   0.0092593
        k(   53) = (   0.3317184   0.0000000   0.1656852), wk =   0.0370370
        k(   54) = (  -0.4975777   0.0000000   0.1656852), wk =   0.0185185
        k(   55) = (   0.3317184  -0.1584932   0.1656852), wk =   0.0740741
        k(   56) = (  -0.4975777  -0.1584932   0.1656852), wk =   0.0370370
        k(   57) = (   0.3317184  -0.3169864   0.1656852), wk =   0.0740741
        k(   58) = (  -0.4975777  -0.3169864   0.1656852), wk =   0.0370370
        k(   59) = (   0.3317184   0.4754796   0.1656852), wk =   0.0370370
        k(   60) = (  -0.4975777   0.4754796   0.1656852), wk =   0.0185185
        k(   61) = (  -0.4975777   0.0000000   0.3313703), wk =   0.0185185
        k(   62) = (  -0.4975777  -0.1584932   0.3313703), wk =   0.0370370
        k(   63) = (  -0.4975777  -0.3169864   0.3313703), wk =   0.0370370
        k(   64) = (  -0.4975777   0.4754796   0.3313703), wk =   0.0185185

     Initial potential from superposition of free atoms

     starting charge  367.99656, renormalised to  368.00000
     Starting wfc are  232 randomized atomic wfcs

     Writing output data file Landau_15.save

     Self-consistent Calculation

     iteration #  1     ecut=   120.00 Ry     beta= 0.70
     Davidson diagonalization with overlap
     c_bands:  1 eigenvalues not converged
     ethr =  1.00E-06,  avg # of iterations = 14.5

[...]

     total energy              =   -6261.11062569 Ry
     Harris-Foulkes estimate   =   -6261.11062569 Ry
     estimated scf accuracy    <          1.3E-10 Ry

     iteration # 15     ecut=   120.00 Ry     beta= 0.70
     Davidson diagonalization with overlap
     ethr =  1.00E-13,  avg # of iterations =  2.0

     End of self-consistent calculation

[...]

          k = 0.3317 0.4755 0.1657 ( 62546 PWs)   bands (ev):

[...]

          k =-0.4976 0.4755 0.3314 ( 62516 PWs)   bands (ev):

   -66.2536 -66.2536 -66.2536 -66.2536 -66.2531 -66.2531 -66.2531 -66.2531
   -30.6090 -30.6090 -30.6085 -30.6085 -30.6062 -30.6062 -30.6056 -30.6056
   -30.5728 -30.5728 -30.5727 -30.5727 -30.5476 -30.5476 -30.5470 -30.5470
   -30.5457 -30.5457 -30.5450 -30.5450 -30.5248 -30.5248 -30.5247 -30.5247
   -20.4170 -20.4170 -20.4169 -20.4169 -20.4168 -20.4168 -20.4168 -20.4168
   -20.3948 -20.3947 -20.3947 -20.3947 -20.3943 -20.3943 -20.3943 -20.3943
   -20.3923 -20.3923 -20.3923 -20.3923 -20.3920 -20.3920 -20.3920 -20.3920
   -20.3916 -20.3916 -20.3915 -20.3915 -20.3914 -20.3914 -20.3913 -20.3913
   -20.3824 -20.3824 -20.3824 -20.3824 -20.3810 -20.3810 -20.3810 -20.3810
   -20.3804 -20.3804 -20.3804 -20.3804 -20.3786 -20.3786 -20.3786 -20.3786
   -20.3764 -20.3764 -20.3764 -20.3764 -20.3753 -20.3753 -20.3753 -20.3753
    -9.2537  -9.2537  -9.2477  -9.2476  -8.8615  -8.8615  -8.8457  -8.8457
    -8.6236  -8.6236  -8.6088  -8.6088  -8.4691  -8.4691  -8.4493  -8.4493
    -8.4217  -8.4217  -8.4054  -8.4054  -8.1831  -8.1831  -8.1823  -8.1823
     2.1769   2.1769   2.1854   2.1854   2.9100   2.9100   2.9557   2.9557
     3.0476   3.0476   3.0554   3.0554   3.1732   3.1732   3.1855   3.1855
     3.3342   3.3342   3.3734   3.3734   3.5440   3.5440   3.5905   3.5905
     3.6979   3.6979   3.8055   3.8055   4.1668   4.1668   4.1876   4.1876
     4.2339   4.2339   4.3018   4.3018   4.3843   4.3843   4.4758   4.4758
     4.5891   4.5891   4.7240   4.7240   4.9714   4.9714   4.9943   4.9943
     6.9346   6.9346   7.0113   7.0113   7.0968   7.0968   7.1069   7.1069
     7.2027   7.2027   7.2481   7.2481   7.3113   7.3113   7.3326   7.3326
     7.4104   7.4104   7.4871   7.4871   7.5337   7.5337   7.5741   7.5741
    11.3659  11.3659  11.4017  11.4017  11.6202  11.6202  11.7018  11.7018
    12.0996  12.0996  12.1560  12.1560  12.1913  12.1913  12.2559  12.2559
    12.3965  12.3965  12.5180  12.5180  12.8341  12.8341  12.9139  12.9139
    16.4195  16.4195  16.4655  16.4655  16.9867  16.9867  17.0353  17.0353
    17.2709  17.2709  17.3544  17.3551  17.3945

     the Fermi energy is     8.9088 ev

!    total energy              =   -6261.11062569 Ry
     Harris-Foulkes estimate   =   -6261.11062569 Ry
     estimated scf accuracy    <          7.1E-12 Ry

     The total energy is the sum of the following terms:

     one-electron contribution =   -4738.91837480 Ry
     hartree contribution      =    2605.12821360 Ry
     xc contribution           =    -965.66805215 Ry
     ewald contribution        =   -3161.65241233 Ry
     smearing contrib. (-TS)   =      -0.00000000 Ry

     convergence has been achieved in  15 iterations

     Forces acting on atoms (cartesian axes, Ry/au):

     atom    1 type  1   force =    -0.00310512    0.00397635    0.00231380
     atom    2 type  1   force =     0.00310512   -0.00397635   -0.00231380
     atom    3 type  1   force =     0.00310512   -0.00397635    0.00231380
     atom    4 type  1   force =    -0.00310512    0.00397635   -0.00231380
     atom    5 type  1   force =     0.00310512    0.00397635   -0.00231380
     atom    6 type  1   force =    -0.00310512   -0.00397635    0.00231380
     atom    7 type  1   force =    -0.00310512   -0.00397635   -0.00231380
     atom    8 type  1   force =     0.00310512    0.00397635    0.00231380
     atom    9 type  2   force =    -0.00030506   -0.00185516    0.00008437
     atom   10 type  2   force =     0.00030506    0.00185516   -0.00008437
     atom   11 type  2   force =     0.00030506    0.00185516    0.00008437
     atom   12 type  2   force =    -0.00030506   -0.00185516   -0.00008437
     atom   13 type  2   force =     0.00030506   -0.00185516   -0.00008437
     atom   14 type  2   force =    -0.00030506    0.00185516    0.00008437
     atom   15 type  2   force =    -0.00030506    0.00185516   -0.00008437
     atom   16 type  2   force =     0.00030506   -0.00185516    0.00008437
     atom   17 type  2   force =    -0.00159751   -0.00010705   -0.00023680
     atom   18 type  2   force =     0.00159751    0.00010705    0.00023680
     atom   19 type  2   force =     0.00159751    0.00010705   -0.00023680
     atom   20 type  2   force =    -0.00159751   -0.00010705    0.00023680
     atom   21 type  2   force =     0.00159751   -0.00010705    0.00023680
     atom   22 type  2   force =    -0.00159751    0.00010705   -0.00023680
     atom   23 type  2   force =    -0.00159751    0.00010705    0.00023680
     atom   24 type  2   force =     0.00159751   -0.00010705   -0.00023680
     atom   25 type  2   force =    -0.00093253   -0.00061069    0.00153962
     atom   26 type  2   force =     0.00093253    0.00061069   -0.00153962
     atom   27 type  2   force =     0.00093253    0.00061069    0.00153962
     atom   28 type  2   force =    -0.00093253   -0.00061069   -0.00153962
     atom   29 type  2   force =     0.00093253   -0.00061069   -0.00153962
     atom   30 type  2   force =    -0.00093253    0.00061069    0.00153962
     atom   31 type  2   force =    -0.00093253    0.00061069   -0.00153962
     atom   32 type  2   force =     0.00093253   -0.00061069    0.00153962

     Total force =     0.000000     Total SCF correction =     0.000000

     Computing stress (Cartesian axis) and pressure

          total   stress  (Ry/bohr**3)                   (kbar)     P=    0.16
   0.00000165   0.00000000   0.00000000          0.24      0.00      0.00
   0.00000000  -0.00000039   0.00000000          0.00     -0.06      0.00
   0.00000000   0.00000000   0.00000191          0.00      0.00      0.28

     Writing output data file Landau_15.save

     General routines

     Parallel routines

   This run was terminated on:  15:46:54  11Mar2020

   JOB DONE.