     Program PWSCF v.6.4.1 starts on 21Nov2019 at 16: 7:41

     K-points division:     npool     =      40
     Reading input from scf.in

     Current dimensions of program PWSCF are:
     Max number of different atomic species (ntypx) = 10
     Max number of k-points (npk) =  40000
     Max angular momentum in pseudopotentials (lmaxx) =  3

     Subspace diagonalization in iterative solution of the eigenvalue problem:
     a serial algorithm will be used

     Message from routine setup:
     using ibrav=0 with symmetry is DISCOURAGED, use correct ibrav instead

     bravais-lattice index     =            0
     lattice parameter (alat)  =       9.8338  a.u.
     unit-cell volume          =    1411.8940 (a.u.)^3
     number of atoms/cell      =           16
     number of atomic types    =            2
     number of electrons       =       184.42
     number of Kohn-Sham states=          111
     kinetic-energy cutoff     =     120.0000  Ry
     charge density cutoff     =     480.0000  Ry
     convergence threshold     =      1.0E-08
     mixing beta               =       0.7000
     number of iterations used =            8  plain     mixing
     Exchange-correlation      = SLA PW NOGX NOGC ( 1  4  0  0 0 0)

     celldm(1)=   9.833793  celldm(2)=   0.000000  celldm(3)=   0.000000
     celldm(4)=   0.000000  celldm(5)=   0.000000  celldm(6)=   0.000000

     crystal axes: (cart. coord. in units of alat)
               a(1) = (   1.000000   0.000000   0.000000 )
               a(2) = (   0.000000   1.000000   0.000000 )
               a(3) = (   0.000000   0.000000   1.484701 )

     reciprocal axes: (cart. coord. in units 2 pi/alat)
               b(1) = (  1.000000  0.000000  0.000000 )
               b(2) = (  0.000000  1.000000  0.000000 )
               b(3) = (  0.000000  0.000000  0.673536 )

     PseudoPot. # 1 for W  read from file:
     /cluster/scratch/mnoe/QE/pps/W_ONCV_LDA-4.0.upf
     MD5 check sum: ba0307d5d4cd419d6f1d13dc49d7c13a
     Pseudo is Norm-conserving + core correction, Zval = 28.0
     Generated using ONCVPSP code by D. R. Hamann
     Using radial grid of 1380 points,  8 beta functions with:
                l(1) =   0
                l(2) =   0
                l(3) =   1
                l(4) =   1
                l(5) =   2
                l(6) =   2
                l(7) =   3
                l(8) =   3

     PseudoPot. # 2 for O  read from file:
     /cluster/scratch/mnoe/QE/pps/O_ONCV_LDA-3.0.upf
     MD5 check sum: b55cdb4f45ae2203d24ad12cf8d61a31
     Pseudo is Norm-conserving + core correction, Zval =  6.0
     Generated using ONCVPSP code by D. R. Hamann
     Using radial grid of  926 points,  5 beta functions with:
                l(1) =   0
                l(2) =   0
                l(3) =   1
                l(4) =   1
                l(5) =   2

     atomic species   valence    mass     pseudopotential
        W             28.00   183.84000     W ( 1.00)
        O              6.00    15.99940     O ( 1.00)

     16 Sym. Ops., with inversion, found (14 have fractional translation)

   Cartesian axes

     site n.     atom                  positions (alat units)
         1           W   tau(   1) = (   0.2500000   0.2500000   0.3213226  )
         2           W   tau(   2) = (   0.7500000   0.7500000   1.1633780  )
         3           W   tau(   3) = (   0.7500000   0.7500000   0.4210277  )
         4           W   tau(   4) = (   0.2500000   0.2500000   1.0636730  )
         5           O   tau(   5) = (   0.2500000   0.2500000   0.7252135  )
         6           O   tau(   6) = (   0.7500000   0.7500000   0.7594872  )
         7           O   tau(   7) = (   0.7500000   0.7500000   0.0171369  )
         8           O   tau(   8) = (   0.2500000   0.2500000   1.4675638  )
         9           O   tau(   9) = (   0.4581870   0.5418129   0.3711752  )
        10           O   tau(  10) = (   0.5418130   0.4581871   1.1135255  )
        11           O   tau(  11) = (   0.0418129   0.9581871   0.3711752  )
        12           O   tau(  12) = (   0.9581870   0.0418130   1.1135255  )
        13           O   tau(  13) = (   0.9581871   0.4581870   0.3711752  )
        14           O   tau(  14) = (   0.0418130   0.5418130   1.1135255  )
        15           O   tau(  15) = (   0.5418129   0.0418129   0.3711752  )
        16           O   tau(  16) = (   0.4581871   0.9581870   1.1135255  )

     number of k points=    40  gaussian smearing, width (Ry)=  0.0007
                       cart. coord. in units 2pi/alat
        k(    1) = (   0.0000000   0.0000000   0.0000000), wk =   0.0092593
        k(    2) = (   0.0000000   0.0000000   0.1122561), wk =   0.0185185
        k(    3) = (   0.0000000   0.0000000   0.2245121), wk =   0.0185185
        k(    4) = (   0.0000000   0.0000000  -0.3367682), wk =   0.0092593
        k(    5) = (   0.0000000   0.1666667   0.0000000), wk =   0.0370370
        k(    6) = (   0.0000000   0.1666667   0.1122561), wk =   0.0740741
        k(    7) = (   0.0000000   0.1666667   0.2245121), wk =   0.0740741
        k(    8) = (   0.0000000   0.1666667  -0.3367682), wk =   0.0370370
        k(    9) = (   0.0000000   0.3333333   0.0000000), wk =   0.0370370
        k(   10) = (   0.0000000   0.3333333   0.1122561), wk =   0.0740741
        k(   11) = (   0.0000000   0.3333333   0.2245121), wk =   0.0740741
        k(   12) = (   0.0000000   0.3333333  -0.3367682), wk =   0.0370370
        k(   13) = (   0.0000000  -0.5000000   0.0000000), wk =   0.0185185
        k(   14) = (   0.0000000  -0.5000000   0.1122561), wk =   0.0370370
        k(   15) = (   0.0000000  -0.5000000   0.2245121), wk =   0.0370370
        k(   16) = (   0.0000000  -0.5000000  -0.3367682), wk =   0.0185185
        k(   17) = (   0.1666667   0.1666667   0.0000000), wk =   0.0370370
        k(   18) = (   0.1666667   0.1666667   0.1122561), wk =   0.0740741
        k(   19) = (   0.1666667   0.1666667   0.2245121), wk =   0.0740741
        k(   20) = (   0.1666667   0.1666667  -0.3367682), wk =   0.0370370
        k(   21) = (   0.1666667   0.3333333   0.0000000), wk =   0.0740741
        k(   22) = (   0.1666667   0.3333333   0.1122561), wk =   0.1481481
        k(   23) = (   0.1666667   0.3333333   0.2245121), wk =   0.1481481
        k(   24) = (   0.1666667   0.3333333  -0.3367682), wk =   0.0740741
        k(   25) = (   0.1666667  -0.5000000   0.0000000), wk =   0.0370370
        k(   26) = (   0.1666667  -0.5000000   0.1122561), wk =   0.0740741
        k(   27) = (   0.1666667  -0.5000000   0.2245121), wk =   0.0740741
        k(   28) = (   0.1666667  -0.5000000  -0.3367682), wk =   0.0370370
        k(   29) = (   0.3333333   0.3333333   0.0000000), wk =   0.0370370
        k(   30) = (   0.3333333   0.3333333   0.1122561), wk =   0.0740741
        k(   31) = (   0.3333333   0.3333333   0.2245121), wk =   0.0740741
        k(   32) = (   0.3333333   0.3333333  -0.3367682), wk =   0.0370370
        k(   33) = (   0.3333333  -0.5000000   0.0000000), wk =   0.0370370
        k(   34) = (   0.3333333  -0.5000000   0.1122561), wk =   0.0740741
        k(   35) = (   0.3333333  -0.5000000   0.2245121), wk =   0.0740741
        k(   36) = (   0.3333333  -0.5000000  -0.3367682), wk =   0.0370370
        k(   37) = (  -0.5000000  -0.5000000   0.0000000), wk =   0.0092593
        k(   38) = (  -0.5000000  -0.5000000   0.1122561), wk =   0.0185185
        k(   39) = (  -0.5000000  -0.5000000   0.2245121), wk =   0.0185185
        k(   40) = (  -0.5000000  -0.5000000  -0.3367682), wk =   0.0092593

     Initial potential from superposition of free atoms

     starting charge  183.99828, renormalised to  184.42000
     Starting wfcs are  116 randomized atomic wfcs

     Self-consistent Calculation

     iteration #  1     ecut=   120.00 Ry     beta= 0.70
     Davidson diagonalization with overlap
     ethr =  1.00E-02,  avg # of iterations =  4.8

     total energy              =   -3126.60484573 Ry
     Harris-Foulkes estimate   =   -3132.07903856 Ry
     estimated scf accuracy    <       6.88181855 Ry

[...]

     total energy              =   -3130.25684163 Ry
     Harris-Foulkes estimate   =   -3130.25684166 Ry
     estimated scf accuracy    <       0.00000005 Ry

     iteration # 12     ecut=   120.00 Ry     beta= 0.70
     Davidson diagonalization with overlap
     ethr =  2.70E-11,  avg # of iterations =  2.0

     End of self-consistent calculation

          k = 0.0000 0.0000 0.0000 ( 31343 PWs)   bands (ev):

   -66.0959 -66.0954 -66.0941 -66.0936 -30.5460 -30.5400 -30.4832 -30.4785
   -30.4280 -30.4280 -30.4245 -30.4245 -30.3361 -30.3361 -30.3332 -30.3332
   -20.2500 -20.2496 -20.2443 -20.2438 -20.2411 -20.2410 -20.2409 -20.2408
   -20.2369 -20.2369 -20.2358 -20.2358 -20.2339 -20.2339 -20.2327 -20.2327
   -20.2226 -20.2224 -20.2220 -20.2219 -20.1847 -20.1847 -20.1847 -20.1847
   -20.1808 -20.1808 -20.1808 -20.1808 -10.0043  -9.6846  -9.1970  -9.0582
    -9.0429  -8.9479  -7.9342  -7.8224  -7.6796  -7.6796  -7.6571  -7.6571
     1.1640   1.1641   1.2748   1.5120   1.5665   1.7399   2.4124   2.4976
     2.6100   2.6100   4.0933   4.0933   4.9071   4.9071   4.9882   5.4893
     5.4893   5.5074   5.5074   5.7475   5.7475   5.8844   5.9001   6.6900
     6.6900   6.8238   6.9979   7.0054   7.3036   7.3036   7.3363   7.3363
     7.9467   7.9575   8.0503   8.0503   9.1999   9.2041   9.9072   9.9072
    12.3165  12.3165  13.1058  13.1064  13.3804  13.3804  13.7117  14.1713
    14.1713  14.7075  15.2235  15.2322  15.4869  16.7149  17.2597

[...]

          k = 0.3333-0.5000-0.3368 ( 31364 PWs)   bands (ev):

[...]

          k =-0.5000-0.5000 0.0000 ( 31408 PWs)   bands (ev):

[...]

          k =-0.5000-0.5000-0.3368 ( 31440 PWs)   bands (ev):

   -66.0948 -66.0947 -66.0947 -66.0947 -30.5121 -30.5121 -30.5121 -30.5120
   -30.4314 -30.4314 -30.4314 -30.4314 -30.3303 -30.3303 -30.3303 -30.3303
   -20.2470 -20.2470 -20.2470 -20.2470 -20.2409 -20.2409 -20.2409 -20.2409
   -20.2364 -20.2364 -20.2364 -20.2364 -20.2333 -20.2333 -20.2332 -20.2332
   -20.2223 -20.2223 -20.2222 -20.2222 -20.1863 -20.1863 -20.1863 -20.1863
   -20.1792 -20.1792 -20.1792 -20.1792  -9.3714  -9.3714  -9.3714  -9.3714
    -8.5307  -8.5307  -8.5307  -8.5307  -7.7837  -7.7837  -7.7837  -7.7837
     1.2708   1.2708   1.2708   1.2708   3.1131   3.1131   3.1131   3.1131
     3.3622   3.3622   3.3623   3.3623   4.7870   4.7871   4.7871   4.7871
     5.2490   5.2490   5.2490   5.2490   5.9933   5.9933   5.9933   5.9933
     6.1487   6.1487   6.1487   6.1487   6.6767   6.6767   6.6767   6.6767
     7.4015   7.4015   7.4015   7.4015  11.2759  11.2759  11.2759  11.2759
    12.3836  12.3836  12.3836  12.3836  13.5833  13.5833  13.5834  13.5834
    15.5287  15.5287  15.5287  15.5287  18.0816  18.0816  18.0816

     the Fermi energy is     9.8391 ev

!    total energy              =   -3130.25684163 Ry
     Harris-Foulkes estimate   =   -3130.25684163 Ry
     estimated scf accuracy    <          2.0E-09 Ry

     The total energy is the sum of the following terms:

     one-electron contribution =   -2375.69585527 Ry
     hartree contribution      =    1306.73509586 Ry
     xc contribution           =    -483.30400367 Ry
     ewald contribution        =   -1577.99203812 Ry
     smearing contrib. (-TS)   =      -0.00004044 Ry

     convergence has been achieved in  12 iterations

     Writing output data file Landau_5.save/

     General routines

     Parallel routines

   This run was terminated on:  16:10:47  21Nov2019

   JOB DONE.