     Program PWSCF v.6.4.1 starts on 22Nov2019 at 12:36:21

     K-points division:     npool     =      40
     Reading input from scf.in

     Current dimensions of program PWSCF are:
     Max number of different atomic species (ntypx) = 10
     Max number of k-points (npk) =  40000
     Max angular momentum in pseudopotentials (lmaxx) =  3

     Subspace diagonalization in iterative solution of the eigenvalue problem:
     a serial algorithm will be used

     Message from routine setup:
     using ibrav=0 with symmetry is DISCOURAGED, use correct ibrav instead

     bravais-lattice index     =            0
     lattice parameter (alat)  =      14.1078  a.u.
     unit-cell volume          =    2792.5419 (a.u.)^3
     number of atoms/cell      =           32
     number of atomic types    =            2
     number of electrons       =       368.68
     number of Kohn-Sham states=          221
     kinetic-energy cutoff     =     120.0000  Ry
     charge density cutoff     =     480.0000  Ry
     convergence threshold     =      1.0E-08
     mixing beta               =       0.7000
     number of iterations used =            8  plain     mixing
     Exchange-correlation      = SLA PW NOGX NOGC ( 1  4  0  0 0 0)

     celldm(1)=  14.107758  celldm(2)=   0.000000  celldm(3)=   0.000000
     celldm(4)=   0.000000  celldm(5)=   0.000000  celldm(6)=   0.000000

     crystal axes: (cart. coord. in units of alat)
               a(1) = (   1.000000   0.000000   0.000000 )
               a(2) = (   0.000000   1.003456   0.000000 )
               a(3) = (   0.000000   0.000000   0.991123 )

     reciprocal axes: (cart. coord. in units 2 pi/alat)
               b(1) = (  1.000000  0.000000  0.000000 )
               b(2) = (  0.000000  0.996556  0.000000 )
               b(3) = (  0.000000  0.000000  1.008956 )

     PseudoPot. # 1 for W  read from file:
     /cluster/scratch/mnoe/QE/pps/W_ONCV_LDA-4.0.upf
     MD5 check sum: ba0307d5d4cd419d6f1d13dc49d7c13a
     Pseudo is Norm-conserving + core correction, Zval = 28.0
     Generated using ONCVPSP code by D. R. Hamann
     Using radial grid of 1380 points,  8 beta functions with:
                l(1) =   0
                l(2) =   0
                l(3) =   1
                l(4) =   1
                l(5) =   2
                l(6) =   2
                l(7) =   3
                l(8) =   3

     PseudoPot. # 2 for O  read from file:
     /cluster/scratch/mnoe/QE/pps/O_ONCV_LDA-3.0.upf
     MD5 check sum: b55cdb4f45ae2203d24ad12cf8d61a31
     Pseudo is Norm-conserving + core correction, Zval =  6.0
     Generated using ONCVPSP code by D. R. Hamann
     Using radial grid of  926 points,  5 beta functions with:
                l(1) =   0
                l(2) =   0
                l(3) =   1
                l(4) =   1
                l(5) =   2

     atomic species   valence    mass     pseudopotential
        W             28.00   183.84000     W ( 1.00)
        O              6.00    15.99940     O ( 1.00)

      8 Sym. Ops., with inversion, found ( 6 have fractional translation)

   Cartesian axes

     site n.     atom                  positions (alat units)
         1           W   tau(   1) = (   0.2315000   0.2964649   0.0173149  )
         2           W   tau(   2) = (   0.7685000   0.7069907   0.9738081  )
         3           W   tau(   3) = (   0.2685000   0.2052629   0.5128764  )
         4           W   tau(   4) = (   0.7315000   0.7981927   0.4782466  )
         5           W   tau(   5) = (   0.7685000   0.2964649   0.4782466  )
         6           W   tau(   6) = (   0.2315000   0.7069907   0.5128764  )
         7           W   tau(   7) = (   0.7315000   0.2052629   0.9738081  )
         8           W   tau(   8) = (   0.2685000   0.7981927   0.0173149  )
         9           O   tau(   9) = (   0.2158700   0.0341416   0.0053818  )
        10           O   tau(  10) = (   0.7841300   0.9693141   0.9857412  )
        11           O   tau(  11) = (   0.2841300   0.4675862   0.5009433  )
        12           O   tau(  12) = (   0.7158700   0.5358694   0.4901797  )
        13           O   tau(  13) = (   0.7841300   0.0341416   0.4901797  )
        14           O   tau(  14) = (   0.2158700   0.9693141   0.5009433  )
        15           O   tau(  15) = (   0.7158700   0.4675862   0.9857412  )
        16           O   tau(  16) = (   0.2841300   0.5358694   0.0053818  )
        17           O   tau(  17) = (   0.5050600   0.2157329   0.5151382  )
        18           O   tau(  18) = (   0.4949400   0.7877227   0.4759848  )
        19           O   tau(  19) = (   0.9949400   0.2859948   1.0106997  )
        20           O   tau(  20) = (   0.0050600   0.7174607  -0.0195766  )
        21           O   tau(  21) = (   0.4949400   0.2157329  -0.0195766  )
        22           O   tau(  22) = (   0.5050600   0.7877227   1.0106997  )
        23           O   tau(  23) = (   0.0050600   0.2859948   0.4759848  )
        24           O   tau(  24) = (   0.9949400   0.7174607   0.5151382  )
        25           O   tau(  25) = (   0.7697521   0.2431975   0.7357404  )
        26           O   tau(  26) = (   0.2302480   0.7602581   0.2553827  )
        27           O   tau(  27) = (   0.7302480   0.2585303   0.2401789  )
        28           O   tau(  28) = (   0.2697521   0.7449253   0.7509442  )
        29           O   tau(  29) = (   0.2302480   0.2431975   0.7509442  )
        30           O   tau(  30) = (   0.7697521   0.7602581   0.2401789  )
        31           O   tau(  31) = (   0.2697521   0.2585303   0.2553827  )
        32           O   tau(  32) = (   0.7302480   0.7449253   0.7357404  )

     number of k points=    64  gaussian smearing, width (Ry)=  0.0007
                       cart. coord. in units 2pi/alat
        k(    1) = (   0.0000000   0.0000000   0.0000000), wk =   0.0092593
        k(    2) = (   0.0000000   0.0000000   0.1681594), wk =   0.0185185
        k(    3) = (   0.0000000   0.0000000   0.3363188), wk =   0.0185185
        k(    4) = (   0.0000000   0.0000000  -0.5044782), wk =   0.0092593
        k(    5) = (   0.0000000   0.1660927   0.0000000), wk =   0.0185185
        k(    6) = (   0.0000000   0.1660927   0.1681594), wk =   0.0370370
        k(    7) = (   0.0000000   0.1660927   0.3363188), wk =   0.0370370
        k(    8) = (   0.0000000   0.1660927  -0.5044782), wk =   0.0185185
        k(    9) = (   0.0000000   0.3321854   0.0000000), wk =   0.0185185
        k(   10) = (   0.0000000   0.3321854   0.1681594), wk =   0.0370370
        k(   11) = (   0.0000000   0.3321854   0.3363188), wk =   0.0370370
        k(   12) = (   0.0000000   0.3321854  -0.5044782), wk =   0.0185185
        k(   13) = (   0.0000000  -0.4982782   0.0000000), wk =   0.0092593
        k(   14) = (   0.0000000  -0.4982782   0.1681594), wk =   0.0185185
        k(   15) = (   0.0000000  -0.4982782   0.3363188), wk =   0.0185185
        k(   16) = (   0.0000000  -0.4982782  -0.5044782), wk =   0.0092593
        k(   17) = (   0.1666667   0.0000000   0.0000000), wk =   0.0185185
        k(   18) = (   0.1666667   0.0000000   0.1681594), wk =   0.0370370
        k(   19) = (   0.1666667   0.0000000   0.3363188), wk =   0.0370370
        k(   20) = (   0.1666667   0.0000000  -0.5044782), wk =   0.0185185
        k(   21) = (   0.1666667   0.1660927   0.0000000), wk =   0.0370370
        k(   22) = (   0.1666667   0.1660927   0.1681594), wk =   0.0740741
        k(   23) = (   0.1666667   0.1660927   0.3363188), wk =   0.0740741
        k(   24) = (   0.1666667   0.1660927  -0.5044782), wk =   0.0370370
        k(   25) = (   0.1666667   0.3321854   0.0000000), wk =   0.0370370
        k(   26) = (   0.1666667   0.3321854   0.1681594), wk =   0.0740741
        k(   27) = (   0.1666667   0.3321854   0.3363188), wk =   0.0740741
        k(   28) = (   0.1666667   0.3321854  -0.5044782), wk =   0.0370370
        k(   29) = (   0.1666667  -0.4982782   0.0000000), wk =   0.0185185
        k(   30) = (   0.1666667  -0.4982782   0.1681594), wk =   0.0370370
        k(   31) = (   0.1666667  -0.4982782   0.3363188), wk =   0.0370370
        k(   32) = (   0.1666667  -0.4982782  -0.5044782), wk =   0.0185185
        k(   33) = (   0.3333333   0.0000000   0.0000000), wk =   0.0185185
        k(   34) = (   0.3333333   0.0000000   0.1681594), wk =   0.0370370
        k(   35) = (   0.3333333   0.0000000   0.3363188), wk =   0.0370370
        k(   36) = (   0.3333333   0.0000000  -0.5044782), wk =   0.0185185
        k(   37) = (   0.3333333   0.1660927   0.0000000), wk =   0.0370370
        k(   38) = (   0.3333333   0.1660927   0.1681594), wk =   0.0740741
        k(   39) = (   0.3333333   0.1660927   0.3363188), wk =   0.0740741
        k(   40) = (   0.3333333   0.1660927  -0.5044782), wk =   0.0370370
        k(   41) = (   0.3333333   0.3321854   0.0000000), wk =   0.0370370
        k(   42) = (   0.3333333   0.3321854   0.1681594), wk =   0.0740741
        k(   43) = (   0.3333333   0.3321854   0.3363188), wk =   0.0740741
        k(   44) = (   0.3333333   0.3321854  -0.5044782), wk =   0.0370370
        k(   45) = (   0.3333333  -0.4982782   0.0000000), wk =   0.0185185
        k(   46) = (   0.3333333  -0.4982782   0.1681594), wk =   0.0370370
        k(   47) = (   0.3333333  -0.4982782   0.3363188), wk =   0.0370370
        k(   48) = (   0.3333333  -0.4982782  -0.5044782), wk =   0.0185185
        k(   49) = (  -0.5000000   0.0000000   0.0000000), wk =   0.0092593
        k(   50) = (  -0.5000000   0.0000000   0.1681594), wk =   0.0185185
        k(   51) = (  -0.5000000   0.0000000   0.3363188), wk =   0.0185185
        k(   52) = (  -0.5000000   0.0000000  -0.5044782), wk =   0.0092593
        k(   53) = (  -0.5000000   0.1660927   0.0000000), wk =   0.0185185
        k(   54) = (  -0.5000000   0.1660927   0.1681594), wk =   0.0370370
        k(   55) = (  -0.5000000   0.1660927   0.3363188), wk =   0.0370370
        k(   56) = (  -0.5000000   0.1660927  -0.5044782), wk =   0.0185185
        k(   57) = (  -0.5000000   0.3321854   0.0000000), wk =   0.0185185
        k(   58) = (  -0.5000000   0.3321854   0.1681594), wk =   0.0370370
        k(   59) = (  -0.5000000   0.3321854   0.3363188), wk =   0.0370370
        k(   60) = (  -0.5000000   0.3321854  -0.5044782), wk =   0.0185185
        k(   61) = (  -0.5000000  -0.4982782   0.0000000), wk =   0.0092593
        k(   62) = (  -0.5000000  -0.4982782   0.1681594), wk =   0.0185185
        k(   63) = (  -0.5000000  -0.4982782   0.3363188), wk =   0.0185185
        k(   64) = (  -0.5000000  -0.4982782  -0.5044782), wk =   0.0092593

     Initial potential from superposition of free atoms

     starting charge  367.99656, renormalised to  368.68000
     Starting wfcs are  232 randomized atomic wfcs

     Self-consistent Calculation

     iteration #  1     ecut=   120.00 Ry     beta= 0.70
     Davidson diagonalization with overlap
     ethr =  1.00E-02,  avg # of iterations =  5.0

     total energy              =   -6252.93909902 Ry
     Harris-Foulkes estimate   =   -6264.10469831 Ry
     estimated scf accuracy    <      14.04066186 Ry

[...]

     total energy              =   -6260.42891421 Ry
     Harris-Foulkes estimate   =   -6260.42891423 Ry
     estimated scf accuracy    <       0.00000003 Ry

     iteration # 13     ecut=   120.00 Ry     beta= 0.70
     Davidson diagonalization with overlap
     ethr =  7.32E-12,  avg # of iterations =  3.0

     End of self-consistent calculation

          k = 0.0000 0.0000 0.0000 ( 62009 PWs)   bands (ev):

   -65.9203 -65.9197 -65.9197 -65.9196 -65.9191 -65.9190 -65.9189 -65.9183
   -30.3600 -30.3552 -30.3541 -30.3495 -30.2951 -30.2903 -30.2877 -30.2816
   -30.2642 -30.2641 -30.2602 -30.2578 -30.2452 -30.2383 -30.2379 -30.2301
   -30.1863 -30.1829 -30.1758 -30.1725 -30.1582 -30.1562 -30.1540 -30.1522
   -20.0815 -20.0813 -20.0812 -20.0809 -20.0802 -20.0799 -20.0799 -20.0795
   -20.0771 -20.0769 -20.0766 -20.0764 -20.0752 -20.0750 -20.0746 -20.0745
   -20.0681 -20.0676 -20.0671 -20.0667 -20.0651 -20.0645 -20.0643 -20.0637
   -20.0510 -20.0510 -20.0504 -20.0503 -20.0497 -20.0496 -20.0491 -20.0491
   -20.0370 -20.0369 -20.0361 -20.0361 -20.0347 -20.0347 -20.0334 -20.0333
   -20.0219 -20.0219 -20.0210 -20.0210 -20.0180 -20.0179 -20.0172 -20.0171
   -20.0117 -20.0116 -20.0114 -20.0112 -20.0103 -20.0103 -20.0096 -20.0095
    -9.8642  -9.4607  -9.4527  -9.4105  -9.0381  -9.0042  -8.9992  -8.7226
    -8.6814  -8.6121  -8.6099  -8.5982  -7.8873  -7.7905  -7.7834  -7.7075
    -7.6704  -7.6543  -7.6336  -7.6113  -7.4487  -7.4220  -7.3844  -7.3644
     1.4714   1.5109   1.5117   1.5214   1.5262   1.5669   1.5697   1.6187
     1.7457   1.7797   1.8075   1.8771   2.5371   2.5965   2.6097   2.6800
     2.6971   2.8089   4.1137   4.2857   4.3321   4.5485   4.7213   4.8178
     4.8190   4.8282   4.9105   4.9471   5.0516   5.1692   5.4472   5.6034
     5.6412   5.6425   5.8172   5.8532   5.8810   5.9204   5.9490   5.9751
     5.9944   6.0672   6.1453   6.1579   6.1972   6.2385   6.2419   6.2762
     6.4283   6.5624   6.6087   6.6166   6.6404   6.9269   6.9342   7.0136
     7.0293   7.0665   7.0751   7.1123   7.1959   7.1977   7.2498   7.2977
     7.3868   7.4042   8.2238   8.2822   8.3090   8.3366   8.6895   8.6931
     9.8144   9.8761   9.9264  10.1229  10.1888  10.3411  12.4056  12.4270
    12.4379  12.6849  12.8271  12.8822  12.9005  12.9294  13.0653  13.1249
    13.1546  13.2187  13.4044  13.4089  13.8116  14.0769  14.2194  14.2603
    14.2640  14.4679  14.7894  14.9449  15.2147  15.2454  15.4537  15.6652
    16.1049  16.4114  16.9406  17.0915  17.3057

[...]

          k = 0.3333-0.4983-0.5045 ( 62000 PWs)   bands (ev):

[...]

          k =-0.5000 0.0000 0.0000 ( 61986 PWs)   bands (ev):

[...]

          k =-0.5000-0.4983-0.5045 ( 61944 PWs)   bands (ev):

   -65.9193 -65.9193 -65.9193 -65.9193 -65.9193 -65.9193 -65.9193 -65.9193
   -30.3213 -30.3213 -30.3213 -30.3213 -30.3207 -30.3207 -30.3207 -30.3206
   -30.2262 -30.2262 -30.2262 -30.2262 -30.2258 -30.2258 -30.2258 -30.2258
   -30.1929 -30.1929 -30.1929 -30.1929 -30.1918 -30.1918 -30.1917 -30.1917
   -20.0809 -20.0809 -20.0809 -20.0809 -20.0805 -20.0805 -20.0805 -20.0805
   -20.0759 -20.0759 -20.0759 -20.0759 -20.0754 -20.0754 -20.0754 -20.0754
   -20.0660 -20.0660 -20.0660 -20.0660 -20.0659 -20.0659 -20.0659 -20.0659
   -20.0501 -20.0500 -20.0500 -20.0500 -20.0500 -20.0500 -20.0500 -20.0500
   -20.0352 -20.0352 -20.0352 -20.0351 -20.0351 -20.0351 -20.0351 -20.0351
   -20.0197 -20.0197 -20.0197 -20.0197 -20.0197 -20.0197 -20.0197 -20.0197
   -20.0108 -20.0108 -20.0108 -20.0108 -20.0107 -20.0107 -20.0107 -20.0107
    -8.8984  -8.8984  -8.8984  -8.8984  -8.8418  -8.8418  -8.8418  -8.8418
    -8.2561  -8.2561  -8.2561  -8.2561  -8.2292  -8.2292  -8.2292  -8.2291
    -8.1079  -8.1079  -8.1079  -8.1079  -8.0427  -8.0427  -8.0427  -8.0427
     2.8590   2.8590   2.8590   2.8590   2.9501   2.9501   2.9501   2.9501
     3.2097   3.2097   3.2097   3.2097   3.3524   3.3524   3.3524   3.3524
     3.4791   3.4791   3.4791   3.4791   3.6271   3.6271   3.6271   3.6271
     4.3015   4.3015   4.3015   4.3015   4.4288   4.4288   4.4288   4.4288
     4.5117   4.5117   4.5117   4.5117   4.5700   4.5700   4.5700   4.5700
     4.7297   4.7297   4.7297   4.7297   4.8386   4.8386   4.8386   4.8386
     7.3486   7.3486   7.3486   7.3486   7.3971   7.3971   7.3972   7.3972
     7.5640   7.5640   7.5640   7.5640   7.7263   7.7263   7.7263   7.7263
     7.8083   7.8083   7.8083   7.8083   7.9037   7.9037   7.9037   7.9037
    12.0457  12.0457  12.0457  12.0457  12.1792  12.1792  12.1792  12.1792
    12.3911  12.3911  12.3911  12.3911  12.5096  12.5096  12.5096  12.5096
    12.6187  12.6187  12.6187  12.6187  12.6620  12.6620  12.6620  12.6620
    16.8026  16.8026  16.8026  16.8026  17.0797  17.0797  17.0797  17.0798
    17.3410  17.3412  17.3412  17.3412  17.4078

     the Fermi energy is    10.1671 ev

!    total energy              =   -6260.42891422 Ry
     Harris-Foulkes estimate   =   -6260.42891422 Ry
     estimated scf accuracy    <          7.0E-10 Ry

     The total energy is the sum of the following terms:

     one-electron contribution =   -4696.02231938 Ry
     hartree contribution      =    2588.32368724 Ry
     xc contribution           =    -966.43029715 Ry
     ewald contribution        =   -3186.29996669 Ry
     smearing contrib. (-TS)   =      -0.00001824 Ry

     convergence has been achieved in  13 iterations

     Writing output data file Landau_40.save/

     General routines

     Parallel routines

   This run was terminated on:  13: 7: 0  22Nov2019

   JOB DONE.