     Program PWSCF v.6.2 (svn rev. 14038) starts on  4Mar2020 at 21:22:22

     K-points division:     npool     =      64
     Reading input from rscf.in

     Current dimensions of program PWSCF are:
     Max number of different atomic species (ntypx) = 10
     Max number of k-points (npk) =  40000
     Max angular momentum in pseudopotentials (lmaxx) =  3

     Subspace diagonalization in iterative solution of the eigenvalue problem:
     a serial algorithm will be used

     Found symmetry operation: I + (  0.5000  0.0000 -0.5000)
     This is a supercell, fractional translations are disabled

     bravais-lattice index     =            0
     lattice parameter (alat)  =      13.8397  a.u.
     unit-cell volume          =    2804.9816 (a.u.)^3
     number of atoms/cell      =           32
     number of atomic types    =            2
     number of electrons       =       368.00
     number of Kohn-Sham states=          221
     kinetic-energy cutoff     =     120.0000  Ry
     charge density cutoff     =     480.0000  Ry
     convergence threshold     =      1.0E-08
     mixing beta               =       0.7000
     number of iterations used =            8  plain     mixing
     Exchange-correlation      = SLA PW NOGX NOGC ( 1  4  0  0 0 0)
     nstep                     =           50

     celldm(1)=  13.839685  celldm(2)=   0.000000  celldm(3)=   0.000000
     celldm(4)=   0.000000  celldm(5)=   0.000000  celldm(6)=   0.000000

     crystal axes: (cart. coord. in units of alat)
               a(1) = (   1.000000   0.000000   0.000000 )
               a(2) = (   0.000000   1.058160   0.000000 )
               a(3) = (   0.000000   0.000000   1.000000 )

     reciprocal axes: (cart. coord. in units 2 pi/alat)
               b(1) = (  1.000000  0.000000  0.000000 )
               b(2) = (  0.000000  0.945037  0.000000 )
               b(3) = (  0.000000  0.000000  1.000000 )

     PseudoPot. # 1 for W  read from file:
     /cluster/scratch/mnoe/QE/pps/W_ONCV_LDA-4.0.upf
     MD5 check sum: ba0307d5d4cd419d6f1d13dc49d7c13a
     Pseudo is Norm-conserving + core correction, Zval = 28.0
     Generated using ONCVPSP code by D. R. Hamann
     Using radial grid of 1380 points,  8 beta functions with:
                l(1) =   0
                l(2) =   0
                l(3) =   1
                l(4) =   1
                l(5) =   2
                l(6) =   2
                l(7) =   3
                l(8) =   3

     PseudoPot. # 2 for O  read from file:
     /cluster/scratch/mnoe/QE/pps/O_ONCV_LDA-3.0.upf
     MD5 check sum: a1bd6164e7280c17a38c229939bfbd54
     Pseudo is Norm-conserving + core correction, Zval =  6.0
     Generated using ONCVPSP code by D. R. Hamann
     Using radial grid of  926 points,  5 beta functions with:
                l(1) =   0
                l(2) =   0
                l(3) =   1
                l(4) =   1
                l(5) =   2

     atomic species   valence    mass     pseudopotential
        W             28.00   183.84000     W ( 1.00)
        O              6.00    15.99940     O ( 1.00)

      2 Sym. Ops., with inversion, found

   Cartesian axes

     site n.     atom                  positions (alat units)
         1           W   tau(   1) = (   0.2500000   0.2978319   0.0000000  )
         2           W   tau(   2) = (   0.7500000   0.7603282   0.0000000  )
         3           W   tau(   3) = (   0.2500000   0.2312482   0.5000000  )
         4           W   tau(   4) = (   0.7500000   0.8269119   0.5000000  )
         5           W   tau(   5) = (   0.7500000   0.2978319   0.5000000  )
         6           W   tau(   6) = (   0.2500000   0.7603282   0.5000000  )
         7           W   tau(   7) = (   0.7500000   0.2312482   0.0000000  )
         8           W   tau(   8) = (   0.2500000   0.8269119   0.0000000  )
         9           O   tau(   9) = (   0.2500000   0.0086892   0.0000000  )
        10           O   tau(  10) = (   0.7500000   1.0494709   0.0000000  )
        11           O   tau(  11) = (   0.2500000   0.5203909   0.5000000  )
        12           O   tau(  12) = (   0.7500000   0.5377692   0.5000000  )
        13           O   tau(  13) = (   0.7500000   0.0086892   0.5000000  )
        14           O   tau(  14) = (   0.2500000   1.0494709   0.5000000  )
        15           O   tau(  15) = (   0.7500000   0.5203909   0.0000000  )
        16           O   tau(  16) = (   0.2500000   0.5377692   0.0000000  )
        17           O   tau(  17) = (   0.5000000   0.2645400   0.4505131  )
        18           O   tau(  18) = (   0.5000000   0.7936200   0.5494868  )
        19           O   tau(  19) = (   0.0000000   0.2645400   0.9505132  )
        20           O   tau(  20) = (   0.0000000   0.7936200   0.0494869  )
        21           O   tau(  21) = (   0.5000000   0.2645400   0.0494869  )
        22           O   tau(  22) = (   0.5000000   0.7936200   0.9505132  )
        23           O   tau(  23) = (   0.0000000   0.2645400   0.5494868  )
        24           O   tau(  24) = (   0.0000000   0.7936200   0.4505131  )
        25           O   tau(  25) = (   0.7005132   0.2645400   0.7500000  )
        26           O   tau(  26) = (   0.2994868   0.7936200   0.2500000  )
        27           O   tau(  27) = (   0.7994868   0.2645400   0.2500000  )
        28           O   tau(  28) = (   0.2005132   0.7936200   0.7500000  )
        29           O   tau(  29) = (   0.2994868   0.2645400   0.7500000  )
        30           O   tau(  30) = (   0.7005132   0.7936200   0.2500000  )
        31           O   tau(  31) = (   0.2005132   0.2645400   0.2500000  )
        32           O   tau(  32) = (   0.7994868   0.7936200   0.7500000  )

     number of k points=   112  gaussian smearing, width (Ry)=  0.0007

     Number of k-points >= 100: set verbosity='high' to print them.

     Initial potential from superposition of free atoms

     starting charge  367.99656, renormalised to  368.00000
     Starting wfc are  232 randomized atomic wfcs

     Self-consistent Calculation

     iteration #  1     ecut=   120.00 Ry     beta= 0.70
     Davidson diagonalization with overlap
     ethr =  1.00E-02,  avg # of iterations =  5.1

     total energy              =   -6253.98706251 Ry
     Harris-Foulkes estimate   =   -6264.58776284 Ry
     estimated scf accuracy    <      13.42441032 Ry

[...]

     End of self-consistent calculation

     Number of k-points >= 100: set verbosity='high' to print the bands.

     the Fermi energy is     8.9682 ev

!    total energy              =   -6261.10919215 Ry
     Harris-Foulkes estimate   =   -6261.10919215 Ry
     estimated scf accuracy    <          1.6E-09 Ry

     The total energy is the sum of the following terms:

     one-electron contribution =   -4725.18726834 Ry
     hartree contribution      =    2599.29295284 Ry
     xc contribution           =    -965.70497242 Ry
     ewald contribution        =   -3169.50990423 Ry
     smearing contrib. (-TS)   =      -0.00000000 Ry

     convergence has been achieved in  15 iterations

     Forces acting on atoms (cartesian axes, Ry/au):

     atom    1 type  1   force =     0.00000284    0.00369686    0.00000112
     atom    2 type  1   force =    -0.00000284   -0.00369686   -0.00000112
     atom    3 type  1   force =     0.00000296   -0.00369432   -0.00000017
     atom    4 type  1   force =    -0.00000296    0.00369432    0.00000017
     atom    5 type  1   force =    -0.00000042    0.00369177    0.00000126
     atom    6 type  1   force =     0.00000042   -0.00369177   -0.00000126
     atom    7 type  1   force =    -0.00000290   -0.00368359    0.00000211
     atom    8 type  1   force =     0.00000290    0.00368359   -0.00000211
     atom    9 type  2   force =    -0.00000025   -0.00190144   -0.00000015
     atom   10 type  2   force =     0.00000025    0.00190144    0.00000015
     atom   11 type  2   force =    -0.00000019    0.00189839    0.00000005
     atom   12 type  2   force =     0.00000019   -0.00189839   -0.00000005
     atom   13 type  2   force =     0.00000018   -0.00190000    0.00000001
     atom   14 type  2   force =    -0.00000018    0.00190000   -0.00000001
     atom   15 type  2   force =     0.00000046    0.00189732    0.00000016
     atom   16 type  2   force =    -0.00000046   -0.00189732   -0.00000016
     atom   17 type  2   force =     0.00000164    0.00000047   -0.00100037
     atom   18 type  2   force =    -0.00000164   -0.00000047    0.00100037
     atom   19 type  2   force =     0.00000035   -0.00000091   -0.00099957
     atom   20 type  2   force =    -0.00000035    0.00000091    0.00099957
     atom   21 type  2   force =    -0.00000019   -0.00000096    0.00099932
     atom   22 type  2   force =     0.00000019    0.00000096   -0.00099932
     atom   23 type  2   force =    -0.00000152    0.00000080    0.00099943
     atom   24 type  2   force =     0.00000152   -0.00000080   -0.00099943
     atom   25 type  2   force =    -0.00099947   -0.00000072    0.00000119
     atom   26 type  2   force =     0.00099947    0.00000072   -0.00000119
     atom   27 type  2   force =     0.00100006    0.00000019   -0.00000121
     atom   28 type  2   force =    -0.00100006   -0.00000019    0.00000121
     atom   29 type  2   force =     0.00099938   -0.00000038    0.00000329
     atom   30 type  2   force =    -0.00099938    0.00000038   -0.00000329
     atom   31 type  2   force =    -0.00100000    0.00000011   -0.00000296
     atom   32 type  2   force =     0.00100000   -0.00000011    0.00000296

     Total force =     0.000000     Total SCF correction =     0.000000

     Computing stress (Cartesian axis) and pressure

          total   stress  (Ry/bohr**3)                   (kbar)     P=    3.07
   0.00004311  -0.00000000   0.00000000          6.34     -0.00      0.00
  -0.00000000  -0.00002361  -0.00000000         -0.00     -3.47     -0.00
   0.00000000  -0.00000000   0.00004314          0.00     -0.00      6.35

     BFGS Geometry Optimization

     number of scf cycles    =   1
     number of bfgs steps    =   0

     enthalpy new            =   -6261.1091921502 Ry

     new trust radius        =       0.0114241454 bohr
     new conv_thr            =       0.0000000100 Ry

     new unit-cell volume =   2809.37427 a.u.^3 (   416.30631 Ang^3 )
     density =      7.39794 g/cm^3

CELL_PARAMETERS (angstrom)
   7.331539322  -0.000000367   0.000000019
  -0.000000388   7.745016257  -0.000000278
   0.000000019  -0.000000263   7.331544777

ATOMIC_POSITIONS (crystal)
W        0.250000000   0.281462021  -0.000000000    0   0   0
W        0.749999998   0.718537979  -0.000000000    0   0   0
W        0.250000000   0.218537994   0.500000000    0   0   0
W        0.749999998   0.781461994   0.500000000    0   0   0
W        0.749999998   0.281462021   0.500000000    0   0   0
W        0.250000000   0.718537979   0.500000000    0   0   0
W        0.749999998   0.218537994  -0.000000000    0   0   0
W        0.250000000   0.781461994   0.000000000    0   0   0
O        0.250000000   0.008211578  -0.000000000    0   0   0
O        0.749999998   0.991788442   0.000000000    0   0   0
O        0.250000000   0.491788415   0.500000000    0   0   0
O        0.749999998   0.508211558   0.500000000    0   0   0
O        0.749999998   0.008211578   0.500000000    0   0   0
O        0.250000000   0.991788442   0.500000000    0   0   0
O        0.749999998   0.491788415  -0.000000000    0   0   0
O        0.250000000   0.508211558   0.000000000    0   0   0
O        0.500000000   0.250000000   0.450513149    0   0   0
O        0.500000000   0.749999987   0.549486823    0   0   0
O       -0.000000000   0.250000000   0.950513182    0   0   0
O       -0.000000000   0.749999987   0.049486863    0   0   0
O        0.500000000   0.250000000   0.049486863    0   0   0
O        0.500000000   0.749999987   0.950513182    0   0   0
O        0.000000000   0.250000000   0.549486823    0   0   0
O        0.000000000   0.749999987   0.450513149    0   0   0
O        0.700513180   0.250000000   0.749999998    0   0   0
O        0.299486849   0.749999987   0.250000000    0   0   0
O        0.799486825   0.250000000   0.250000000    0   0   0
O        0.200513165   0.749999987   0.749999998    0   0   0
O        0.299486849   0.250000000   0.749999998    0   0   0
O        0.700513180   0.749999987   0.250000000    0   0   0
O        0.200513165   0.250000000   0.250000000    0   0   0
O        0.799486825   0.749999987   0.749999998    0   0   0

     Writing output data file Landau_1.save
     NEW-OLD atomic charge density approx. for the potential
     extrapolated charge  368.57538, renormalised to  368.00000

[...]

     enthalpy old            =   -6261.1091921502 Ry
     enthalpy new            =   -6261.1093224434 Ry

     CASE: enthalpy_new < enthalpy_old

[...]

     number of scf cycles    =   3
     number of bfgs steps    =   2

     enthalpy old            =   -6261.1093224434 Ry
     enthalpy new            =   -6261.1093265820 Ry

     CASE: enthalpy_new < enthalpy_old

     new trust radius        =       0.0003536846 bohr
     new conv_thr            =            1.0E-10 Ry

     new unit-cell volume =   2808.26493 a.u.^3 (   416.14192 Ang^3 )
     density =      7.40087 g/cm^3

[...]

ATOMIC_POSITIONS (crystal)
W        0.250000000   0.281462021   0.000000000    0   0   0
W        0.749999998   0.718537979  -0.000000000    0   0   0
W        0.250000000   0.218537994   0.500000000    0   0   0
W        0.749999998   0.781461994   0.500000000    0   0   0
W        0.749999998   0.281462021   0.500000000    0   0   0
W        0.250000000   0.718537979   0.500000000    0   0   0
W        0.749999998   0.218537994  -0.000000000    0   0   0
W        0.250000000   0.781461994  -0.000000000    0   0   0
O        0.250000000   0.008211578  -0.000000000    0   0   0
O        0.749999998   0.991788442  -0.000000000    0   0   0
O        0.250000000   0.491788415   0.500000000    0   0   0
O        0.749999998   0.508211558   0.500000000    0   0   0
O        0.749999998   0.008211578   0.500000000    0   0   0
O        0.250000000   0.991788442   0.500000000    0   0   0
O        0.749999998   0.491788415  -0.000000000    0   0   0
O        0.250000000   0.508211558   0.000000000    0   0   0
O        0.500000000   0.250000000   0.450513149    0   0   0
O        0.500000000   0.749999987   0.549486823    0   0   0
O        0.000000000   0.250000000   0.950513182    0   0   0
O       -0.000000000   0.749999987   0.049486863    0   0   0
O        0.500000000   0.250000000   0.049486863    0   0   0
O        0.500000000   0.749999987   0.950513182    0   0   0
O        0.000000000   0.250000000   0.549486823    0   0   0
O        0.000000000   0.749999987   0.450513149    0   0   0
O        0.700513180   0.250000000   0.749999998    0   0   0
O        0.299486849   0.749999987   0.250000000    0   0   0
O        0.799486825   0.250000000   0.250000000    0   0   0
O        0.200513165   0.749999987   0.749999998    0   0   0
O        0.299486849   0.250000000   0.749999998    0   0   0
O        0.700513180   0.749999987   0.250000000    0   0   0
O        0.200513165   0.250000000   0.250000000    0   0   0
O        0.799486825   0.749999987   0.749999998    0   0   0

     Writing output data file Landau_1.save
     NEW-OLD atomic charge density approx. for the potential
     extrapolated charge  368.01286, renormalised to  368.00000

[...]

     Threshold (ethr) on eigenvalues was too large:
     Diagonalizing with lowered threshold

     Davidson diagonalization with overlap
     ethr =  2.46E-09,  avg # of iterations =  2.9

[...]

     bfgs converged in   4 scf cycles and   3 bfgs steps
     (criteria: energy <  1.0E-07 Ry, force <  1.0E-07Ry/Bohr, cell <  5.0E-01kbar)

     End of BFGS Geometry Optimization

     Final enthalpy =   -6261.1093266369 Ry
Begin final coordinates
     new unit-cell volume =   2808.26493 a.u.^3 (   416.14192 Ang^3 )
     density =      7.40087 g/cm^3

CELL_PARAMETERS (angstrom)
   7.330417385  -0.000000222  -0.000000010
  -0.000000235   7.744333932  -0.000000199
  -0.000000010  -0.000000188   7.330417228

ATOMIC_POSITIONS (crystal)
W        0.250000000   0.281462021   0.000000000    0   0   0
W        0.749999998   0.718537979  -0.000000000    0   0   0
W        0.250000000   0.218537994   0.500000000    0   0   0
W        0.749999998   0.781461994   0.500000000    0   0   0
W        0.749999998   0.281462021   0.500000000    0   0   0
W        0.250000000   0.718537979   0.500000000    0   0   0
W        0.749999998   0.218537994  -0.000000000    0   0   0
W        0.250000000   0.781461994  -0.000000000    0   0   0
O        0.250000000   0.008211578  -0.000000000    0   0   0
O        0.749999998   0.991788442  -0.000000000    0   0   0
O        0.250000000   0.491788415   0.500000000    0   0   0
O        0.749999998   0.508211558   0.500000000    0   0   0
O        0.749999998   0.008211578   0.500000000    0   0   0
O        0.250000000   0.991788442   0.500000000    0   0   0
O        0.749999998   0.491788415  -0.000000000    0   0   0
O        0.250000000   0.508211558   0.000000000    0   0   0
O        0.500000000   0.250000000   0.450513149    0   0   0
O        0.500000000   0.749999987   0.549486823    0   0   0
O        0.000000000   0.250000000   0.950513182    0   0   0
O       -0.000000000   0.749999987   0.049486863    0   0   0
O        0.500000000   0.250000000   0.049486863    0   0   0
O        0.500000000   0.749999987   0.950513182    0   0   0
O        0.000000000   0.250000000   0.549486823    0   0   0
O        0.000000000   0.749999987   0.450513149    0   0   0
O        0.700513180   0.250000000   0.749999998    0   0   0
O        0.299486849   0.749999987   0.250000000    0   0   0
O        0.799486825   0.250000000   0.250000000    0   0   0
O        0.200513165   0.749999987   0.749999998    0   0   0
O        0.299486849   0.250000000   0.749999998    0   0   0
O        0.700513180   0.749999987   0.250000000    0   0   0
O        0.200513165   0.250000000   0.250000000    0   0   0
O        0.799486825   0.749999987   0.749999998    0   0   0
End final coordinates

     A final scf calculation at the relaxed structure.
     The G-vectors are recalculated for the final unit cell
     Results may differ from those at the preceding step.

     bravais-lattice index     =            0
     lattice parameter (alat)  =      13.8397  a.u.
     unit-cell volume          =    2808.2649 (a.u.)^3
     number of atoms/cell      =           32
     number of atomic types    =            2
     number of electrons       =       368.00
     number of Kohn-Sham states=          221
     kinetic-energy cutoff     =     120.0000  Ry
     charge density cutoff     =     480.0000  Ry
     convergence threshold     =      1.0E-10
     mixing beta               =       0.7000
     number of iterations used =            8  plain     mixing
     Exchange-correlation      = SLA PW NOGX NOGC ( 1  4  0  0 0 0)

     celldm(1)=  13.839685  celldm(2)=   0.000000  celldm(3)=   0.000000
     celldm(4)=   0.000000  celldm(5)=   0.000000  celldm(6)=   0.000000

     crystal axes: (cart. coord. in units of alat)
               a(1) = (   1.000925  -0.000000  -0.000000 )
               a(2) = (  -0.000000   1.057442  -0.000000 )
               a(3) = (  -0.000000  -0.000000   1.000925 )

     reciprocal axes: (cart. coord. in units 2 pi/alat)
               b(1) = (  0.999076  0.000000  0.000000 )
               b(2) = (  0.000000  0.945678  0.000000 )
               b(3) = (  0.000000  0.000000  0.999076 )

     PseudoPot. # 1 for W  read from file:
     /cluster/scratch/mnoe/QE/pps/W_ONCV_LDA-4.0.upf
     MD5 check sum: ba0307d5d4cd419d6f1d13dc49d7c13a
     Pseudo is Norm-conserving + core correction, Zval = 28.0
     Generated using ONCVPSP code by D. R. Hamann
     Using radial grid of 1380 points,  8 beta functions with:
                l(1) =   0
                l(2) =   0
                l(3) =   1
                l(4) =   1
                l(5) =   2
                l(6) =   2
                l(7) =   3
                l(8) =   3

     PseudoPot. # 2 for O  read from file:
     /cluster/scratch/mnoe/QE/pps/O_ONCV_LDA-3.0.upf
     MD5 check sum: a1bd6164e7280c17a38c229939bfbd54
     Pseudo is Norm-conserving + core correction, Zval =  6.0
     Generated using ONCVPSP code by D. R. Hamann
     Using radial grid of  926 points,  5 beta functions with:
                l(1) =   0
                l(2) =   0
                l(3) =   1
                l(4) =   1
                l(5) =   2

     atomic species   valence    mass     pseudopotential
        W             28.00   183.84000     W ( 1.00)
        O              6.00    15.99940     O ( 1.00)

      2 Sym. Ops., with inversion, found

   Cartesian axes

     site n.     atom                  positions (alat units)
         1           W   tau(   1) = (   0.2502311   0.2976299  -0.0000000  )
         2           W   tau(   2) = (   0.7506934   0.7598125  -0.0000000  )
         3           W   tau(   3) = (   0.2502311   0.2310913   0.5004623  )
         4           W   tau(   4) = (   0.7506934   0.8263510   0.5004623  )
         5           W   tau(   5) = (   0.7506934   0.2976298   0.5004623  )
         6           W   tau(   6) = (   0.2502311   0.7598125   0.5004623  )
         7           W   tau(   7) = (   0.7506934   0.2310913  -0.0000000  )
         8           W   tau(   8) = (   0.2502311   0.8263510  -0.0000000  )
         9           O   tau(   9) = (   0.2502311   0.0086833  -0.0000000  )
        10           O   tau(  10) = (   0.7506934   1.0487591  -0.0000000  )
        11           O   tau(  11) = (   0.2502311   0.5200379   0.5004623  )
        12           O   tau(  12) = (   0.7506934   0.5374044   0.5004623  )
        13           O   tau(  13) = (   0.7506934   0.0086832   0.5004623  )
        14           O   tau(  14) = (   0.2502311   1.0487591   0.5004623  )
        15           O   tau(  15) = (   0.7506934   0.5200379  -0.0000000  )
        16           O   tau(  16) = (   0.2502311   0.5374044  -0.0000000  )
        17           O   tau(  17) = (   0.5004623   0.2643606   0.4509297  )
        18           O   tau(  18) = (   0.5004623   0.7930818   0.5499948  )
        19           O   tau(  19) = (  -0.0000000   0.2643606   0.9513920  )
        20           O   tau(  20) = (  -0.0000000   0.7930818   0.0495326  )
        21           O   tau(  21) = (   0.5004623   0.2643606   0.0495326  )
        22           O   tau(  22) = (   0.5004623   0.7930818   0.9513920  )
        23           O   tau(  23) = (  -0.0000000   0.2643606   0.5499949  )
        24           O   tau(  24) = (  -0.0000000   0.7930818   0.4509297  )
        25           O   tau(  25) = (   0.7011609   0.2643606   0.7506934  )
        26           O   tau(  26) = (   0.2997637   0.7930818   0.2502311  )
        27           O   tau(  27) = (   0.8002260   0.2643606   0.2502311  )
        28           O   tau(  28) = (   0.2006985   0.7930818   0.7506934  )
        29           O   tau(  29) = (   0.2997637   0.2643606   0.7506934  )
        30           O   tau(  30) = (   0.7011608   0.7930818   0.2502311  )
        31           O   tau(  31) = (   0.2006985   0.2643606   0.2502311  )
        32           O   tau(  32) = (   0.8002260   0.7930817   0.7506934  )

     number of k points=   112  gaussian smearing, width (Ry)=  0.0007

     Number of k-points >= 100: set verbosity='high' to print them.

     Initial potential from superposition of free atoms

     starting charge  367.99656, renormalised to  368.00000
     Starting wfc are  232 randomized atomic wfcs

     Writing output data file Landau_1.save

     Self-consistent Calculation

[...]

     total energy              =   -6261.10934068 Ry
     Harris-Foulkes estimate   =   -6261.10934068 Ry
     estimated scf accuracy    <          1.4E-10 Ry

     iteration # 17     ecut=   120.00 Ry     beta= 0.70
     Davidson diagonalization with overlap
     ethr =  1.00E-13,  avg # of iterations =  1.3

     End of self-consistent calculation

     Number of k-points >= 100: set verbosity='high' to print the bands.

     the Fermi energy is     8.5335 ev

!    total energy              =   -6261.10934068 Ry
     Harris-Foulkes estimate   =   -6261.10934068 Ry
     estimated scf accuracy    <          5.3E-11 Ry

     The total energy is the sum of the following terms:

     one-electron contribution =   -4726.78829781 Ry
     hartree contribution      =    2599.81703663 Ry
     xc contribution           =    -965.66926004 Ry
     ewald contribution        =   -3168.46881946 Ry
     smearing contrib. (-TS)   =      -0.00000000 Ry

     convergence has been achieved in  17 iterations

     Forces acting on atoms (cartesian axes, Ry/au):

     atom    1 type  1   force =    -0.00000024    0.00109491   -0.00000296
     atom    2 type  1   force =     0.00000024   -0.00109491    0.00000296
     atom    3 type  1   force =     0.00000101   -0.00109221    0.00000309
     atom    4 type  1   force =    -0.00000101    0.00109221   -0.00000309
     atom    5 type  1   force =    -0.00000112    0.00109056   -0.00000418
     atom    6 type  1   force =     0.00000112   -0.00109056    0.00000418
     atom    7 type  1   force =     0.00000106   -0.00108917    0.00000270
     atom    8 type  1   force =    -0.00000106    0.00108917   -0.00000270
     atom    9 type  2   force =     0.00000001   -0.00053248   -0.00000002
     atom   10 type  2   force =    -0.00000001    0.00053248    0.00000002
     atom   11 type  2   force =    -0.00000003    0.00053270    0.00000005
     atom   12 type  2   force =     0.00000003   -0.00053270   -0.00000005
     atom   13 type  2   force =     0.00000003   -0.00053185   -0.00000002
     atom   14 type  2   force =    -0.00000003    0.00053185    0.00000002
     atom   15 type  2   force =     0.00000001    0.00053144    0.00000000
     atom   16 type  2   force =    -0.00000001   -0.00053144   -0.00000000
     atom   17 type  2   force =     0.00000029   -0.00000004   -0.00022647
     atom   18 type  2   force =    -0.00000029    0.00000004    0.00022647
     atom   19 type  2   force =    -0.00000028    0.00000001   -0.00022651
     atom   20 type  2   force =     0.00000028   -0.00000001    0.00022651
     atom   21 type  2   force =     0.00000003   -0.00000006    0.00022647
     atom   22 type  2   force =    -0.00000003    0.00000006   -0.00022647
     atom   23 type  2   force =    -0.00000012    0.00000002    0.00022645
     atom   24 type  2   force =     0.00000012   -0.00000002   -0.00022645
     atom   25 type  2   force =    -0.00022653   -0.00000002    0.00000001
     atom   26 type  2   force =     0.00022653    0.00000002   -0.00000001
     atom   27 type  2   force =     0.00022650    0.00000000    0.00000005
     atom   28 type  2   force =    -0.00022650   -0.00000000   -0.00000005
     atom   29 type  2   force =     0.00022656   -0.00000003   -0.00000007
     atom   30 type  2   force =    -0.00022656    0.00000003    0.00000007
     atom   31 type  2   force =    -0.00022650   -0.00000005    0.00000013
     atom   32 type  2   force =     0.00022650    0.00000005   -0.00000013

     Total force =     0.000000     Total SCF correction =     0.000000

     Computing stress (Cartesian axis) and pressure

          total   stress  (Ry/bohr**3)                   (kbar)     P=    0.01
   0.00000020   0.00000000  -0.00000000          0.03      0.00     -0.00
   0.00000000  -0.00000021  -0.00000000          0.00     -0.03     -0.00
  -0.00000000  -0.00000000   0.00000021         -0.00     -0.00      0.03

     Writing output data file Landau_1.save

     General routines

     Parallel routines

   This run was terminated on:   1: 2: 8   5Mar2020

   JOB DONE.