     Program PWSCF v.6.2 (svn rev. 14038) starts on  1May2019 at  1: 0:24

     K-points division:     npool     =      32
     Reading input from rscf.in

     Current dimensions of program PWSCF are:
     Max number of different atomic species (ntypx) = 10
     Max number of k-points (npk) =  40000
     Max angular momentum in pseudopotentials (lmaxx) =  3

     Subspace diagonalization in iterative solution of the eigenvalue problem:
     a serial algorithm will be used

     bravais-lattice index     =            0
     lattice parameter (alat)  =      13.8397  a.u.
     unit-cell volume          =    2804.9816 (a.u.)^3
     number of atoms/cell      =           32
     number of atomic types    =            2
     number of electrons       =       368.00
     number of Kohn-Sham states=          221
     kinetic-energy cutoff     =     120.0000  Ry
     charge density cutoff     =     480.0000  Ry
     convergence threshold     =      1.0E-08
     mixing beta               =       0.7000
     number of iterations used =            8  plain     mixing
     Exchange-correlation      = SLA PW NOGX NOGC ( 1  4  0  0 0 0)
     nstep                     =           50

     celldm(1)=  13.839685  celldm(2)=   0.000000  celldm(3)=   0.000000
     celldm(4)=   0.000000  celldm(5)=   0.000000  celldm(6)=   0.000000

     crystal axes: (cart. coord. in units of alat)
               a(1) = (   1.000000   0.000000   0.000000 )
               a(2) = (   0.000000   1.058160   0.000000 )
               a(3) = (   0.000000   0.000000   1.000000 )

     reciprocal axes: (cart. coord. in units 2 pi/alat)
               b(1) = (  1.000000  0.000000  0.000000 )
               b(2) = (  0.000000  0.945037  0.000000 )
               b(3) = (  0.000000  0.000000  1.000000 )

     PseudoPot. # 1 for W  read from file:
     /cluster/scratch/mnoe/QE/pps/W_ONCV_LDA-4.0.upf
     MD5 check sum: ba0307d5d4cd419d6f1d13dc49d7c13a
     Pseudo is Norm-conserving + core correction, Zval = 28.0
     Generated using ONCVPSP code by D. R. Hamann
     Using radial grid of 1380 points,  8 beta functions with:
                l(1) =   0
                l(2) =   0
                l(3) =   1
                l(4) =   1
                l(5) =   2
                l(6) =   2
                l(7) =   3
                l(8) =   3

     PseudoPot. # 2 for O  read from file:
     /cluster/scratch/mnoe/QE/pps/O_ONCV_LDA-3.0.upf
     MD5 check sum: a1bd6164e7280c17a38c229939bfbd54
     Pseudo is Norm-conserving + core correction, Zval =  6.0
     Generated using ONCVPSP code by D. R. Hamann
     Using radial grid of  926 points,  5 beta functions with:
                l(1) =   0
                l(2) =   0
                l(3) =   1
                l(4) =   1
                l(5) =   2

     atomic species   valence    mass     pseudopotential
        W             28.00   183.84000     W ( 1.00)
        O              6.00    15.99940     O ( 1.00)

      8 Sym. Ops. (no inversion) found ( 4 have fractional translation)

   Cartesian axes

     site n.     atom                  positions (alat units)
         1           W   tau(   1) = (   0.2706900   0.2982530   0.2505900  )
         2           W   tau(   2) = (  -0.2505900   0.7599071  -0.7293100  )
         3           W   tau(   3) = (   0.2293100   0.2308271   0.7505900  )
         4           W   tau(   4) = (   0.7505900   0.8273330   0.7706900  )
         5           W   tau(   5) = (   0.7293100   0.2982530   0.7494100  )
         6           W   tau(   6) = (   0.2505900   0.7599071   0.7293100  )
         7           W   tau(   7) = (  -0.2293100   0.2308271  -0.7505900  )
         8           W   tau(   8) = (   0.2494100   0.8273330   0.2293100  )
         9           O   tau(   9) = (   0.2727400   0.0088039   0.2665000  )
        10           O   tau(  10) = (  -0.2664999   1.0493562  -0.7272600  )
        11           O   tau(  11) = (   0.2272600   0.5202761   0.7665000  )
        12           O   tau(  12) = (   0.7665000   0.5378839   0.7727400  )
        13           O   tau(  13) = (   0.7272600   0.0088039   0.7335000  )
        14           O   tau(  14) = (   0.2665000   1.0493562   0.7272600  )
        15           O   tau(  15) = (  -0.2272600   0.5202761  -0.7664999  )
        16           O   tau(  16) = (   0.2335000   0.5378839   0.2272600  )
        17           O   tau(  17) = (   0.4926800   0.2904967   0.6995400  )
        18           O   tau(  18) = (   0.4985000   0.7769752   0.8004600  )
        19           O   tau(  19) = (  -0.9926799   0.2385833   1.1995400  )
        20           O   tau(  20) = (   0.0015000   0.8102648   0.3004600  )
        21           O   tau(  21) = (   0.5073200   0.2904967   0.3004600  )
        22           O   tau(  22) = (   0.5015000   0.7769752   1.1995400  )
        23           O   tau(  23) = (  -0.0073200   0.2385833   0.8004600  )
        24           O   tau(  24) = (  -1.0015000   0.8102648   0.6995400  )
        25           O   tau(  25) = (   0.6995400   0.2478952   2.0015000  )
        26           O   tau(  26) = (   0.3004600   0.7676633   0.4926800  )
        27           O   tau(  27) = (   0.8004600   0.2811849   0.5015000  )
        28           O   tau(  28) = (   0.1995400   0.8195767   1.9926799  )
        29           O   tau(  29) = (   0.3004600   0.2478952   0.9985000  )
        30           O   tau(  30) = (   0.6995400   0.7676633   0.5073200  )
        31           O   tau(  31) = (   0.1995400   0.2811849   0.4985000  )
        32           O   tau(  32) = (   0.8004600   0.8195767   1.0073200  )

     number of k points=    40  gaussian smearing, width (Ry)=  0.0007
                       cart. coord. in units 2pi/alat
        k(    1) = (   0.0000000   0.0000000   0.0000000), wk =   0.0092593
        k(    2) = (   0.0000000   0.0000000   0.1666667), wk =   0.0370370
        k(    3) = (   0.0000000   0.0000000   0.3333333), wk =   0.0370370
        k(    4) = (   0.0000000   0.0000000  -0.5000000), wk =   0.0185185
        k(    5) = (   0.0000000   0.1575061   0.0000000), wk =   0.0185185
        k(    6) = (   0.0000000   0.1575061   0.1666667), wk =   0.0740741
        k(    7) = (   0.0000000   0.1575061   0.3333333), wk =   0.0740741
        k(    8) = (   0.0000000   0.1575061  -0.5000000), wk =   0.0370370
        k(    9) = (   0.0000000   0.3150122   0.0000000), wk =   0.0185185
        k(   10) = (   0.0000000   0.3150122   0.1666667), wk =   0.0740741
        k(   11) = (   0.0000000   0.3150122   0.3333333), wk =   0.0740741
        k(   12) = (   0.0000000   0.3150122  -0.5000000), wk =   0.0370370
        k(   13) = (   0.0000000  -0.4725183   0.0000000), wk =   0.0092593
        k(   14) = (   0.0000000  -0.4725183   0.1666667), wk =   0.0370370
        k(   15) = (   0.0000000  -0.4725183   0.3333333), wk =   0.0370370
        k(   16) = (   0.0000000  -0.4725183  -0.5000000), wk =   0.0185185
        k(   17) = (   0.1666667   0.0000000   0.1666667), wk =   0.0370370
        k(   18) = (   0.1666667   0.0000000   0.3333333), wk =   0.0740741
        k(   19) = (   0.1666667   0.0000000  -0.5000000), wk =   0.0370370
        k(   20) = (   0.1666667   0.1575061   0.1666667), wk =   0.0740741
        k(   21) = (   0.1666667   0.1575061   0.3333333), wk =   0.1481481
        k(   22) = (   0.1666667   0.1575061  -0.5000000), wk =   0.0740741
        k(   23) = (   0.1666667   0.3150122   0.1666667), wk =   0.0740741
        k(   24) = (   0.1666667   0.3150122   0.3333333), wk =   0.1481481
        k(   25) = (   0.1666667   0.3150122  -0.5000000), wk =   0.0740741
        k(   26) = (   0.1666667  -0.4725183   0.1666667), wk =   0.0370370
        k(   27) = (   0.1666667  -0.4725183   0.3333333), wk =   0.0740741
        k(   28) = (   0.1666667  -0.4725183  -0.5000000), wk =   0.0370370
        k(   29) = (   0.3333333   0.0000000   0.3333333), wk =   0.0370370
        k(   30) = (   0.3333333   0.0000000  -0.5000000), wk =   0.0370370
        k(   31) = (   0.3333333   0.1575061   0.3333333), wk =   0.0740741
        k(   32) = (   0.3333333   0.1575061  -0.5000000), wk =   0.0740741
        k(   33) = (   0.3333333   0.3150122   0.3333333), wk =   0.0740741
        k(   34) = (   0.3333333   0.3150122  -0.5000000), wk =   0.0740741
        k(   35) = (   0.3333333  -0.4725183   0.3333333), wk =   0.0370370
        k(   36) = (   0.3333333  -0.4725183  -0.5000000), wk =   0.0370370
        k(   37) = (  -0.5000000   0.0000000  -0.5000000), wk =   0.0092593
        k(   38) = (  -0.5000000   0.1575061  -0.5000000), wk =   0.0185185
        k(   39) = (  -0.5000000   0.3150122  -0.5000000), wk =   0.0185185
        k(   40) = (  -0.5000000  -0.4725183  -0.5000000), wk =   0.0092593

     Initial potential from superposition of free atoms

     starting charge  367.99656, renormalised to  368.00000
     Starting wfc are  232 randomized atomic wfcs

     Self-consistent Calculation

     iteration #  1     ecut=   120.00 Ry     beta= 0.70
     Davidson diagonalization with overlap
     ethr =  1.00E-02,  avg # of iterations =  5.0

     total energy              =   -6253.91592421 Ry
     Harris-Foulkes estimate   =   -6264.54863808 Ry
     estimated scf accuracy    <      13.45233171 Ry

[...]

     End of self-consistent calculation

          k = 0.0000 0.0000 0.0000 ( 62239 PWs)   bands (ev):

   -66.1732 -66.1728 -66.1722 -66.1722 -66.1718 -66.1718 -66.1712 -66.1708
   -30.6005 -30.5981 -30.5937 -30.5937 -30.5162 -30.5162 -30.5134 -30.5003
   -30.4926 -30.4906 -30.4879 -30.4879 -30.4870 -30.4710 -30.4710 -30.4691
   -30.4354 -30.4300 -30.4300 -30.4263 -30.3960 -30.3960 -30.3910 -30.3900
   -20.3397 -20.3397 -20.3395 -20.3395 -20.3392 -20.3392 -20.3390 -20.3389
   -20.3237 -20.3234 -20.3234 -20.3234 -20.3228 -20.3228 -20.3228 -20.3226
   -20.3173 -20.3166 -20.3166 -20.3163 -20.3144 -20.3138 -20.3137 -20.3130
   -20.3112 -20.3106 -20.3106 -20.3102 -20.3079 -20.3075 -20.3075 -20.3074
   -20.3065 -20.3061 -20.3061 -20.3061 -20.3028 -20.3028 -20.3021 -20.3017
   -20.3004 -20.3003 -20.2992 -20.2992 -20.2951 -20.2950 -20.2945 -20.2943
   -20.2923 -20.2921 -20.2918 -20.2918 -20.2895 -20.2894 -20.2891 -20.2888
    -9.9443  -9.7090  -9.4920  -9.4920  -9.2105  -9.2105  -9.0225  -9.0182
    -8.8514  -8.7115  -8.6977  -8.6977  -7.9821  -7.9412  -7.8127  -7.8127
    -7.7612  -7.7519  -7.7259  -7.6663  -7.6663  -7.6220  -7.6073  -7.6073
     1.2180   1.2284   1.2812   1.2812   1.4204   1.4204   1.5581   1.6792
     1.8628   1.8628   1.8635   1.9815   2.3252   2.4118   2.6231   2.7314
     2.8292   2.8292   4.1673   4.1674   4.3705   4.3917   4.6984   4.6984
     4.7782   4.7782   4.7863   4.9955   5.2230   5.2230   5.2512   5.4438
     5.4992   5.4992   5.5056   5.6153   5.6153   5.7019   5.7320   5.7320
     5.8463   5.8553   5.8908   5.8948   5.8948   5.9295   5.9617   6.0574
     6.1371   6.3256   6.3739   6.5097   6.5097   6.6483   6.8789   6.9303
     6.9303   6.9673   6.9687   7.0186   7.0186   7.0467   7.1058   7.1058
     7.3994   7.3994   7.6743   7.6963   8.0174   8.0307   8.0307   8.1551
     9.5847   9.6155  10.1049  10.1254  10.1256  10.1256  12.1966  12.1966
[...]
W        0.229310011   0.218140012   0.750590011    0   0   0
W        0.750590000   0.781859972   0.770689989    0   0   0
W        0.729310000   0.281860003   0.749409989    0   0   0
W        0.250590011   0.718139997   0.729310011    0   0   0
W       -0.229309978   0.218140012  -0.750589978    0   0   0
W        0.249409989   0.781859972   0.229310000    0   0   0
O        0.272740005   0.008320000   0.266499973    0   0   0
O       -0.266499941   0.991680023  -0.727259995    0   0   0
O        0.227259995   0.491679992   0.766500007    0   0   0
O        0.766499973   0.508319977   0.772740005    0   0   0
O        0.727260027   0.008320000   0.733499993    0   0   0
O        0.266500007   0.991680023   0.727259995    0   0   0
O       -0.227259995   0.491679992  -0.766499941    0   0   0
O        0.233499993   0.508319977   0.227260027    0   0   0
O        0.492679957   0.274529990   0.699540004    0   0   0
O        0.498499985   0.734269972   0.800459963    0   0   0
O       -0.992679925   0.225469995   1.199540037    0   0   0
O        0.001500011   0.765729876   0.300460012    0   0   0
O        0.507320043   0.274529990   0.300460012    0   0   0
O        0.501500015   0.734269972   1.199540037    0   0   0
O       -0.007320047   0.225469995   0.800459963    0   0   0
O       -1.001499983   0.765729876   0.699540004    0   0   0
O        0.699540037   0.234270002   2.001499983    0   0   0
O        0.300459996   0.725469919   0.492679957    0   0   0
O        0.800459963   0.265729983   0.501500015    0   0   0
O        0.199540020   0.774529929   1.992679925    0   0   0
O        0.300459996   0.234270002   0.998499989    0   0   0
O        0.699540037   0.725469919   0.507320043    0   0   0
O        0.199540020   0.265729983   0.498499985    0   0   0
O        0.800459963   0.774529929   1.007320047    0   0   0
End final coordinates

     A final scf calculation at the relaxed structure.
     The G-vectors are recalculated for the final unit cell
     Results may differ from those at the preceding step.

     bravais-lattice index     =            0
     lattice parameter (alat)  =      13.8397  a.u.
     unit-cell volume          =    2778.6845 (a.u.)^3
     number of atoms/cell      =           32
     number of atomic types    =            2
     number of electrons       =       368.00
     number of Kohn-Sham states=          221
     kinetic-energy cutoff     =     120.0000  Ry
     charge density cutoff     =     480.0000  Ry
     convergence threshold     =      1.0E-10
     mixing beta               =       0.7000
     number of iterations used =            8  plain     mixing
     Exchange-correlation      = SLA PW NOGX NOGC ( 1  4  0  0 0 0)

     celldm(1)=  13.839685  celldm(2)=   0.000000  celldm(3)=   0.000000
     celldm(4)=   0.000000  celldm(5)=   0.000000  celldm(6)=   0.000000

     crystal axes: (cart. coord. in units of alat)
               a(1) = (   1.001691   0.000000   0.000000 )
               a(2) = (   0.000000   1.044704   0.000000 )
               a(3) = (   0.000000   0.000000   1.001691 )

     reciprocal axes: (cart. coord. in units 2 pi/alat)
               b(1) = (  0.998312  0.000000  0.000000 )
               b(2) = (  0.000000  0.957209  0.000000 )
               b(3) = (  0.000000  0.000000  0.998312 )

     PseudoPot. # 1 for W  read from file:
     /cluster/scratch/mnoe/QE/pps/W_ONCV_LDA-4.0.upf
     MD5 check sum: ba0307d5d4cd419d6f1d13dc49d7c13a
     Pseudo is Norm-conserving + core correction, Zval = 28.0
     Generated using ONCVPSP code by D. R. Hamann
     Using radial grid of 1380 points,  8 beta functions with:
                l(1) =   0
                l(2) =   0
                l(3) =   1
                l(4) =   1
                l(5) =   2
                l(6) =   2
                l(7) =   3
                l(8) =   3

     PseudoPot. # 2 for O  read from file:
     /cluster/scratch/mnoe/QE/pps/O_ONCV_LDA-3.0.upf
     MD5 check sum: a1bd6164e7280c17a38c229939bfbd54
     Pseudo is Norm-conserving + core correction, Zval =  6.0
     Generated using ONCVPSP code by D. R. Hamann
     Using radial grid of  926 points,  5 beta functions with:
                l(1) =   0
                l(2) =   0
                l(3) =   1
                l(4) =   1
                l(5) =   2

     atomic species   valence    mass     pseudopotential
        W             28.00   183.84000     W ( 1.00)
        O              6.00    15.99940     O ( 1.00)

      8 Sym. Ops. (no inversion) found ( 4 have fractional translation)

   Cartesian axes

     site n.     atom                  positions (alat units)
         1           W   tau(   1) = (   0.2711477   0.2944603   0.2510137  )
         2           W   tau(   2) = (  -0.2510137   0.7502437  -0.7305431  )
         3           W   tau(   3) = (   0.2296977   0.2278917   0.7518591  )
         4           W   tau(   4) = (   0.7518591   0.8168122   0.7719931  )
         5           W   tau(   5) = (   0.7305431   0.2944603   0.7506771  )
         6           W   tau(   6) = (   0.2510137   0.7502437   0.7305431  )
         7           W   tau(   7) = (  -0.2296977   0.2278917  -0.7518591  )
         8           W   tau(   8) = (   0.2498317   0.8168122   0.2296977  )
         9           O   tau(   9) = (   0.2732011   0.0086919   0.2669506  )
        10           O   tau(  10) = (  -0.2669505   1.0360120  -0.7284896  )
        11           O   tau(  11) = (   0.2276442   0.5136600   0.7677960  )
        12           O   tau(  12) = (   0.7677960   0.5310439   0.7740465  )
        13           O   tau(  13) = (   0.7284897   0.0086919   0.7347402  )
        14           O   tau(  14) = (   0.2669506   1.0360120   0.7284896  )
        15           O   tau(  15) = (  -0.2276442   0.5136600  -0.7677959  )
        16           O   tau(  16) = (   0.2338948   0.5310439   0.2276443  )
        17           O   tau(  17) = (   0.4935130   0.2868026   0.7007228  )
        18           O   tau(  18) = (   0.4993428   0.7670947   0.8018134  )
        19           O   tau(  19) = (  -0.9943583   0.2355494   1.2015682  )
        20           O   tau(  20) = (   0.0015025   0.7999610   0.3009680  )
        21           O   tau(  21) = (   0.5081778   0.2868026   0.3009680  )
        22           O   tau(  22) = (   0.5023479   0.7670947   1.2015682  )
        23           O   tau(  23) = (  -0.0073324   0.2355494   0.8018134  )
        24           O   tau(  24) = (  -1.0031933   0.7999610   0.7007228  )
        25           O   tau(  25) = (   0.7007228   0.2447428   2.0048841  )
        26           O   tau(  26) = (   0.3009680   0.7579013   0.4935130  )
        27           O   tau(  27) = (   0.8018134   0.2776092   0.5023479  )
        28           O   tau(  28) = (   0.1998774   0.8091545   1.9960491  )
        29           O   tau(  29) = (   0.3009680   0.2447428   1.0001882  )
        30           O   tau(  30) = (   0.7007228   0.7579013   0.5081778  )
        31           O   tau(  31) = (   0.1998774   0.2776092   0.4993428  )
        32           O   tau(  32) = (   0.8018134   0.8091545   1.0090232  )

     number of k points=    40  gaussian smearing, width (Ry)=  0.0007
                       cart. coord. in units 2pi/alat
        k(    1) = (   0.0000000   0.0000000   0.0000000), wk =   0.0092593
        k(    2) = (   0.0000000   0.0000000   0.1663853), wk =   0.0370370
        k(    3) = (   0.0000000   0.0000000   0.3327707), wk =   0.0370370
        k(    4) = (   0.0000000   0.0000000  -0.4991560), wk =   0.0185185
        k(    5) = (   0.0000000   0.1595348   0.0000000), wk =   0.0185185
        k(    6) = (   0.0000000   0.1595348   0.1663853), wk =   0.0740741
        k(    7) = (   0.0000000   0.1595348   0.3327707), wk =   0.0740741
        k(    8) = (   0.0000000   0.1595348  -0.4991560), wk =   0.0370370
        k(    9) = (   0.0000000   0.3190697   0.0000000), wk =   0.0185185
        k(   10) = (   0.0000000   0.3190697   0.1663853), wk =   0.0740741
        k(   11) = (   0.0000000   0.3190697   0.3327707), wk =   0.0740741
        k(   12) = (   0.0000000   0.3190697  -0.4991560), wk =   0.0370370
        k(   13) = (   0.0000000  -0.4786045   0.0000000), wk =   0.0092593
        k(   14) = (   0.0000000  -0.4786045   0.1663853), wk =   0.0370370
        k(   15) = (   0.0000000  -0.4786045   0.3327707), wk =   0.0370370
        k(   16) = (   0.0000000  -0.4786045  -0.4991560), wk =   0.0185185
        k(   17) = (   0.1663853   0.0000000   0.1663853), wk =   0.0370370
        k(   18) = (   0.1663853   0.0000000   0.3327707), wk =   0.0740741
        k(   19) = (   0.1663853   0.0000000  -0.4991560), wk =   0.0370370
        k(   20) = (   0.1663853   0.1595348   0.1663853), wk =   0.0740741
        k(   21) = (   0.1663853   0.1595348   0.3327707), wk =   0.1481481
        k(   22) = (   0.1663853   0.1595348  -0.4991560), wk =   0.0740741
        k(   23) = (   0.1663853   0.3190697   0.1663853), wk =   0.0740741
        k(   24) = (   0.1663853   0.3190697   0.3327707), wk =   0.1481481
        k(   25) = (   0.1663853   0.3190697  -0.4991560), wk =   0.0740741
        k(   26) = (   0.1663853  -0.4786045   0.1663853), wk =   0.0370370
        k(   27) = (   0.1663853  -0.4786045   0.3327707), wk =   0.0740741
        k(   28) = (   0.1663853  -0.4786045  -0.4991560), wk =   0.0370370
        k(   29) = (   0.3327707   0.0000000   0.3327707), wk =   0.0370370
        k(   30) = (   0.3327707   0.0000000  -0.4991560), wk =   0.0370370
        k(   31) = (   0.3327707   0.1595348   0.3327707), wk =   0.0740741
        k(   32) = (   0.3327707   0.1595348  -0.4991560), wk =   0.0740741
        k(   33) = (   0.3327707   0.3190697   0.3327707), wk =   0.0740741
        k(   34) = (   0.3327707   0.3190697  -0.4991560), wk =   0.0740741
        k(   35) = (   0.3327707  -0.4786045   0.3327707), wk =   0.0370370
        k(   36) = (   0.3327707  -0.4786045  -0.4991560), wk =   0.0370370
        k(   37) = (  -0.4991560   0.0000000  -0.4991560), wk =   0.0092593
        k(   38) = (  -0.4991560   0.1595348  -0.4991560), wk =   0.0185185
        k(   39) = (  -0.4991560   0.3190697  -0.4991560), wk =   0.0185185
        k(   40) = (  -0.4991560  -0.4786045  -0.4991560), wk =   0.0092593

     Initial potential from superposition of free atoms

     starting charge  367.99656, renormalised to  368.00000
     Starting wfc are  232 randomized atomic wfcs

     Writing output data file Landau_23.save

     Self-consistent Calculation

[...]

     total energy              =   -6261.10284615 Ry
     Harris-Foulkes estimate   =   -6261.10284615 Ry
     estimated scf accuracy    <          1.5E-10 Ry

     iteration # 15     ecut=   120.00 Ry     beta= 0.70
     Davidson diagonalization with overlap
     ethr =  1.00E-13,  avg # of iterations =  2.0

     End of self-consistent calculation

[...]

          k = 0.3328-0.4786-0.4992 ( 61668 PWs)   bands (ev):

[...]

          k =-0.4992-0.4786-0.4992 ( 61720 PWs)   bands (ev):

   -65.9896 -65.9896 -65.9896 -65.9896 -65.9896 -65.9896 -65.9896 -65.9896
   -30.3790 -30.3790 -30.3775 -30.3775 -30.3775 -30.3774 -30.3773 -30.3773
   -30.3171 -30.3171 -30.3171 -30.3171 -30.3171 -30.3171 -30.3156 -30.3156
   -30.2544 -30.2544 -30.2542 -30.2542 -30.2541 -30.2541 -30.2541 -30.2541
   -20.1493 -20.1493 -20.1493 -20.1493 -20.1492 -20.1492 -20.1492 -20.1492
   -20.1332 -20.1332 -20.1332 -20.1332 -20.1331 -20.1331 -20.1331 -20.1331
   -20.1243 -20.1243 -20.1242 -20.1242 -20.1242 -20.1242 -20.1241 -20.1241
   -20.1185 -20.1185 -20.1185 -20.1185 -20.1184 -20.1184 -20.1184 -20.1184
   -20.1139 -20.1139 -20.1138 -20.1138 -20.1137 -20.1137 -20.1137 -20.1137
   -20.1059 -20.1059 -20.1059 -20.1059 -20.1059 -20.1059 -20.1059 -20.1059
   -20.0995 -20.0995 -20.0995 -20.0995 -20.0995 -20.0995 -20.0995 -20.0994
    -8.8424  -8.8423  -8.7980  -8.7980  -8.7850  -8.7850  -8.7850  -8.7849
    -8.3137  -8.3137  -8.2502  -8.2502  -8.2502  -8.2502  -8.2330  -8.2330
    -8.1699  -8.1699  -8.1698  -8.1698  -8.1207  -8.1207  -8.0976  -8.0975
     3.0416   3.0416   3.0417   3.0417   3.0500   3.0501   3.0745   3.0745
     3.3199   3.3200   3.3612   3.3612   3.3612   3.3612   3.3930   3.3930
     3.4732   3.4732   3.6285   3.6285   3.6285   3.6285   3.6895   3.6895
     4.2616   4.2616   4.2722   4.2722   4.3200   4.3200   4.3200   4.3200
     4.5202   4.5202   4.5202   4.5202   4.5334   4.5335   4.6113   4.6113
     4.6671   4.6671   4.6991   4.6991   4.7193   4.7193   4.7194   4.7194
     7.1478   7.1478   7.2820   7.2820   7.2820   7.2820   7.4338   7.4338
     7.5048   7.5048   7.5048   7.5048   7.5161   7.5161   7.5902   7.5902
     7.6854   7.6854   7.7233   7.7233   7.7233   7.7233   7.7964   7.7965
    12.0300  12.0300  12.0334  12.0334  12.0334  12.0334  12.0452  12.0452
    12.3434  12.3434  12.4006  12.4006  12.4006  12.4006  12.6087  12.6087
    12.6526  12.6526  12.7641  12.7641  12.7641  12.7641  12.7918  12.7918
    17.1728  17.1729  17.1729  17.1729  17.1920  17.1920  17.2533  17.2534
    17.4846  17.4846  17.4846  17.4846  17.5452

     the Fermi energy is     9.2185 ev

!    total energy              =   -6261.10284615 Ry
     Harris-Foulkes estimate   =   -6261.10284615 Ry
     estimated scf accuracy    <          7.8E-12 Ry

     The total energy is the sum of the following terms:

     one-electron contribution =   -4671.85397535 Ry
     hartree contribution      =    2574.89293882 Ry
     xc contribution           =    -965.65365754 Ry
     ewald contribution        =   -3198.48815207 Ry
     smearing contrib. (-TS)   =      -0.00000000 Ry

     convergence has been achieved in  15 iterations

     Forces acting on atoms (cartesian axes, Ry/au):

     atom    1 type  1   force =    -0.02236213   -0.00907110   -0.00351247
     atom    2 type  1   force =     0.00351247    0.00907110   -0.02236213
     atom    3 type  1   force =     0.02236213    0.00907110   -0.00351247
     atom    4 type  1   force =    -0.00351247   -0.00907110   -0.02236213
     atom    5 type  1   force =     0.02236213   -0.00907110    0.00351247
     atom    6 type  1   force =    -0.00351247    0.00907110    0.02236213
     atom    7 type  1   force =    -0.02236213    0.00907110    0.00351247
     atom    8 type  1   force =     0.00351247   -0.00907110    0.02236213
     atom    9 type  2   force =     0.00153013    0.00374871   -0.00156388
     atom   10 type  2   force =     0.00156388   -0.00374871    0.00153013
     atom   11 type  2   force =    -0.00153013   -0.00374871   -0.00156388
     atom   12 type  2   force =    -0.00156388    0.00374871    0.00153013
     atom   13 type  2   force =    -0.00153013    0.00374871    0.00156388
     atom   14 type  2   force =    -0.00156388   -0.00374871   -0.00153013
     atom   15 type  2   force =     0.00153013   -0.00374871    0.00156388
     atom   16 type  2   force =     0.00156388    0.00374871   -0.00153013
     atom   17 type  2   force =    -0.01523989    0.00159920   -0.00019687
     atom   18 type  2   force =    -0.00040188    0.00359180   -0.00289550
     atom   19 type  2   force =     0.01523989   -0.00159920   -0.00019687
     atom   20 type  2   force =     0.00040188   -0.00359180   -0.00289550
     atom   21 type  2   force =     0.01523989    0.00159920    0.00019687
     atom   22 type  2   force =     0.00040188    0.00359180    0.00289550
     atom   23 type  2   force =    -0.01523989   -0.00159920    0.00019687
     atom   24 type  2   force =    -0.00040188   -0.00359180    0.00289550
     atom   25 type  2   force =     0.00289550    0.00359180    0.00040188
     atom   26 type  2   force =     0.00019687   -0.00159920   -0.01523989
     atom   27 type  2   force =    -0.00289550   -0.00359180    0.00040188
     atom   28 type  2   force =    -0.00019687    0.00159920   -0.01523989
     atom   29 type  2   force =    -0.00289550    0.00359180   -0.00040188
     atom   30 type  2   force =    -0.00019687   -0.00159920    0.01523989
     atom   31 type  2   force =     0.00289550   -0.00359180   -0.00040188
     atom   32 type  2   force =     0.00019687    0.00159920    0.01523989

     Total force =     0.000000     Total SCF correction =     0.000000

     Computing stress (Cartesian axis) and pressure

          total   stress  (Ry/bohr**3)                   (kbar)     P=   -0.16
  -0.00000048   0.00000000   0.00000000         -0.07      0.00      0.00
   0.00000000  -0.00000220   0.00000000          0.00     -0.32      0.00
   0.00000000   0.00000000  -0.00000048          0.00      0.00     -0.07

     Writing output data file Landau_23.save

     General routines

     Parallel routines

   This run was terminated on:   3:50: 3   1May2019

   JOB DONE.