     Program PWSCF v.6.2 (svn rev. 14038) starts on 22Mar2020 at  1: 3:14

     K-points division:     npool     =      40
     Reading input from scf.in

     Current dimensions of program PWSCF are:
     Max number of different atomic species (ntypx) = 10
     Max number of k-points (npk) =  40000
     Max angular momentum in pseudopotentials (lmaxx) =  3

     Subspace diagonalization in iterative solution of the eigenvalue problem:
     a serial algorithm will be used

     bravais-lattice index     =            0
     lattice parameter (alat)  =      14.0028  a.u.
     unit-cell volume          =    2847.4230 (a.u.)^3
     number of atoms/cell      =           32
     number of atomic types    =            2
     number of electrons       =       369.00
     number of Kohn-Sham states=          222
     kinetic-energy cutoff     =     120.0000  Ry
     charge density cutoff     =     480.0000  Ry
     convergence threshold     =      1.0E-08
     mixing beta               =       0.7000
     number of iterations used =            8  plain     mixing
     Exchange-correlation      = SLA PW NOGX NOGC ( 1  4  0  0 0 0)

     celldm(1)=  14.002839  celldm(2)=   0.000000  celldm(3)=   0.000000
     celldm(4)=   0.000000  celldm(5)=   0.000000  celldm(6)=   0.000000

     crystal axes: (cart. coord. in units of alat)
               a(1) = (   1.000000   0.000000   0.000000 )
               a(2) = (   0.000000   1.037008   0.000000 )
               a(3) = (   0.000000   0.000000   1.000050 )

     reciprocal axes: (cart. coord. in units 2 pi/alat)
               b(1) = (  1.000000  0.000000  0.000000 )
               b(2) = (  0.000000  0.964313  0.000000 )
               b(3) = (  0.000000  0.000000  0.999950 )

     PseudoPot. # 1 for W  read from file:
     /cluster/scratch/mnoe/QE/pps/W_ONCV_LDA-4.0.upf
     MD5 check sum: ba0307d5d4cd419d6f1d13dc49d7c13a
     Pseudo is Norm-conserving + core correction, Zval = 28.0
     Generated using ONCVPSP code by D. R. Hamann
     Using radial grid of 1380 points,  8 beta functions with:
                l(1) =   0
                l(2) =   0
                l(3) =   1
                l(4) =   1
                l(5) =   2
                l(6) =   2
                l(7) =   3
                l(8) =   3

     PseudoPot. # 2 for O  read from file:
     /cluster/scratch/mnoe/QE/pps/O_ONCV_LDA-3.0.upf
     MD5 check sum: a1bd6164e7280c17a38c229939bfbd54
     Pseudo is Norm-conserving + core correction, Zval =  6.0
     Generated using ONCVPSP code by D. R. Hamann
     Using radial grid of  926 points,  5 beta functions with:
                l(1) =   0
                l(2) =   0
                l(3) =   1
                l(4) =   1
                l(5) =   2

     atomic species   valence    mass     pseudopotential
        W             28.00   183.84000     W ( 1.00)
        O              6.00    15.99940     O ( 1.00)

      8 Sym. Ops., with inversion, found ( 6 have fractional translation)

   Cartesian axes

     site n.     atom                  positions (alat units)
         1           W   tau(   1) = (   0.2483831   0.2865897   0.0015270  )
         2           W   tau(   2) = (   0.7516169   0.7504182  -0.0015270  )
         3           W   tau(   3) = (   0.2516169   0.2319143   0.5015519  )
         4           W   tau(   4) = (   0.7483831   0.8050936   0.4984979  )
         5           W   tau(   5) = (   0.7516169   0.2865897   0.4984979  )
         6           W   tau(   6) = (   0.2483831   0.7504182   0.5015519  )
         7           W   tau(   7) = (   0.7483831   0.2319143  -0.0015270  )
         8           W   tau(   8) = (   0.2516169   0.8050936   0.0015270  )
         9           O   tau(   9) = (   0.2470170   0.0070747   0.0004746  )
        10           O   tau(  10) = (   0.7529830  -0.0070747  -0.0004746  )
        11           O   tau(  11) = (   0.2529830   0.5114293   0.5004995  )
        12           O   tau(  12) = (   0.7470170   0.5255786   0.4995503  )
        13           O   tau(  13) = (   0.7529830   0.0070747   0.4995503  )
        14           O   tau(  14) = (   0.2470170  -0.0070747   0.5004995  )
        15           O   tau(  15) = (   0.7470170   0.5114293  -0.0004746  )
        16           O   tau(  16) = (   0.2529830   0.5255786   0.0004746  )
        17           O   tau(  17) = (   0.5004422   0.2560788   0.4630065  )
        18           O   tau(  18) = (   0.4995578   0.7809291   0.5370433  )
        19           O   tau(  19) = (  -0.0004423   0.2624251   0.9630315  )
        20           O   tau(  20) = (   0.0004422   0.7745828   0.0370183  )
        21           O   tau(  21) = (   0.4995578   0.2560788   0.0370183  )
        22           O   tau(  22) = (   0.5004422   0.7809291   0.9630315  )
        23           O   tau(  23) = (   0.0004422   0.2624251   0.5370433  )
        24           O   tau(  24) = (  -0.0004423   0.7745828   0.4630065  )
        25           O   tau(  25) = (   0.7129835   0.2585595   0.7493669  )
        26           O   tau(  26) = (   0.2870165   0.7784484   0.2506829  )
        27           O   tau(  27) = (   0.7870166   0.2599444   0.2493421  )
        28           O   tau(  28) = (   0.2129835   0.7770635   0.7507077  )
        29           O   tau(  29) = (   0.2870165   0.2585595   0.7507077  )
        30           O   tau(  30) = (   0.7129835   0.7784484   0.2493421  )
        31           O   tau(  31) = (   0.2129835   0.2599444   0.2506829  )
        32           O   tau(  32) = (   0.7870166   0.7770635   0.7493669  )

     number of k points=    64  gaussian smearing, width (Ry)=  0.0007
                       cart. coord. in units 2pi/alat
        k(    1) = (   0.0000000   0.0000000   0.0000000), wk =   0.0092593
        k(    2) = (   0.0000000   0.0000000   0.1666584), wk =   0.0185185
        k(    3) = (   0.0000000   0.0000000   0.3333167), wk =   0.0185185
        k(    4) = (   0.0000000   0.0000000  -0.4999751), wk =   0.0092593
        k(    5) = (   0.0000000   0.1607188   0.0000000), wk =   0.0185185
        k(    6) = (   0.0000000   0.1607188   0.1666584), wk =   0.0370370
        k(    7) = (   0.0000000   0.1607188   0.3333167), wk =   0.0370370
        k(    8) = (   0.0000000   0.1607188  -0.4999751), wk =   0.0185185
        k(    9) = (   0.0000000   0.3214376   0.0000000), wk =   0.0185185
        k(   10) = (   0.0000000   0.3214376   0.1666584), wk =   0.0370370
        k(   11) = (   0.0000000   0.3214376   0.3333167), wk =   0.0370370
        k(   12) = (   0.0000000   0.3214376  -0.4999751), wk =   0.0185185
        k(   13) = (   0.0000000  -0.4821564   0.0000000), wk =   0.0092593
        k(   14) = (   0.0000000  -0.4821564   0.1666584), wk =   0.0185185
        k(   15) = (   0.0000000  -0.4821564   0.3333167), wk =   0.0185185
        k(   16) = (   0.0000000  -0.4821564  -0.4999751), wk =   0.0092593
        k(   17) = (   0.1666667   0.0000000   0.0000000), wk =   0.0185185
        k(   18) = (   0.1666667   0.0000000   0.1666584), wk =   0.0370370
        k(   19) = (   0.1666667   0.0000000   0.3333167), wk =   0.0370370
        k(   20) = (   0.1666667   0.0000000  -0.4999751), wk =   0.0185185
        k(   21) = (   0.1666667   0.1607188   0.0000000), wk =   0.0370370
        k(   22) = (   0.1666667   0.1607188   0.1666584), wk =   0.0740741
        k(   23) = (   0.1666667   0.1607188   0.3333167), wk =   0.0740741
        k(   24) = (   0.1666667   0.1607188  -0.4999751), wk =   0.0370370
        k(   25) = (   0.1666667   0.3214376   0.0000000), wk =   0.0370370
        k(   26) = (   0.1666667   0.3214376   0.1666584), wk =   0.0740741
        k(   27) = (   0.1666667   0.3214376   0.3333167), wk =   0.0740741
        k(   28) = (   0.1666667   0.3214376  -0.4999751), wk =   0.0370370
        k(   29) = (   0.1666667  -0.4821564   0.0000000), wk =   0.0185185
        k(   30) = (   0.1666667  -0.4821564   0.1666584), wk =   0.0370370
        k(   31) = (   0.1666667  -0.4821564   0.3333167), wk =   0.0370370
        k(   32) = (   0.1666667  -0.4821564  -0.4999751), wk =   0.0185185
        k(   33) = (   0.3333333   0.0000000   0.0000000), wk =   0.0185185
        k(   34) = (   0.3333333   0.0000000   0.1666584), wk =   0.0370370
        k(   35) = (   0.3333333   0.0000000   0.3333167), wk =   0.0370370
        k(   36) = (   0.3333333   0.0000000  -0.4999751), wk =   0.0185185
        k(   37) = (   0.3333333   0.1607188   0.0000000), wk =   0.0370370
        k(   38) = (   0.3333333   0.1607188   0.1666584), wk =   0.0740741
        k(   39) = (   0.3333333   0.1607188   0.3333167), wk =   0.0740741
        k(   40) = (   0.3333333   0.1607188  -0.4999751), wk =   0.0370370
        k(   41) = (   0.3333333   0.3214376   0.0000000), wk =   0.0370370
        k(   42) = (   0.3333333   0.3214376   0.1666584), wk =   0.0740741
        k(   43) = (   0.3333333   0.3214376   0.3333167), wk =   0.0740741
        k(   44) = (   0.3333333   0.3214376  -0.4999751), wk =   0.0370370
        k(   45) = (   0.3333333  -0.4821564   0.0000000), wk =   0.0185185
        k(   46) = (   0.3333333  -0.4821564   0.1666584), wk =   0.0370370
        k(   47) = (   0.3333333  -0.4821564   0.3333167), wk =   0.0370370
        k(   48) = (   0.3333333  -0.4821564  -0.4999751), wk =   0.0185185
        k(   49) = (  -0.5000000   0.0000000   0.0000000), wk =   0.0092593
        k(   50) = (  -0.5000000   0.0000000   0.1666584), wk =   0.0185185
        k(   51) = (  -0.5000000   0.0000000   0.3333167), wk =   0.0185185
        k(   52) = (  -0.5000000   0.0000000  -0.4999751), wk =   0.0092593
        k(   53) = (  -0.5000000   0.1607188   0.0000000), wk =   0.0185185
        k(   54) = (  -0.5000000   0.1607188   0.1666584), wk =   0.0370370
        k(   55) = (  -0.5000000   0.1607188   0.3333167), wk =   0.0370370
        k(   56) = (  -0.5000000   0.1607188  -0.4999751), wk =   0.0185185
        k(   57) = (  -0.5000000   0.3214376   0.0000000), wk =   0.0185185
        k(   58) = (  -0.5000000   0.3214376   0.1666584), wk =   0.0370370
        k(   59) = (  -0.5000000   0.3214376   0.3333167), wk =   0.0370370
        k(   60) = (  -0.5000000   0.3214376  -0.4999751), wk =   0.0185185
        k(   61) = (  -0.5000000  -0.4821564   0.0000000), wk =   0.0092593
        k(   62) = (  -0.5000000  -0.4821564   0.1666584), wk =   0.0185185
        k(   63) = (  -0.5000000  -0.4821564   0.3333167), wk =   0.0185185
        k(   64) = (  -0.5000000  -0.4821564  -0.4999751), wk =   0.0092593

     Initial potential from superposition of free atoms

     starting charge  367.99656, renormalised to  369.00000
     Starting wfc are  232 randomized atomic wfcs

     Self-consistent Calculation

     iteration #  1     ecut=   120.00 Ry     beta= 0.70
     Davidson diagonalization with overlap
     ethr =  1.00E-02,  avg # of iterations =  5.6

     total energy              =   -6253.07004923 Ry
     Harris-Foulkes estimate   =   -6264.11183293 Ry
     estimated scf accuracy    <      13.86086170 Ry

[...]

     total energy              =   -6260.41320100 Ry
     Harris-Foulkes estimate   =   -6260.41320105 Ry
     estimated scf accuracy    <       0.00000007 Ry

     iteration # 13     ecut=   120.00 Ry     beta= 0.70
     Davidson diagonalization with overlap
     ethr =  1.99E-11,  avg # of iterations =  2.0

     End of self-consistent calculation

          k = 0.0000 0.0000 0.0000 ( 63279 PWs)   bands (ev):

   -66.2199 -66.2194 -66.2191 -66.2190 -66.2186 -66.2186 -66.2182 -66.2177
   -30.6558 -30.6520 -30.6520 -30.6483 -30.5888 -30.5855 -30.5854 -30.5821
   -30.5600 -30.5600 -30.5564 -30.5559 -30.5550 -30.5550 -30.5514 -30.5511
   -30.4651 -30.4650 -30.4620 -30.4618 -30.4608 -30.4607 -30.4577 -30.4576
   -20.3715 -20.3711 -20.3710 -20.3706 -20.3663 -20.3662 -20.3662 -20.3661
   -20.3660 -20.3660 -20.3660 -20.3659 -20.3653 -20.3649 -20.3648 -20.3644
   -20.3609 -20.3609 -20.3608 -20.3608 -20.3596 -20.3595 -20.3595 -20.3595
   -20.3575 -20.3575 -20.3575 -20.3575 -20.3562 -20.3562 -20.3561 -20.3560
   -20.3468 -20.3467 -20.3462 -20.3462 -20.3461 -20.3461 -20.3455 -20.3455
   -20.3143 -20.3143 -20.3142 -20.3142 -20.3127 -20.3127 -20.3126 -20.3126
   -20.3088 -20.3088 -20.3088 -20.3087 -20.3072 -20.3072 -20.3072 -20.3072
   -10.1100  -9.8021  -9.7276  -9.7276  -9.4260  -9.4256  -9.3562  -9.2024
    -9.1852  -9.1274  -9.1000  -9.0999  -8.0231  -7.9682  -7.9679  -7.9193
    -7.8916  -7.8915  -7.8595  -7.8594  -7.7941  -7.7940  -7.7661  -7.7661
     0.9970   1.0005   1.0614   1.0618   1.0985   1.1095   1.1105   1.2980
     1.3527   1.3534   1.3807   1.5904   2.3192   2.3818   2.3824   2.4098
     2.5120   2.5128   4.0854   4.0867   4.2557   4.2578   4.5913   4.5921
     4.5928   4.5953   4.6331   4.6335   4.7224   4.7224   4.9048   5.2416
     5.2436   5.3166   5.3178   5.3836   5.3869   5.4013   5.4025   5.6211
     5.6214   5.6740   5.7206   5.7222   5.8060   5.9679   5.9681   6.0003
     6.0013   6.1939   6.1941   6.2773   6.2773   6.6596   6.6817   6.6832
     6.7392   6.7402   6.8686   6.9021   6.9316   6.9325   7.1507   7.1518
     7.1569   7.1578   7.8727   7.8832   7.9330   7.9352   7.9927   7.9949
     9.0388   9.0559   9.5625   9.5632   9.5732   9.5736  12.2129  12.2145
    12.2767  12.2770  12.3217  12.3226  12.3765  12.3777  12.9195  12.9336
    13.0841  13.0858  13.1333  13.1398  13.8033  13.9930  13.9950  14.0095
    14.0098  14.2316  14.2465  14.5606  15.0671  15.0758  15.4371  15.8742
    15.8758  16.7926  16.9177  16.9522  16.9539  17.2098

[...]

          k = 0.3333-0.4822-0.5000 ( 63204 PWs)   bands (ev):

[...]

          k =-0.5000 0.0000 0.0000 ( 63144 PWs)   bands (ev):

[...]

          k =-0.5000-0.4822-0.5000 ( 63176 PWs)   bands (ev):

   -66.2188 -66.2188 -66.2188 -66.2188 -66.2188 -66.2188 -66.2188 -66.2188
   -30.6194 -30.6194 -30.6194 -30.6194 -30.6193 -30.6193 -30.6193 -30.6193
   -30.5095 -30.5095 -30.5095 -30.5095 -30.5088 -30.5088 -30.5088 -30.5088
   -30.5083 -30.5083 -30.5083 -30.5083 -30.5076 -30.5076 -30.5076 -30.5076
   -20.3681 -20.3681 -20.3681 -20.3681 -20.3681 -20.3681 -20.3681 -20.3681
   -20.3661 -20.3661 -20.3661 -20.3661 -20.3661 -20.3661 -20.3661 -20.3661
   -20.3586 -20.3586 -20.3586 -20.3586 -20.3585 -20.3585 -20.3585 -20.3585
   -20.3584 -20.3584 -20.3584 -20.3584 -20.3583 -20.3583 -20.3583 -20.3583
   -20.3461 -20.3461 -20.3461 -20.3461 -20.3461 -20.3461 -20.3460 -20.3460
   -20.3110 -20.3110 -20.3110 -20.3110 -20.3109 -20.3109 -20.3109 -20.3109
   -20.3108 -20.3108 -20.3108 -20.3108 -20.3107 -20.3107 -20.3107 -20.3107
    -9.1026  -9.1026  -9.1026  -9.1026  -9.1004  -9.1004  -9.1004  -9.1004
    -8.5860  -8.5860  -8.5860  -8.5860  -8.5812  -8.5812  -8.5811  -8.5811
    -8.5473  -8.5473  -8.5473  -8.5473  -8.5461  -8.5461  -8.5460  -8.5460
     2.8874   2.8874   2.8874   2.8874   2.8952   2.8952   2.8952   2.8952
     2.9825   2.9825   2.9825   2.9825   2.9948   2.9948   2.9948   2.9948
     3.2591   3.2591   3.2591   3.2591   3.2845   3.2845   3.2845   3.2845
     3.9815   3.9815   3.9815   3.9815   3.9868   3.9868   3.9868   3.9868
     4.1185   4.1185   4.1185   4.1185   4.1220   4.1220   4.1220   4.1220
     4.2221   4.2221   4.2221   4.2221   4.2305   4.2305   4.2305   4.2305
     7.0229   7.0229   7.0229   7.0229   7.0492   7.0492   7.0492   7.0492
     7.1612   7.1612   7.1612   7.1612   7.1627   7.1627   7.1627   7.1627
     7.4309   7.4309   7.4309   7.4309   7.4376   7.4376   7.4376   7.4376
    11.7119  11.7119  11.7119  11.7119  11.7143  11.7143  11.7143  11.7143
    12.0265  12.0265  12.0265  12.0265  12.0527  12.0527  12.0527  12.0527
    12.2442  12.2442  12.2442  12.2442  12.2571  12.2571  12.2571  12.2571
    16.9354  16.9354  16.9354  16.9354  16.9496  16.9497  16.9497  16.9497
    17.4009  17.4009  17.4010  17.4011  17.4094  17.4094

     the Fermi energy is     9.6822 ev

!    total energy              =   -6260.41320102 Ry
     Harris-Foulkes estimate   =   -6260.41320102 Ry
     estimated scf accuracy    <          1.4E-09 Ry

     The total energy is the sum of the following terms:

     one-electron contribution =   -4788.26110435 Ry
     hartree contribution      =    2630.37588417 Ry
     xc contribution           =    -966.76971750 Ry
     ewald contribution        =   -3135.75820030 Ry
     smearing contrib. (-TS)   =      -0.00006304 Ry

     convergence has been achieved in  13 iterations

     Writing output data file Landau_7.save

     General routines

     Parallel routines

   This run was terminated on:   2: 0:49  22Mar2020

   JOB DONE.