     Program PWSCF v.6.2 (svn rev. 14038) starts on 28Aug2019 at 13: 3: 4

     K-points division:     npool     =      40
     Reading input from scf.in

     Current dimensions of program PWSCF are:
     Max number of different atomic species (ntypx) = 10
     Max number of k-points (npk) =  40000
     Max angular momentum in pseudopotentials (lmaxx) =  3

     Subspace diagonalization in iterative solution of the eigenvalue problem:
     a serial algorithm will be used

     bravais-lattice index     =            0
     lattice parameter (alat)  =      13.8467  a.u.
     unit-cell volume          =    2796.3335 (a.u.)^3
     number of atoms/cell      =           32
     number of atomic types    =            2
     number of electrons       =       368.10
     number of Kohn-Sham states=          221
     kinetic-energy cutoff     =     120.0000  Ry
     charge density cutoff     =     480.0000  Ry
     convergence threshold     =      1.0E-08
     mixing beta               =       0.7000
     number of iterations used =            8  plain     mixing
     Exchange-correlation      = SLA PW NOGX NOGC ( 1  4  0  0 0 0)

     celldm(1)=  13.846710  celldm(2)=   0.000000  celldm(3)=   0.000000
     celldm(4)=   0.000000  celldm(5)=   0.000000  celldm(6)=   0.000000

     crystal axes: (cart. coord. in units of alat)
               a(1) = (   1.000000   0.000000   0.000000 )
               a(2) = (   0.000000   1.053293   0.000000 )
               a(3) = (   0.000000   0.000000   1.000000 )

     reciprocal axes: (cart. coord. in units 2 pi/alat)
               b(1) = (  1.000000  0.000000  0.000000 )
               b(2) = (  0.000000  0.949404  0.000000 )
               b(3) = (  0.000000  0.000000  1.000000 )

     PseudoPot. # 1 for W  read from file:
     /cluster/scratch/mnoe/QE/pps/W_ONCV_LDA-4.0.upf
     MD5 check sum: ba0307d5d4cd419d6f1d13dc49d7c13a
     Pseudo is Norm-conserving + core correction, Zval = 28.0
     Generated using ONCVPSP code by D. R. Hamann
     Using radial grid of 1380 points,  8 beta functions with:
                l(1) =   0
                l(2) =   0
                l(3) =   1
                l(4) =   1
                l(5) =   2
                l(6) =   2
                l(7) =   3
                l(8) =   3

     PseudoPot. # 2 for O  read from file:
     /cluster/scratch/mnoe/QE/pps/O_ONCV_LDA-3.0.upf
     MD5 check sum: b55cdb4f45ae2203d24ad12cf8d61a31
     Pseudo is Norm-conserving + core correction, Zval =  6.0
     Generated using ONCVPSP code by D. R. Hamann
     Using radial grid of  926 points,  5 beta functions with:
                l(1) =   0
                l(2) =   0
                l(3) =   1
                l(4) =   1
                l(5) =   2

     atomic species   valence    mass     pseudopotential
        W             28.00   183.84000     W ( 1.00)
        O              6.00    15.99940     O ( 1.00)

      8 Sym. Ops. (no inversion) found ( 4 have fractional translation)

   Cartesian axes

     site n.     atom                  positions (alat units)
         1           W   tau(   1) = (   0.2616900   0.2968811   0.2503300  )
         2           W   tau(   2) = (  -0.2503300   0.7564118  -0.7383099  )
         3           W   tau(   3) = (   0.2383100   0.2297653   0.7503300  )
         4           W   tau(   4) = (   0.7503300   0.8235276   0.7616900  )
         5           W   tau(   5) = (   0.7383100   0.2968811   0.7496700  )
         6           W   tau(   6) = (   0.2503300   0.7564118   0.7383100  )
         7           W   tau(   7) = (  -0.2383099   0.2297653  -0.7503300  )
         8           W   tau(   8) = (   0.2496700   0.8235276   0.2383100  )
         9           O   tau(   9) = (   0.2628600   0.0087634   0.2593200  )
        10           O   tau(  10) = (  -0.2593200   1.0445296  -0.7371400  )
        11           O   tau(  11) = (   0.2371400   0.5178831   0.7593199  )
        12           O   tau(  12) = (   0.7593200   0.5354098   0.7628600  )
        13           O   tau(  13) = (   0.7371400   0.0087634   0.7406800  )
        14           O   tau(  14) = (   0.2593200   1.0445296   0.7371400  )
        15           O   tau(  15) = (  -0.2371400   0.5178831  -0.7593200  )
        16           O   tau(  16) = (   0.2406800   0.5354098   0.2371400  )
        17           O   tau(  17) = (   0.4958700   0.2779219   0.6995400  )
        18           O   tau(  18) = (   0.4991500   0.7805953   0.8004600  )
        19           O   tau(  19) = (  -0.9958699   0.2487246   1.1995400  )
        20           O   tau(  20) = (   0.0008500   0.7993439   0.3004600  )
        21           O   tau(  21) = (   0.5041300   0.2779219   0.3004600  )
        22           O   tau(  22) = (   0.5008500   0.7805953   1.1995400  )
        23           O   tau(  23) = (  -0.0041301   0.2487246   0.8004600  )
        24           O   tau(  24) = (  -1.0008499   0.7993439   0.6995400  )
        25           O   tau(  25) = (   0.6995400   0.2539489   2.0008500  )
        26           O   tau(  26) = (   0.3004600   0.7753709   0.4958700  )
        27           O   tau(  27) = (   0.8004600   0.2726975   0.5008500  )
        28           O   tau(  28) = (   0.1995400   0.8045683   1.9958700  )
        29           O   tau(  29) = (   0.3004600   0.2539489   0.9991501  )
        30           O   tau(  30) = (   0.6995400   0.7753709   0.5041300  )
        31           O   tau(  31) = (   0.1995400   0.2726975   0.4991500  )
        32           O   tau(  32) = (   0.8004600   0.8045683   1.0041301  )

     number of k points=    40  gaussian smearing, width (Ry)=  0.0007
                       cart. coord. in units 2pi/alat
        k(    1) = (   0.0000000   0.0000000   0.0000000), wk =   0.0092593
        k(    2) = (   0.0000000   0.0000000   0.1666667), wk =   0.0370370
        k(    3) = (   0.0000000   0.0000000   0.3333333), wk =   0.0370370
        k(    4) = (   0.0000000   0.0000000  -0.5000000), wk =   0.0185185
        k(    5) = (   0.0000000   0.1582339   0.0000000), wk =   0.0185185
        k(    6) = (   0.0000000   0.1582339   0.1666667), wk =   0.0740741
        k(    7) = (   0.0000000   0.1582339   0.3333333), wk =   0.0740741
        k(    8) = (   0.0000000   0.1582339  -0.5000000), wk =   0.0370370
        k(    9) = (   0.0000000   0.3164678   0.0000000), wk =   0.0185185
        k(   10) = (   0.0000000   0.3164678   0.1666667), wk =   0.0740741
        k(   11) = (   0.0000000   0.3164678   0.3333333), wk =   0.0740741
        k(   12) = (   0.0000000   0.3164678  -0.5000000), wk =   0.0370370
        k(   13) = (   0.0000000  -0.4747018   0.0000000), wk =   0.0092593
        k(   14) = (   0.0000000  -0.4747018   0.1666667), wk =   0.0370370
        k(   15) = (   0.0000000  -0.4747018   0.3333333), wk =   0.0370370
        k(   16) = (   0.0000000  -0.4747018  -0.5000000), wk =   0.0185185
        k(   17) = (   0.1666667   0.0000000   0.1666667), wk =   0.0370370
        k(   18) = (   0.1666667   0.0000000   0.3333333), wk =   0.0740741
        k(   19) = (   0.1666667   0.0000000  -0.5000000), wk =   0.0370370
        k(   20) = (   0.1666667   0.1582339   0.1666667), wk =   0.0740741
        k(   21) = (   0.1666667   0.1582339   0.3333333), wk =   0.1481481
        k(   22) = (   0.1666667   0.1582339  -0.5000000), wk =   0.0740741
        k(   23) = (   0.1666667   0.3164678   0.1666667), wk =   0.0740741
        k(   24) = (   0.1666667   0.3164678   0.3333333), wk =   0.1481481
        k(   25) = (   0.1666667   0.3164678  -0.5000000), wk =   0.0740741
        k(   26) = (   0.1666667  -0.4747018   0.1666667), wk =   0.0370370
        k(   27) = (   0.1666667  -0.4747018   0.3333333), wk =   0.0740741
        k(   28) = (   0.1666667  -0.4747018  -0.5000000), wk =   0.0370370
        k(   29) = (   0.3333333   0.0000000   0.3333333), wk =   0.0370370
        k(   30) = (   0.3333333   0.0000000  -0.5000000), wk =   0.0370370
        k(   31) = (   0.3333333   0.1582339   0.3333333), wk =   0.0740741
        k(   32) = (   0.3333333   0.1582339  -0.5000000), wk =   0.0740741
        k(   33) = (   0.3333333   0.3164678   0.3333333), wk =   0.0740741
        k(   34) = (   0.3333333   0.3164678  -0.5000000), wk =   0.0740741
        k(   35) = (   0.3333333  -0.4747018   0.3333333), wk =   0.0370370
        k(   36) = (   0.3333333  -0.4747018  -0.5000000), wk =   0.0370370
        k(   37) = (  -0.5000000   0.0000000  -0.5000000), wk =   0.0092593
        k(   38) = (  -0.5000000   0.1582339  -0.5000000), wk =   0.0185185
        k(   39) = (  -0.5000000   0.3164678  -0.5000000), wk =   0.0185185
        k(   40) = (  -0.5000000  -0.4747018  -0.5000000), wk =   0.0092593

     Initial potential from superposition of free atoms

     starting charge  367.99656, renormalised to  368.10000
     Starting wfc are  232 randomized atomic wfcs

     Self-consistent Calculation

     iteration #  1     ecut=   120.00 Ry     beta= 0.70
     Davidson diagonalization with overlap
     ethr =  1.00E-02,  avg # of iterations =  5.0

     total energy              =   -6253.91024178 Ry
     Harris-Foulkes estimate   =   -6264.52131024 Ry
     estimated scf accuracy    <      13.42573116 Ry

[...]

     total energy              =   -6261.04127593 Ry
     Harris-Foulkes estimate   =   -6261.04127595 Ry
     estimated scf accuracy    <       0.00000002 Ry

     iteration # 13     ecut=   120.00 Ry     beta= 0.70
     Davidson diagonalization with overlap
     ethr =  6.40E-12,  avg # of iterations =  2.9

     End of self-consistent calculation

          k = 0.0000 0.0000 0.0000 ( 62079 PWs)   bands (ev):

   -66.0888 -66.0883 -66.0878 -66.0877 -66.0873 -66.0873 -66.0867 -66.0863
   -30.4960 -30.4897 -30.4897 -30.4835 -30.4642 -30.4520 -30.4520 -30.4476
   -30.4252 -30.4221 -30.4216 -30.4216 -30.4204 -30.4162 -30.4148 -30.4148
   -30.3509 -30.3509 -30.3499 -30.3467 -30.3234 -30.3234 -30.3191 -30.3179
   -20.2461 -20.2460 -20.2459 -20.2459 -20.2458 -20.2458 -20.2457 -20.2456
   -20.2301 -20.2298 -20.2298 -20.2295 -20.2268 -20.2264 -20.2264 -20.2260
   -20.2259 -20.2256 -20.2256 -20.2253 -20.2247 -20.2242 -20.2242 -20.2238
   -20.2223 -20.2216 -20.2216 -20.2210 -20.2204 -20.2200 -20.2200 -20.2196
   -20.2148 -20.2141 -20.2136 -20.2136 -20.2121 -20.2121 -20.2112 -20.2111
   -20.2096 -20.2092 -20.2075 -20.2075 -20.2065 -20.2063 -20.2063 -20.2063
   -20.2049 -20.2049 -20.2038 -20.2038 -20.2015 -20.2015 -20.2009 -20.2006
    -9.8968  -9.6109  -9.4538  -9.4538  -9.1703  -9.1703  -9.0186  -8.9766
    -8.9656  -8.8179  -8.7873  -8.7873  -7.8275  -7.7579  -7.7392  -7.7392
    -7.7392  -7.6994  -7.6870  -7.6789  -7.6049  -7.6049  -7.5427  -7.5427
     1.2773   1.2809   1.3447   1.3447   1.3943   1.3943   1.4420   1.6875
     1.6939   1.6939   1.7160   1.9316   2.4398   2.5201   2.6097   2.6448
     2.7779   2.7779   4.1920   4.1920   4.4312   4.4344   4.8099   4.8695
     4.8695   4.8892   4.9012   4.9012   5.1071   5.1071   5.1878   5.4914
     5.4926   5.5563   5.5563   5.6039   5.6039   5.6936   5.6936   5.8759
     5.8759   5.9128   5.9209   5.9427   6.0166   6.0289   6.0473   6.1574
     6.1633   6.3042   6.3160   6.6014   6.6014   6.8639   6.8707   6.8707
     6.8973   6.9023   7.0279   7.0664   7.1114   7.1114   7.3621   7.3622
     7.4774   7.4774   7.8097   7.8253   8.1063   8.1063   8.1460   8.1976
     9.4320   9.4369  10.0892  10.1003  10.1269  10.1269  12.2964  12.2964
    12.3410  12.3410  12.4618  12.4618  12.5791  12.6450  12.7609  12.8677
    13.2472  13.3611  13.4233  13.4233  13.7776  14.0732  14.0732  14.1772
    14.3326  14.5526  14.5526  14.9664  15.4766  15.4862  15.5558  16.0825
    16.0825  16.8377  17.0772  17.0772  17.5583

[...]

          k = 0.3333-0.4747-0.5000 ( 61996 PWs)   bands (ev):

[...]

          k =-0.5000 0.0000-0.5000 ( 62180 PWs)   bands (ev):

[...]

          k =-0.5000-0.4747-0.5000 ( 62064 PWs)   bands (ev):

   -66.0876 -66.0876 -66.0876 -66.0875 -66.0875 -66.0875 -66.0875 -66.0875
   -30.4618 -30.4617 -30.4610 -30.4610 -30.4610 -30.4610 -30.4608 -30.4607
   -30.3978 -30.3978 -30.3978 -30.3978 -30.3977 -30.3977 -30.3969 -30.3969
   -30.3690 -30.3690 -30.3688 -30.3688 -30.3687 -30.3687 -30.3687 -30.3687
   -20.2459 -20.2459 -20.2459 -20.2459 -20.2458 -20.2458 -20.2458 -20.2458
   -20.2277 -20.2276 -20.2276 -20.2276 -20.2276 -20.2276 -20.2276 -20.2275
   -20.2256 -20.2256 -20.2256 -20.2256 -20.2256 -20.2255 -20.2255 -20.2255
   -20.2208 -20.2208 -20.2208 -20.2208 -20.2208 -20.2208 -20.2208 -20.2207
   -20.2118 -20.2118 -20.2118 -20.2118 -20.2118 -20.2118 -20.2118 -20.2117
   -20.2074 -20.2074 -20.2074 -20.2074 -20.2073 -20.2073 -20.2073 -20.2073
   -20.2040 -20.2040 -20.2040 -20.2040 -20.2040 -20.2040 -20.2039 -20.2039
    -8.9022  -8.9022  -8.8790  -8.8790  -8.8775  -8.8775  -8.8775  -8.8774
    -8.3851  -8.3851  -8.3520  -8.3520  -8.3519  -8.3519  -8.3485  -8.3485
    -8.2885  -8.2885  -8.2884  -8.2884  -8.2694  -8.2694  -8.2499  -8.2499
     3.0037   3.0037   3.0061   3.0062   3.0062   3.0062   3.0242   3.0242
     3.2303   3.2303   3.2345   3.2345   3.2345   3.2345   3.2599   3.2599
     3.3881   3.3881   3.5128   3.5128   3.5128   3.5129   3.5733   3.5734
     4.1838   4.1838   4.2058   4.2058   4.2125   4.2125   4.2125   4.2125
     4.4196   4.4196   4.4196   4.4196   4.4376   4.4376   4.4603   4.4603
     4.5329   4.5329   4.5506   4.5507   4.5619   4.5620   4.5620   4.5620
     7.1352   7.1352   7.2306   7.2307   7.2307   7.2307   7.3499   7.3499
     7.4000   7.4000   7.4000   7.4001   7.4029   7.4029   7.4036   7.4037
     7.6156   7.6156   7.6390   7.6390   7.6390   7.6390   7.6800   7.6800
    11.8927  11.8927  11.8927  11.8927  11.8929  11.8929  11.9030  11.9030
    12.2553  12.2554  12.3282  12.3282  12.3282  12.3282  12.4523  12.4523
    12.5606  12.5606  12.6216  12.6216  12.6216  12.6216  12.6474  12.6474
    17.1564  17.1564  17.1879  17.1880  17.1880  17.1880  17.2170  17.2170
    17.4032  17.4033  17.4033  17.4033  17.4879

     the Fermi energy is     9.4480 ev

!    total energy              =   -6261.04127594 Ry
     Harris-Foulkes estimate   =   -6261.04127594 Ry
     estimated scf accuracy    <          8.9E-10 Ry

     The total energy is the sum of the following terms:

     one-electron contribution =   -4705.75769513 Ry
     hartree contribution      =    2590.63452700 Ry
     xc contribution           =    -965.77598991 Ry
     ewald contribution        =   -3180.14210824 Ry
     smearing contrib. (-TS)   =      -0.00000966 Ry

     convergence has been achieved in  13 iterations

     Writing output data file chempot_2.save

     General routines

     Parallel routines

   This run was terminated on:  13:13:14  28Aug2019

   JOB DONE.