     Program PWSCF v.6.4.1 starts on  2Dec2019 at 20:18:17

     K-points division:     npool     =      40
     Reading input from scf.in

     Current dimensions of program PWSCF are:
     Max number of different atomic species (ntypx) = 10
     Max number of k-points (npk) =  40000
     Max angular momentum in pseudopotentials (lmaxx) =  3

     Subspace diagonalization in iterative solution of the eigenvalue problem:
     a serial algorithm will be used

     Message from routine setup:
     using ibrav=0 with symmetry is DISCOURAGED, use correct ibrav instead

     bravais-lattice index     =            0
     lattice parameter (alat)  =      13.8375  a.u.
     unit-cell volume          =    2777.0185 (a.u.)^3
     number of atoms/cell      =           32
     number of atomic types    =            2
     number of electrons       =       368.36
     number of Kohn-Sham states=          221
     kinetic-energy cutoff     =     120.0000  Ry
     charge density cutoff     =     480.0000  Ry
     convergence threshold     =      1.0E-08
     mixing beta               =       0.7000
     number of iterations used =            8  plain     mixing
     Exchange-correlation      = SLA PW NOGX NOGC ( 1  4  0  0 0 0)

     celldm(1)=  13.837537  celldm(2)=   0.000000  celldm(3)=   0.000000
     celldm(4)=   0.000000  celldm(5)=   0.000000  celldm(6)=   0.000000

     crystal axes: (cart. coord. in units of alat)
               a(1) = (   1.000000   0.000000   0.000000 )
               a(2) = (   0.000000   1.044334   0.000000 )
               a(3) = (   0.000000   0.000000   1.003605 )

     reciprocal axes: (cart. coord. in units 2 pi/alat)
               b(1) = (  1.000000  0.000000  0.000000 )
               b(2) = (  0.000000  0.957548  0.000000 )
               b(3) = (  0.000000  0.000000  0.996408 )

     PseudoPot. # 1 for W  read from file:
     /cluster/scratch/mnoe/QE/pps/W_ONCV_LDA-4.0.upf
     MD5 check sum: ba0307d5d4cd419d6f1d13dc49d7c13a
     Pseudo is Norm-conserving + core correction, Zval = 28.0
     Generated using ONCVPSP code by D. R. Hamann
     Using radial grid of 1380 points,  8 beta functions with:
                l(1) =   0
                l(2) =   0
                l(3) =   1
                l(4) =   1
                l(5) =   2
                l(6) =   2
                l(7) =   3
                l(8) =   3

     PseudoPot. # 2 for O  read from file:
     /cluster/scratch/mnoe/QE/pps/O_ONCV_LDA-3.0.upf
     MD5 check sum: b55cdb4f45ae2203d24ad12cf8d61a31
     Pseudo is Norm-conserving + core correction, Zval =  6.0
     Generated using ONCVPSP code by D. R. Hamann
     Using radial grid of  926 points,  5 beta functions with:
                l(1) =   0
                l(2) =   0
                l(3) =   1
                l(4) =   1
                l(5) =   2

     atomic species   valence    mass     pseudopotential
        W             28.00   183.84000     W ( 1.00)
        O              6.00    15.99940     O ( 1.00)

      8 Sym. Ops., with inversion, found ( 6 have fractional translation)

   Cartesian axes

     site n.     atom                  positions (alat units)
         1           W   tau(   1) = (   0.2342800   0.2943560   0.0149035  )
         2           W   tau(   2) = (   0.7657200   0.7499781   0.9887018  )
         3           W   tau(   3) = (   0.2657200   0.2278111   0.5167062  )
         4           W   tau(   4) = (   0.7342800   0.8165230   0.4868991  )
         5           W   tau(   5) = (   0.7657200   0.2943560   0.4868991  )
         6           W   tau(   6) = (   0.2342800   0.7499781   0.5167062  )
         7           W   tau(   7) = (   0.7342800   0.2278111   0.9887018  )
         8           W   tau(   8) = (   0.2657200   0.8165230   0.0149035  )
         9           O   tau(   9) = (   0.2209900   0.0086889   0.0046367  )
        10           O   tau(  10) = (   0.7790100   1.0356453   0.9989687  )
        11           O   tau(  11) = (   0.2790100   0.5134782   0.5064394  )
        12           O   tau(  12) = (   0.7209900   0.5308559   0.4971660  )
        13           O   tau(  13) = (   0.7790100   0.0086889   0.4971660  )
        14           O   tau(  14) = (   0.2209900   1.0356453   0.5064394  )
        15           O   tau(  15) = (   0.7209900   0.5134782   0.9989687  )
        16           O   tau(  16) = (   0.2790100   0.5308559   0.0046367  )
        17           O   tau(  17) = (   0.5043000   0.2300041   0.4511608  )
        18           O   tau(  18) = (   0.4957000   0.8143299   0.5524446  )
        19           O   tau(  19) = (   0.9957000   0.2921629   0.9529635  )
        20           O   tau(  20) = (   0.0043000   0.7521712   0.0506419  )
        21           O   tau(  21) = (   0.4957000   0.2300041   0.0506419  )
        22           O   tau(  22) = (   0.5043000   0.8143299   0.9529635  )
        23           O   tau(  23) = (   0.0043000   0.2921629   0.5524446  )
        24           O   tau(  24) = (   0.9957000   0.7521712   0.4511608  )
        25           O   tau(  25) = (   0.6995400   0.2542953   0.7461605  )
        26           O   tau(  26) = (   0.3004600   0.7900388   0.2574448  )
        27           O   tau(  27) = (   0.8004600   0.2678717   0.2443578  )
        28           O   tau(  28) = (   0.1995400   0.7764624   0.7592475  )
        29           O   tau(  29) = (   0.3004600   0.2542953   0.7592475  )
        30           O   tau(  30) = (   0.6995400   0.7900388   0.2443578  )
        31           O   tau(  31) = (   0.1995400   0.2678717   0.2574448  )
        32           O   tau(  32) = (   0.8004600   0.7764624   0.7461605  )

     number of k points=    64  gaussian smearing, width (Ry)=  0.0007
                       cart. coord. in units 2pi/alat
        k(    1) = (   0.0000000   0.0000000   0.0000000), wk =   0.0092593
        k(    2) = (   0.0000000   0.0000000   0.1660679), wk =   0.0185185
        k(    3) = (   0.0000000   0.0000000   0.3321359), wk =   0.0185185
        k(    4) = (   0.0000000   0.0000000  -0.4982038), wk =   0.0092593
        k(    5) = (   0.0000000   0.1595913   0.0000000), wk =   0.0185185
        k(    6) = (   0.0000000   0.1595913   0.1660679), wk =   0.0370370
        k(    7) = (   0.0000000   0.1595913   0.3321359), wk =   0.0370370
        k(    8) = (   0.0000000   0.1595913  -0.4982038), wk =   0.0185185
        k(    9) = (   0.0000000   0.3191827   0.0000000), wk =   0.0185185
        k(   10) = (   0.0000000   0.3191827   0.1660679), wk =   0.0370370
        k(   11) = (   0.0000000   0.3191827   0.3321359), wk =   0.0370370
        k(   12) = (   0.0000000   0.3191827  -0.4982038), wk =   0.0185185
        k(   13) = (   0.0000000  -0.4787740   0.0000000), wk =   0.0092593
        k(   14) = (   0.0000000  -0.4787740   0.1660679), wk =   0.0185185
        k(   15) = (   0.0000000  -0.4787740   0.3321359), wk =   0.0185185
        k(   16) = (   0.0000000  -0.4787740  -0.4982038), wk =   0.0092593
        k(   17) = (   0.1666667   0.0000000   0.0000000), wk =   0.0185185
        k(   18) = (   0.1666667   0.0000000   0.1660679), wk =   0.0370370
        k(   19) = (   0.1666667   0.0000000   0.3321359), wk =   0.0370370
        k(   20) = (   0.1666667   0.0000000  -0.4982038), wk =   0.0185185
        k(   21) = (   0.1666667   0.1595913   0.0000000), wk =   0.0370370
        k(   22) = (   0.1666667   0.1595913   0.1660679), wk =   0.0740741
        k(   23) = (   0.1666667   0.1595913   0.3321359), wk =   0.0740741
        k(   24) = (   0.1666667   0.1595913  -0.4982038), wk =   0.0370370
        k(   25) = (   0.1666667   0.3191827   0.0000000), wk =   0.0370370
        k(   26) = (   0.1666667   0.3191827   0.1660679), wk =   0.0740741
        k(   27) = (   0.1666667   0.3191827   0.3321359), wk =   0.0740741
        k(   28) = (   0.1666667   0.3191827  -0.4982038), wk =   0.0370370
        k(   29) = (   0.1666667  -0.4787740   0.0000000), wk =   0.0185185
        k(   30) = (   0.1666667  -0.4787740   0.1660679), wk =   0.0370370
        k(   31) = (   0.1666667  -0.4787740   0.3321359), wk =   0.0370370
        k(   32) = (   0.1666667  -0.4787740  -0.4982038), wk =   0.0185185
        k(   33) = (   0.3333333   0.0000000   0.0000000), wk =   0.0185185
        k(   34) = (   0.3333333   0.0000000   0.1660679), wk =   0.0370370
        k(   35) = (   0.3333333   0.0000000   0.3321359), wk =   0.0370370
        k(   36) = (   0.3333333   0.0000000  -0.4982038), wk =   0.0185185
        k(   37) = (   0.3333333   0.1595913   0.0000000), wk =   0.0370370
        k(   38) = (   0.3333333   0.1595913   0.1660679), wk =   0.0740741
        k(   39) = (   0.3333333   0.1595913   0.3321359), wk =   0.0740741
        k(   40) = (   0.3333333   0.1595913  -0.4982038), wk =   0.0370370
        k(   41) = (   0.3333333   0.3191827   0.0000000), wk =   0.0370370
        k(   42) = (   0.3333333   0.3191827   0.1660679), wk =   0.0740741
        k(   43) = (   0.3333333   0.3191827   0.3321359), wk =   0.0740741
        k(   44) = (   0.3333333   0.3191827  -0.4982038), wk =   0.0370370
        k(   45) = (   0.3333333  -0.4787740   0.0000000), wk =   0.0185185
        k(   46) = (   0.3333333  -0.4787740   0.1660679), wk =   0.0370370
        k(   47) = (   0.3333333  -0.4787740   0.3321359), wk =   0.0370370
        k(   48) = (   0.3333333  -0.4787740  -0.4982038), wk =   0.0185185
        k(   49) = (  -0.5000000   0.0000000   0.0000000), wk =   0.0092593
        k(   50) = (  -0.5000000   0.0000000   0.1660679), wk =   0.0185185
        k(   51) = (  -0.5000000   0.0000000   0.3321359), wk =   0.0185185
        k(   52) = (  -0.5000000   0.0000000  -0.4982038), wk =   0.0092593
        k(   53) = (  -0.5000000   0.1595913   0.0000000), wk =   0.0185185
        k(   54) = (  -0.5000000   0.1595913   0.1660679), wk =   0.0370370
        k(   55) = (  -0.5000000   0.1595913   0.3321359), wk =   0.0370370
        k(   56) = (  -0.5000000   0.1595913  -0.4982038), wk =   0.0185185
        k(   57) = (  -0.5000000   0.3191827   0.0000000), wk =   0.0185185
        k(   58) = (  -0.5000000   0.3191827   0.1660679), wk =   0.0370370
        k(   59) = (  -0.5000000   0.3191827   0.3321359), wk =   0.0370370
        k(   60) = (  -0.5000000   0.3191827  -0.4982038), wk =   0.0185185
        k(   61) = (  -0.5000000  -0.4787740   0.0000000), wk =   0.0092593
        k(   62) = (  -0.5000000  -0.4787740   0.1660679), wk =   0.0185185
        k(   63) = (  -0.5000000  -0.4787740   0.3321359), wk =   0.0185185
        k(   64) = (  -0.5000000  -0.4787740  -0.4982038), wk =   0.0092593

     Initial potential from superposition of free atoms

     starting charge  367.99656, renormalised to  368.36000
     Starting wfcs are  232 randomized atomic wfcs

     Self-consistent Calculation

     iteration #  1     ecut=   120.00 Ry     beta= 0.70
     Davidson diagonalization with overlap
     ethr =  1.00E-02,  avg # of iterations =  5.0

     total energy              =   -6253.69025246 Ry
     Harris-Foulkes estimate   =   -6264.34474036 Ry
     estimated scf accuracy    <      13.45240691 Ry

[...]

     total energy              =   -6260.84430714 Ry
     Harris-Foulkes estimate   =   -6260.84430715 Ry
     estimated scf accuracy    <       0.00000002 Ry

     iteration # 13     ecut=   120.00 Ry     beta= 0.70
     Davidson diagonalization with overlap
     ethr =  4.85E-12,  avg # of iterations =  2.0

     End of self-consistent calculation

          k = 0.0000 0.0000 0.0000 ( 61643 PWs)   bands (ev):

   -65.8924 -65.8919 -65.8915 -65.8914 -65.8910 -65.8909 -65.8905 -65.8900
   -30.3179 -30.3098 -30.3089 -30.3001 -30.2831 -30.2771 -30.2659 -30.2634
   -30.2618 -30.2526 -30.2403 -30.2361 -30.2291 -30.2265 -30.2182 -30.2006
   -30.1695 -30.1683 -30.1652 -30.1613 -30.1455 -30.1390 -30.1386 -30.1320
   -20.0455 -20.0454 -20.0450 -20.0449 -20.0448 -20.0446 -20.0442 -20.0441
   -20.0295 -20.0292 -20.0288 -20.0288 -20.0284 -20.0283 -20.0282 -20.0276
   -20.0250 -20.0248 -20.0241 -20.0239 -20.0238 -20.0234 -20.0230 -20.0229
   -20.0226 -20.0226 -20.0222 -20.0219 -20.0200 -20.0198 -20.0193 -20.0191
   -20.0126 -20.0124 -20.0123 -20.0121 -20.0082 -20.0079 -20.0078 -20.0075
   -20.0031 -20.0030 -20.0021 -20.0020 -19.9970 -19.9970 -19.9961 -19.9961
   -19.9919 -19.9918 -19.9907 -19.9905 -19.9887 -19.9885 -19.9874 -19.9873
    -9.7681  -9.4561  -9.3252  -9.3032  -9.0467  -8.9641  -8.8862  -8.8039
    -8.7784  -8.6812  -8.6522  -8.6284  -7.7395  -7.6736  -7.6267  -7.6133
    -7.5923  -7.5864  -7.5857  -7.5290  -7.5136  -7.4753  -7.4669  -7.4482
     1.4893   1.5026   1.5370   1.5385   1.6131   1.6203   1.6624   1.8149
     1.8210   1.8950   1.9047   2.1138   2.5665   2.6622   2.7311   2.7508
     2.8760   2.9212   4.2647   4.3805   4.5026   4.7333   4.8274   4.9399
     4.9717   4.9753   4.9840   5.0017   5.2519   5.3064   5.3845   5.5491
     5.6643   5.7129   5.7400   5.7435   5.8160   5.8253   5.9272   5.9691
     5.9739   5.9997   6.0245   6.0464   6.1042   6.1403   6.1814   6.2650
     6.3061   6.4051   6.4475   6.6567   6.7071   6.9097   6.9401   7.0053
     7.0078   7.0902   7.1167   7.1240   7.1249   7.2083   7.3454   7.3881
     7.4820   7.5215   7.8744   7.9010   8.0868   8.1510   8.2620   8.3166
     9.8641   9.8950  10.3158  10.3281  10.3824  10.3991  12.3341  12.4455
    12.5598  12.6068  12.6730  12.7182  12.7192  12.8213  12.9005  12.9205
    13.4271  13.4316  13.4765  13.5601  13.7819  13.8712  14.2652  14.2654
    14.7358  14.7516  14.9995  15.0874  15.6033  15.6467  15.7813  16.1469
    16.2094  16.9181  17.0592  17.1929  17.7568

[...]

          k = 0.3333-0.4788-0.4982 ( 61600 PWs)   bands (ev):

[...]

          k =-0.5000 0.0000 0.0000 ( 61608 PWs)   bands (ev):

[...]

          k =-0.5000-0.4788-0.4982 ( 61616 PWs)   bands (ev):

   -65.8912 -65.8912 -65.8912 -65.8912 -65.8912 -65.8912 -65.8912 -65.8912
   -30.2800 -30.2800 -30.2800 -30.2800 -30.2790 -30.2790 -30.2790 -30.2789
   -30.2201 -30.2200 -30.2200 -30.2200 -30.2174 -30.2174 -30.2174 -30.2174
   -30.1802 -30.1802 -30.1802 -30.1802 -30.1776 -30.1776 -30.1776 -30.1776
   -20.0448 -20.0448 -20.0448 -20.0448 -20.0448 -20.0448 -20.0448 -20.0447
   -20.0287 -20.0287 -20.0287 -20.0287 -20.0285 -20.0285 -20.0285 -20.0285
   -20.0234 -20.0234 -20.0234 -20.0234 -20.0231 -20.0231 -20.0231 -20.0231
   -20.0219 -20.0219 -20.0219 -20.0219 -20.0215 -20.0214 -20.0214 -20.0214
   -20.0102 -20.0102 -20.0102 -20.0102 -20.0099 -20.0098 -20.0098 -20.0098
   -19.9997 -19.9997 -19.9997 -19.9997 -19.9996 -19.9996 -19.9996 -19.9995
   -19.9898 -19.9898 -19.9898 -19.9898 -19.9897 -19.9897 -19.9897 -19.9897
    -8.7777  -8.7776  -8.7776  -8.7776  -8.7432  -8.7432  -8.7432  -8.7432
    -8.2414  -8.2414  -8.2414  -8.2414  -8.1963  -8.1963  -8.1963  -8.1963
    -8.1596  -8.1596  -8.1596  -8.1596  -8.1050  -8.1050  -8.1050  -8.1050
     3.0486   3.0486   3.0486   3.0486   3.1569   3.1569   3.1569   3.1569
     3.3294   3.3294   3.3294   3.3294   3.4616   3.4616   3.4616   3.4616
     3.5253   3.5253   3.5253   3.5253   3.7395   3.7395   3.7395   3.7395
     4.3262   4.3262   4.3262   4.3262   4.3591   4.3591   4.3591   4.3591
     4.5292   4.5292   4.5292   4.5292   4.6160   4.6160   4.6160   4.6160
     4.6888   4.6888   4.6888   4.6888   4.7868   4.7868   4.7868   4.7868
     7.2365   7.2365   7.2365   7.2365   7.4146   7.4146   7.4146   7.4146
     7.4870   7.4870   7.4870   7.4870   7.5608   7.5608   7.5608   7.5608
     7.7039   7.7039   7.7039   7.7039   7.7941   7.7941   7.7941   7.7941
    12.0960  12.0960  12.0960  12.0960  12.1203  12.1203  12.1203  12.1203
    12.3823  12.3823  12.3823  12.3823  12.5792  12.5792  12.5792  12.5792
    12.7381  12.7381  12.7381  12.7381  12.8576  12.8576  12.8576  12.8576
    17.1869  17.1869  17.1869  17.1869  17.2792  17.2792  17.2793  17.2793
    17.5229  17.5229  17.5229  17.5229  17.6165

     the Fermi energy is    10.1777 ev

!    total energy              =   -6260.84430714 Ry
     Harris-Foulkes estimate   =   -6260.84430714 Ry
     estimated scf accuracy    <          1.4E-09 Ry

     The total energy is the sum of the following terms:

     one-electron contribution =   -4669.01360968 Ry
     hartree contribution      =    2574.72040090 Ry
     xc contribution           =    -966.04352656 Ry
     ewald contribution        =   -3200.50753553 Ry
     smearing contrib. (-TS)   =      -0.00003627 Ry

     convergence has been achieved in  13 iterations

     Writing output data file Landau_34.save/

     General routines

     Parallel routines

   This run was terminated on:  20:52: 8   2Dec2019

   JOB DONE.