     Program PWSCF v.6.2 (svn rev. 14038) starts on 19Mar2020 at 19:28: 3

     K-points division:     npool     =      40
     Reading input from rscf.in

     Current dimensions of program PWSCF are:
     Max number of different atomic species (ntypx) = 10
     Max number of k-points (npk) =  40000
     Max angular momentum in pseudopotentials (lmaxx) =  3

     Subspace diagonalization in iterative solution of the eigenvalue problem:
     a serial algorithm will be used

     bravais-lattice index     =            0
     lattice parameter (alat)  =      13.8397  a.u.
     unit-cell volume          =    2804.9816 (a.u.)^3
     number of atoms/cell      =           32
     number of atomic types    =            2
     number of electrons       =       368.00
     number of Kohn-Sham states=          221
     kinetic-energy cutoff     =     120.0000  Ry
     charge density cutoff     =     480.0000  Ry
     convergence threshold     =      1.0E-08
     mixing beta               =       0.7000
     number of iterations used =            8  plain     mixing
     Exchange-correlation      = SLA PW NOGX NOGC ( 1  4  0  0 0 0)
     nstep                     =           50

     celldm(1)=  13.839685  celldm(2)=   0.000000  celldm(3)=   0.000000
     celldm(4)=   0.000000  celldm(5)=   0.000000  celldm(6)=   0.000000

     crystal axes: (cart. coord. in units of alat)
               a(1) = (   1.000000   0.000000   0.000000 )
               a(2) = (   0.000000   1.058160   0.000000 )
               a(3) = (   0.000000   0.000000   1.000000 )

     reciprocal axes: (cart. coord. in units 2 pi/alat)
               b(1) = (  1.000000  0.000000  0.000000 )
               b(2) = (  0.000000  0.945037  0.000000 )
               b(3) = (  0.000000  0.000000  1.000000 )

     PseudoPot. # 1 for W  read from file:
     /cluster/scratch/mnoe/QE/pps/W_ONCV_LDA-4.0.upf
     MD5 check sum: ba0307d5d4cd419d6f1d13dc49d7c13a
     Pseudo is Norm-conserving + core correction, Zval = 28.0
     Generated using ONCVPSP code by D. R. Hamann
     Using radial grid of 1380 points,  8 beta functions with:
                l(1) =   0
                l(2) =   0
                l(3) =   1
                l(4) =   1
                l(5) =   2
                l(6) =   2
                l(7) =   3
                l(8) =   3

     PseudoPot. # 2 for O  read from file:
     /cluster/scratch/mnoe/QE/pps/O_ONCV_LDA-3.0.upf
     MD5 check sum: a1bd6164e7280c17a38c229939bfbd54
     Pseudo is Norm-conserving + core correction, Zval =  6.0
     Generated using ONCVPSP code by D. R. Hamann
     Using radial grid of  926 points,  5 beta functions with:
                l(1) =   0
                l(2) =   0
                l(3) =   1
                l(4) =   1
                l(5) =   2

     atomic species   valence    mass     pseudopotential
        W             28.00   183.84000     W ( 1.00)
        O              6.00    15.99940     O ( 1.00)

      8 Sym. Ops., with inversion, found ( 6 have fractional translation)

   Cartesian axes

     site n.     atom                  positions (alat units)
         1           W   tau(   1) = (   0.2484986   0.2928509   0.0014178  )
         2           W   tau(   2) = (   0.7515014   0.7653092  -0.0014178  )
         3           W   tau(   3) = (   0.2515014   0.2362292   0.5014178  )
         4           W   tau(   4) = (   0.7484986   0.8219309   0.4985822  )
         5           W   tau(   5) = (   0.7515014   0.2928509   0.4985822  )
         6           W   tau(   6) = (   0.2484986   0.7653092   0.5014178  )
         7           W   tau(   7) = (   0.7484986   0.2362292  -0.0014178  )
         8           W   tau(   8) = (   0.2515014   0.8219309   0.0014178  )
         9           O   tau(   9) = (   0.2472301   0.0073322   0.0004407  )
        10           O   tau(  10) = (   0.7527699  -0.0073322  -0.0004407  )
        11           O   tau(  11) = (   0.2527699   0.5217479   0.5004407  )
        12           O   tau(  12) = (   0.7472301   0.5364122   0.4995593  )
        13           O   tau(  13) = (   0.7527699   0.0073322   0.4995593  )
        14           O   tau(  14) = (   0.2472301  -0.0073322   0.5004407  )
        15           O   tau(  15) = (   0.7472301   0.5217479  -0.0004407  )
        16           O   tau(  16) = (   0.2527699   0.5364122   0.0004407  )
        17           O   tau(  17) = (   0.5004107   0.2615334   0.4620232  )
        18           O   tau(  18) = (   0.4995893   0.7966267   0.5379768  )
        19           O   tau(  19) = (  -0.0004107   0.2675466   0.9620233  )
        20           O   tau(  20) = (   0.0004107   0.7906135   0.0379767  )
        21           O   tau(  21) = (   0.4995893   0.2615334   0.0379767  )
        22           O   tau(  22) = (   0.5004107   0.7966267   0.9620233  )
        23           O   tau(  23) = (   0.0004107   0.2675466   0.5379768  )
        24           O   tau(  24) = (  -0.0004107   0.7906135   0.4620232  )
        25           O   tau(  25) = (   0.7120232   0.2638839   0.7493775  )
        26           O   tau(  26) = (   0.2879767   0.7942762   0.2506225  )
        27           O   tau(  27) = (   0.7879768   0.2651961   0.2493775  )
        28           O   tau(  28) = (   0.2120233   0.7929640   0.7506225  )
        29           O   tau(  29) = (   0.2879767   0.2638839   0.7506225  )
        30           O   tau(  30) = (   0.7120232   0.7942762   0.2493775  )
        31           O   tau(  31) = (   0.2120233   0.2651961   0.2506225  )
        32           O   tau(  32) = (   0.7879768   0.7929640   0.7493775  )

     number of k points=    64  gaussian smearing, width (Ry)=  0.0007
                       cart. coord. in units 2pi/alat
        k(    1) = (   0.0000000   0.0000000   0.0000000), wk =   0.0092593
        k(    2) = (   0.0000000   0.0000000   0.1666667), wk =   0.0185185
        k(    3) = (   0.0000000   0.0000000   0.3333333), wk =   0.0185185
        k(    4) = (   0.0000000   0.0000000  -0.5000000), wk =   0.0092593
        k(    5) = (   0.0000000   0.1575061   0.0000000), wk =   0.0185185
        k(    6) = (   0.0000000   0.1575061   0.1666667), wk =   0.0370370
        k(    7) = (   0.0000000   0.1575061   0.3333333), wk =   0.0370370
        k(    8) = (   0.0000000   0.1575061  -0.5000000), wk =   0.0185185
        k(    9) = (   0.0000000   0.3150122   0.0000000), wk =   0.0185185
        k(   10) = (   0.0000000   0.3150122   0.1666667), wk =   0.0370370
        k(   11) = (   0.0000000   0.3150122   0.3333333), wk =   0.0370370
        k(   12) = (   0.0000000   0.3150122  -0.5000000), wk =   0.0185185
        k(   13) = (   0.0000000  -0.4725183   0.0000000), wk =   0.0092593
        k(   14) = (   0.0000000  -0.4725183   0.1666667), wk =   0.0185185
        k(   15) = (   0.0000000  -0.4725183   0.3333333), wk =   0.0185185
        k(   16) = (   0.0000000  -0.4725183  -0.5000000), wk =   0.0092593
        k(   17) = (   0.1666667   0.0000000   0.1666667), wk =   0.0370370
        k(   18) = (   0.1666667   0.0000000   0.3333333), wk =   0.0370370
        k(   19) = (   0.1666667   0.0000000  -0.5000000), wk =   0.0185185
        k(   20) = (   0.1666667   0.1575061   0.1666667), wk =   0.0740741
        k(   21) = (   0.1666667   0.1575061   0.3333333), wk =   0.0740741
        k(   22) = (   0.1666667   0.1575061  -0.5000000), wk =   0.0370370
        k(   23) = (   0.1666667   0.3150122   0.1666667), wk =   0.0740741
        k(   24) = (   0.1666667   0.3150122   0.3333333), wk =   0.0740741
        k(   25) = (   0.1666667   0.3150122  -0.5000000), wk =   0.0370370
        k(   26) = (   0.1666667  -0.4725183   0.1666667), wk =   0.0370370
        k(   27) = (   0.1666667  -0.4725183   0.3333333), wk =   0.0370370
        k(   28) = (   0.1666667  -0.4725183  -0.5000000), wk =   0.0185185
        k(   29) = (   0.3333333   0.0000000   0.3333333), wk =   0.0370370
        k(   30) = (   0.3333333   0.0000000  -0.5000000), wk =   0.0185185
        k(   31) = (   0.3333333   0.1575061   0.3333333), wk =   0.0740741
        k(   32) = (   0.3333333   0.1575061  -0.5000000), wk =   0.0370370
        k(   33) = (   0.3333333   0.3150122   0.3333333), wk =   0.0740741
        k(   34) = (   0.3333333   0.3150122  -0.5000000), wk =   0.0370370
        k(   35) = (   0.3333333  -0.4725183   0.3333333), wk =   0.0370370
        k(   36) = (   0.3333333  -0.4725183  -0.5000000), wk =   0.0185185
        k(   37) = (  -0.5000000   0.0000000  -0.5000000), wk =   0.0092593
        k(   38) = (  -0.5000000   0.1575061  -0.5000000), wk =   0.0185185
        k(   39) = (  -0.5000000   0.3150122  -0.5000000), wk =   0.0185185
        k(   40) = (  -0.5000000  -0.4725183  -0.5000000), wk =   0.0092593
        k(   41) = (   0.1666667   0.0000000   0.0000000), wk =   0.0185185
        k(   42) = (   0.3333333   0.0000000   0.0000000), wk =   0.0185185
        k(   43) = (  -0.5000000   0.0000000   0.0000000), wk =   0.0092593
        k(   44) = (   0.1666667  -0.1575061   0.0000000), wk =   0.0370370
        k(   45) = (   0.3333333  -0.1575061   0.0000000), wk =   0.0370370
        k(   46) = (  -0.5000000  -0.1575061   0.0000000), wk =   0.0185185
        k(   47) = (   0.1666667  -0.3150122   0.0000000), wk =   0.0370370
        k(   48) = (   0.3333333  -0.3150122   0.0000000), wk =   0.0370370
        k(   49) = (  -0.5000000  -0.3150122   0.0000000), wk =   0.0185185
        k(   50) = (   0.1666667   0.4725183   0.0000000), wk =   0.0185185
        k(   51) = (   0.3333333   0.4725183   0.0000000), wk =   0.0185185
        k(   52) = (  -0.5000000   0.4725183   0.0000000), wk =   0.0092593
        k(   53) = (   0.3333333   0.0000000   0.1666667), wk =   0.0370370
        k(   54) = (  -0.5000000   0.0000000   0.1666667), wk =   0.0185185
        k(   55) = (   0.3333333  -0.1575061   0.1666667), wk =   0.0740741
        k(   56) = (  -0.5000000  -0.1575061   0.1666667), wk =   0.0370370
        k(   57) = (   0.3333333  -0.3150122   0.1666667), wk =   0.0740741
        k(   58) = (  -0.5000000  -0.3150122   0.1666667), wk =   0.0370370
        k(   59) = (   0.3333333   0.4725183   0.1666667), wk =   0.0370370
        k(   60) = (  -0.5000000   0.4725183   0.1666667), wk =   0.0185185
        k(   61) = (  -0.5000000   0.0000000   0.3333333), wk =   0.0185185
        k(   62) = (  -0.5000000  -0.1575061   0.3333333), wk =   0.0370370
        k(   63) = (  -0.5000000  -0.3150122   0.3333333), wk =   0.0370370
        k(   64) = (  -0.5000000   0.4725183   0.3333333), wk =   0.0185185

     Initial potential from superposition of free atoms

     starting charge  367.99656, renormalised to  368.00000
     Starting wfc are  232 randomized atomic wfcs

     Self-consistent Calculation

     iteration #  1     ecut=   120.00 Ry     beta= 0.70
     Davidson diagonalization with overlap
     ethr =  1.00E-02,  avg # of iterations =  5.1

     total energy              =   -6254.04577004 Ry
     Harris-Foulkes estimate   =   -6264.58007957 Ry
     estimated scf accuracy    <      13.35924123 Ry

[...]

     End of self-consistent calculation

[...]
End final coordinates

     A final scf calculation at the relaxed structure.
     The G-vectors are recalculated for the final unit cell
     Results may differ from those at the preceding step.

     bravais-lattice index     =            0
     lattice parameter (alat)  =      13.8397  a.u.
     unit-cell volume          =    2844.7928 (a.u.)^3
     number of atoms/cell      =           32
     number of atomic types    =            2
     number of electrons       =       368.00
     number of Kohn-Sham states=          221
     kinetic-energy cutoff     =     120.0000  Ry
     charge density cutoff     =     480.0000  Ry
     convergence threshold     =      1.0E-10
     mixing beta               =       0.7000
     number of iterations used =            8  plain     mixing
     Exchange-correlation      = SLA PW NOGX NOGC ( 1  4  0  0 0 0)

     celldm(1)=  13.839685  celldm(2)=   0.000000  celldm(3)=   0.000000
     celldm(4)=   0.000000  celldm(5)=   0.000000  celldm(6)=   0.000000

     crystal axes: (cart. coord. in units of alat)
               a(1) = (   1.011040   0.000000   0.000000 )
               a(2) = (   0.000000   1.049823   0.000000 )
               a(3) = (   0.000000   0.000000   1.011084 )

     reciprocal axes: (cart. coord. in units 2 pi/alat)
               b(1) = (  0.989080  0.000000  0.000000 )
               b(2) = (  0.000000  0.952541  0.000000 )
               b(3) = (  0.000000  0.000000  0.989037 )

     PseudoPot. # 1 for W  read from file:
     /cluster/scratch/mnoe/QE/pps/W_ONCV_LDA-4.0.upf
     MD5 check sum: ba0307d5d4cd419d6f1d13dc49d7c13a
     Pseudo is Norm-conserving + core correction, Zval = 28.0
     Generated using ONCVPSP code by D. R. Hamann
     Using radial grid of 1380 points,  8 beta functions with:
                l(1) =   0
                l(2) =   0
                l(3) =   1
                l(4) =   1
                l(5) =   2
                l(6) =   2
                l(7) =   3
                l(8) =   3

     PseudoPot. # 2 for O  read from file:
     /cluster/scratch/mnoe/QE/pps/O_ONCV_LDA-3.0.upf
     MD5 check sum: a1bd6164e7280c17a38c229939bfbd54
     Pseudo is Norm-conserving + core correction, Zval =  6.0
     Generated using ONCVPSP code by D. R. Hamann
     Using radial grid of  926 points,  5 beta functions with:
                l(1) =   0
                l(2) =   0
                l(3) =   1
                l(4) =   1
                l(5) =   2

     atomic species   valence    mass     pseudopotential
        W             28.00   183.84000     W ( 1.00)
        O              6.00    15.99940     O ( 1.00)

      8 Sym. Ops., with inversion, found ( 6 have fractional translation)

   Cartesian axes

     site n.     atom                  positions (alat units)
         1           W   tau(   1) = (   0.2512420   0.2905436   0.0014335  )
         2           W   tau(   2) = (   0.7597981   0.7592797  -0.0014335  )
         3           W   tau(   3) = (   0.2542780   0.2343680   0.5069757  )
         4           W   tau(   4) = (   0.7567621   0.8154553   0.5041086  )
         5           W   tau(   5) = (   0.7597981   0.2905436   0.5041086  )
         6           W   tau(   6) = (   0.2512420   0.7592797   0.5069757  )
         7           W   tau(   7) = (   0.7567621   0.2343680  -0.0014335  )
         8           W   tau(   8) = (   0.2542780   0.8154553   0.0014335  )
         9           O   tau(   9) = (   0.2499595   0.0072744   0.0004456  )
        10           O   tau(  10) = (   0.7610806  -0.0072744  -0.0004456  )
        11           O   tau(  11) = (   0.2555605   0.5176373   0.5059877  )
        12           O   tau(  12) = (   0.7554796   0.5321861   0.5050966  )
        13           O   tau(  13) = (   0.7610806   0.0072744   0.5050966  )
        14           O   tau(  14) = (   0.2499595  -0.0072744   0.5059877  )
        15           O   tau(  15) = (   0.7554796   0.5176373  -0.0004456  )
        16           O   tau(  16) = (   0.2555605   0.5321861   0.0004456  )
        17           O   tau(  17) = (   0.5059353   0.2594729   0.4671444  )
        18           O   tau(  18) = (   0.5051049   0.7903504   0.5439399  )
        19           O   tau(  19) = (  -0.0004152   0.2654387   0.9726866  )
        20           O   tau(  20) = (   0.0004152   0.7843846   0.0383977  )
        21           O   tau(  21) = (   0.5051049   0.2594729   0.0383977  )
        22           O   tau(  22) = (   0.5059353   0.7903504   0.9726866  )
        23           O   tau(  23) = (   0.0004152   0.2654387   0.5439399  )
        24           O   tau(  24) = (  -0.0004152   0.7843846   0.4671444  )
        25           O   tau(  25) = (   0.7198841   0.2618049   0.7576838  )
        26           O   tau(  26) = (   0.2911560   0.7880185   0.2534005  )
        27           O   tau(  27) = (   0.7966762   0.2631068   0.2521417  )
        28           O   tau(  28) = (   0.2143640   0.7867166   0.7589426  )
        29           O   tau(  29) = (   0.2911560   0.2618049   0.7589426  )
        30           O   tau(  30) = (   0.7198841   0.7880185   0.2521417  )
        31           O   tau(  31) = (   0.2143640   0.2631068   0.2534005  )
        32           O   tau(  32) = (   0.7966762   0.7867166   0.7576838  )

     number of k points=    64  gaussian smearing, width (Ry)=  0.0007
                       cart. coord. in units 2pi/alat
        k(    1) = (   0.0000000   0.0000000   0.0000000), wk =   0.0092593
        k(    2) = (   0.0000000   0.0000000   0.1648395), wk =   0.0185185
        k(    3) = (   0.0000000   0.0000000   0.3296791), wk =   0.0185185
        k(    4) = (   0.0000000   0.0000000  -0.4945186), wk =   0.0092593
        k(    5) = (   0.0000000   0.1587569   0.0000000), wk =   0.0185185
        k(    6) = (   0.0000000   0.1587569   0.1648395), wk =   0.0370370
        k(    7) = (   0.0000000   0.1587569   0.3296791), wk =   0.0370370
        k(    8) = (   0.0000000   0.1587569  -0.4945186), wk =   0.0185185
        k(    9) = (   0.0000000   0.3175137   0.0000000), wk =   0.0185185
        k(   10) = (   0.0000000   0.3175137   0.1648395), wk =   0.0370370
        k(   11) = (   0.0000000   0.3175137   0.3296791), wk =   0.0370370
        k(   12) = (   0.0000000   0.3175137  -0.4945186), wk =   0.0185185
        k(   13) = (   0.0000000  -0.4762706   0.0000000), wk =   0.0092593
        k(   14) = (   0.0000000  -0.4762706   0.1648395), wk =   0.0185185
        k(   15) = (   0.0000000  -0.4762706   0.3296791), wk =   0.0185185
        k(   16) = (   0.0000000  -0.4762706  -0.4945186), wk =   0.0092593
        k(   17) = (   0.1648467   0.0000000   0.1648395), wk =   0.0370370
        k(   18) = (   0.1648467   0.0000000   0.3296791), wk =   0.0370370
        k(   19) = (   0.1648467   0.0000000  -0.4945186), wk =   0.0185185
        k(   20) = (   0.1648467   0.1587569   0.1648395), wk =   0.0740741
        k(   21) = (   0.1648467   0.1587569   0.3296791), wk =   0.0740741
        k(   22) = (   0.1648467   0.1587569  -0.4945186), wk =   0.0370370
        k(   23) = (   0.1648467   0.3175137   0.1648395), wk =   0.0740741
        k(   24) = (   0.1648467   0.3175137   0.3296791), wk =   0.0740741
        k(   25) = (   0.1648467   0.3175137  -0.4945186), wk =   0.0370370
        k(   26) = (   0.1648467  -0.4762706   0.1648395), wk =   0.0370370
        k(   27) = (   0.1648467  -0.4762706   0.3296791), wk =   0.0370370
        k(   28) = (   0.1648467  -0.4762706  -0.4945186), wk =   0.0185185
        k(   29) = (   0.3296935   0.0000000   0.3296791), wk =   0.0370370
        k(   30) = (   0.3296935   0.0000000  -0.4945186), wk =   0.0185185
        k(   31) = (   0.3296935   0.1587569   0.3296791), wk =   0.0740741
        k(   32) = (   0.3296935   0.1587569  -0.4945186), wk =   0.0370370
        k(   33) = (   0.3296935   0.3175137   0.3296791), wk =   0.0740741
        k(   34) = (   0.3296935   0.3175137  -0.4945186), wk =   0.0370370
        k(   35) = (   0.3296935  -0.4762706   0.3296791), wk =   0.0370370
        k(   36) = (   0.3296935  -0.4762706  -0.4945186), wk =   0.0185185
        k(   37) = (  -0.4945402   0.0000000  -0.4945186), wk =   0.0092593
        k(   38) = (  -0.4945402   0.1587569  -0.4945186), wk =   0.0185185
        k(   39) = (  -0.4945402   0.3175137  -0.4945186), wk =   0.0185185
        k(   40) = (  -0.4945402  -0.4762706  -0.4945186), wk =   0.0092593
        k(   41) = (   0.1648467   0.0000000   0.0000000), wk =   0.0185185
        k(   42) = (   0.3296935   0.0000000   0.0000000), wk =   0.0185185
        k(   43) = (  -0.4945402   0.0000000   0.0000000), wk =   0.0092593
        k(   44) = (   0.1648467  -0.1587569   0.0000000), wk =   0.0370370
        k(   45) = (   0.3296935  -0.1587569   0.0000000), wk =   0.0370370
        k(   46) = (  -0.4945402  -0.1587569   0.0000000), wk =   0.0185185
        k(   47) = (   0.1648467  -0.3175137   0.0000000), wk =   0.0370370
        k(   48) = (   0.3296935  -0.3175137   0.0000000), wk =   0.0370370
        k(   49) = (  -0.4945402  -0.3175137   0.0000000), wk =   0.0185185
        k(   50) = (   0.1648467   0.4762706   0.0000000), wk =   0.0185185
        k(   51) = (   0.3296935   0.4762706   0.0000000), wk =   0.0185185
        k(   52) = (  -0.4945402   0.4762706   0.0000000), wk =   0.0092593
        k(   53) = (   0.3296935   0.0000000   0.1648395), wk =   0.0370370
        k(   54) = (  -0.4945402   0.0000000   0.1648395), wk =   0.0185185
        k(   55) = (   0.3296935  -0.1587569   0.1648395), wk =   0.0740741
        k(   56) = (  -0.4945402  -0.1587569   0.1648395), wk =   0.0370370
        k(   57) = (   0.3296935  -0.3175137   0.1648395), wk =   0.0740741
        k(   58) = (  -0.4945402  -0.3175137   0.1648395), wk =   0.0370370
        k(   59) = (   0.3296935   0.4762706   0.1648395), wk =   0.0370370
        k(   60) = (  -0.4945402   0.4762706   0.1648395), wk =   0.0185185
        k(   61) = (  -0.4945402   0.0000000   0.3296791), wk =   0.0185185
        k(   62) = (  -0.4945402  -0.1587569   0.3296791), wk =   0.0370370
        k(   63) = (  -0.4945402  -0.3175137   0.3296791), wk =   0.0370370
        k(   64) = (  -0.4945402   0.4762706   0.3296791), wk =   0.0185185

     Initial potential from superposition of free atoms

     starting charge  367.99656, renormalised to  368.00000
     Starting wfc are  232 randomized atomic wfcs

     Writing output data file Landau_13.save

     Self-consistent Calculation

[...]

     total energy              =   -6261.10408887 Ry
     Harris-Foulkes estimate   =   -6261.10408887 Ry
     estimated scf accuracy    <          4.0E-10 Ry

     iteration # 14     ecut=   120.00 Ry     beta= 0.70
     Davidson diagonalization with overlap
     ethr =  1.09E-13,  avg # of iterations =  2.5

     End of self-consistent calculation

[...]

          k = 0.3297 0.4763 0.1648 ( 63110 PWs)   bands (ev):

[...]

          k =-0.4945 0.4763 0.3297 ( 63132 PWs)   bands (ev):

   -66.4333 -66.4333 -66.4333 -66.4333 -66.4328 -66.4328 -66.4328 -66.4328
   -30.7760 -30.7760 -30.7759 -30.7759 -30.7739 -30.7739 -30.7738 -30.7738
   -30.7449 -30.7449 -30.7449 -30.7449 -30.7230 -30.7230 -30.7228 -30.7228
   -30.7208 -30.7208 -30.7206 -30.7206 -30.6988 -30.6988 -30.6988 -30.6988
   -20.6003 -20.6003 -20.6003 -20.6003 -20.6003 -20.6003 -20.6003 -20.6002
   -20.5754 -20.5754 -20.5754 -20.5754 -20.5752 -20.5752 -20.5752 -20.5752
   -20.5742 -20.5742 -20.5742 -20.5742 -20.5738 -20.5738 -20.5738 -20.5738
   -20.5737 -20.5737 -20.5737 -20.5737 -20.5735 -20.5735 -20.5735 -20.5735
   -20.5673 -20.5673 -20.5673 -20.5673 -20.5667 -20.5667 -20.5667 -20.5667
   -20.5648 -20.5648 -20.5648 -20.5648 -20.5630 -20.5630 -20.5630 -20.5630
   -20.5627 -20.5627 -20.5627 -20.5627 -20.5610 -20.5610 -20.5610 -20.5610
    -9.3936  -9.3936  -9.3925  -9.3925  -9.0056  -9.0056  -9.0025  -9.0025
    -8.7753  -8.7752  -8.7717  -8.7717  -8.6230  -8.6230  -8.6171  -8.6171
    -8.5894  -8.5894  -8.5843  -8.5843  -8.3262  -8.3262  -8.3255  -8.3255
     2.0124   2.0124   2.0148   2.0148   2.8130   2.8130   2.8262   2.8263
     2.9032   2.9033   2.9101   2.9101   3.0673   3.0673   3.0860   3.0860
     3.1454   3.1454   3.1626   3.1626   3.4281   3.4281   3.4455   3.4455
     3.5449   3.5449   3.5764   3.5764   4.0117   4.0117   4.0260   4.0260
     4.0640   4.0640   4.1182   4.1182   4.1855   4.1855   4.2566   4.2566
     4.4229   4.4229   4.5346   4.5346   4.8132   4.8132   4.8267   4.8267
     6.8331   6.8331   6.8595   6.8595   6.9596   6.9596   6.9608   6.9608
     7.0957   7.0957   7.1243   7.1243   7.1369   7.1369   7.2075   7.2075
     7.2752   7.2752   7.3287   7.3287   7.4284   7.4284   7.4512   7.4512
    11.1682  11.1682  11.2102  11.2102  11.4193  11.4193  11.4914  11.4914
    11.9194  11.9194  11.9753  11.9753  11.9856  11.9856  11.9952  11.9952
    12.1970  12.1970  12.3184  12.3184  12.6145  12.6145  12.6951  12.6951
    16.3433  16.3433  16.3818  16.3818  16.8463  16.8463  16.8546  16.8546
    17.2190  17.2190  17.3030  17.3031  17.3474

     the Fermi energy is     8.7783 ev

!    total energy              =   -6261.10408887 Ry
     Harris-Foulkes estimate   =   -6261.10408887 Ry
     estimated scf accuracy    <          3.8E-11 Ry

     The total energy is the sum of the following terms:

     one-electron contribution =   -4781.79901516 Ry
     hartree contribution      =    2624.34072502 Ry
     xc contribution           =    -965.67020469 Ry
     ewald contribution        =   -3137.97559405 Ry
     smearing contrib. (-TS)   =      -0.00000000 Ry

     convergence has been achieved in  14 iterations

     Forces acting on atoms (cartesian axes, Ry/au):

     atom    1 type  1   force =    -0.00130904    0.01165480    0.00107004
     atom    2 type  1   force =     0.00130904   -0.01165480   -0.00107004
     atom    3 type  1   force =     0.00130904   -0.01165480    0.00107004
     atom    4 type  1   force =    -0.00130904    0.01165480   -0.00107004
     atom    5 type  1   force =     0.00130904    0.01165480   -0.00107004
     atom    6 type  1   force =    -0.00130904   -0.01165480    0.00107004
     atom    7 type  1   force =    -0.00130904   -0.01165480   -0.00107004
     atom    8 type  1   force =     0.00130904    0.01165480    0.00107004
     atom    9 type  2   force =    -0.00005665   -0.00607702   -0.00004332
     atom   10 type  2   force =     0.00005665    0.00607702    0.00004332
     atom   11 type  2   force =     0.00005665    0.00607702   -0.00004332
     atom   12 type  2   force =    -0.00005665   -0.00607702    0.00004332
     atom   13 type  2   force =     0.00005665   -0.00607702    0.00004332
     atom   14 type  2   force =    -0.00005665    0.00607702   -0.00004332
     atom   15 type  2   force =    -0.00005665    0.00607702    0.00004332
     atom   16 type  2   force =     0.00005665   -0.00607702   -0.00004332
     atom   17 type  2   force =    -0.00069591   -0.00010288   -0.00144441
     atom   18 type  2   force =     0.00069591    0.00010288    0.00144441
     atom   19 type  2   force =     0.00069591    0.00010288   -0.00144441
     atom   20 type  2   force =    -0.00069591   -0.00010288    0.00144441
     atom   21 type  2   force =     0.00069591   -0.00010288    0.00144441
     atom   22 type  2   force =    -0.00069591    0.00010288   -0.00144441
     atom   23 type  2   force =    -0.00069591    0.00010288    0.00144441
     atom   24 type  2   force =     0.00069591   -0.00010288   -0.00144441
     atom   25 type  2   force =    -0.00148033   -0.00001168    0.00079773
     atom   26 type  2   force =     0.00148033    0.00001168   -0.00079773
     atom   27 type  2   force =     0.00148033    0.00001168    0.00079773
     atom   28 type  2   force =    -0.00148033   -0.00001168   -0.00079773
     atom   29 type  2   force =     0.00148033   -0.00001168   -0.00079773
     atom   30 type  2   force =    -0.00148033    0.00001168    0.00079773
     atom   31 type  2   force =    -0.00148033    0.00001168   -0.00079773
     atom   32 type  2   force =     0.00148033   -0.00001168    0.00079773

     Total force =     0.000000     Total SCF correction =     0.000000

     Computing stress (Cartesian axis) and pressure

          total   stress  (Ry/bohr**3)                   (kbar)     P=    0.49
   0.00000489   0.00000000   0.00000000          0.72      0.00      0.00
   0.00000000   0.00000023   0.00000000          0.00      0.03      0.00
   0.00000000   0.00000000   0.00000488          0.00      0.00      0.72

     Writing output data file Landau_13.save

     General routines

     Parallel routines

   This run was terminated on:  22:33: 3  19Mar2020

   JOB DONE.