     Program PWSCF v.6.2 (svn rev. 14038) starts on 25Mar2020 at 22:55:38

     K-points division:     npool     =      40
     Reading input from scf.in

     Current dimensions of program PWSCF are:
     Max number of different atomic species (ntypx) = 10
     Max number of k-points (npk) =  40000
     Max angular momentum in pseudopotentials (lmaxx) =  3

     Subspace diagonalization in iterative solution of the eigenvalue problem:
     a serial algorithm will be used

     bravais-lattice index     =            0
     lattice parameter (alat)  =      14.0208  a.u.
     unit-cell volume          =    2790.0315 (a.u.)^3
     number of atoms/cell      =           32
     number of atomic types    =            2
     number of electrons       =       369.00
     number of Kohn-Sham states=          222
     kinetic-energy cutoff     =     120.0000  Ry
     charge density cutoff     =     480.0000  Ry
     convergence threshold     =      1.0E-08
     mixing beta               =       0.7000
     number of iterations used =            8  plain     mixing
     Exchange-correlation      = SLA PW NOGX NOGC ( 1  4  0  0 0 0)

     celldm(1)=  14.020762  celldm(2)=   0.000000  celldm(3)=   0.000000
     celldm(4)=   0.000000  celldm(5)=   0.000000  celldm(6)=   0.000000

     crystal axes: (cart. coord. in units of alat)
               a(1) = (   1.000000   0.000000   0.000000 )
               a(2) = (   0.000000   1.008288   0.000000 )
               a(3) = (   0.000000   0.000000   1.003945 )

     reciprocal axes: (cart. coord. in units 2 pi/alat)
               b(1) = (  1.000000  0.000000  0.000000 )
               b(2) = (  0.000000  0.991780  0.000000 )
               b(3) = (  0.000000  0.000000  0.996071 )

     PseudoPot. # 1 for W  read from file:
     /cluster/scratch/mnoe/QE/pps/W_ONCV_LDA-4.0.upf
     MD5 check sum: ba0307d5d4cd419d6f1d13dc49d7c13a
     Pseudo is Norm-conserving + core correction, Zval = 28.0
     Generated using ONCVPSP code by D. R. Hamann
     Using radial grid of 1380 points,  8 beta functions with:
                l(1) =   0
                l(2) =   0
                l(3) =   1
                l(4) =   1
                l(5) =   2
                l(6) =   2
                l(7) =   3
                l(8) =   3

     PseudoPot. # 2 for O  read from file:
     /cluster/scratch/mnoe/QE/pps/O_ONCV_LDA-3.0.upf
     MD5 check sum: a1bd6164e7280c17a38c229939bfbd54
     Pseudo is Norm-conserving + core correction, Zval =  6.0
     Generated using ONCVPSP code by D. R. Hamann
     Using radial grid of  926 points,  5 beta functions with:
                l(1) =   0
                l(2) =   0
                l(3) =   1
                l(4) =   1
                l(5) =   2

     atomic species   valence    mass     pseudopotential
        W             28.00   183.84000     W ( 1.00)
        O              6.00    15.99940     O ( 1.00)

      4 Sym. Ops. (no inversion) found ( 3 have fractional translation)

   Cartesian axes

     site n.     atom                  positions (alat units)
         1           W   tau(   1) = (   0.2198665   0.2782531   0.0051710  )
         2           W   tau(   2) = (   0.7568665   0.7300346  -0.0299068  )
         3           W   tau(   3) = (   0.2801335   0.2258908   0.5071433  )
         4           W   tau(   4) = (   0.7431335   0.7823970   0.4720654  )
         5           W   tau(   5) = (   0.7801334   0.2782531   0.4968014  )
         6           W   tau(   6) = (   0.2431335   0.7300346   0.5318792  )
         7           W   tau(   7) = (   0.7198665   0.2258908  -0.0051709  )
         8           W   tau(   8) = (   0.2568665   0.7823970   0.0299069  )
         9           O   tau(   9) = (   0.2122541   0.0067699  -0.0173658  )
        10           O   tau(  10) = (   0.7805140  -0.0067700  -0.0282686  )
        11           O   tau(  11) = (   0.2877459   0.4973740   0.4846065  )
        12           O   tau(  12) = (   0.7194859   0.5109138   0.4737037  )
        13           O   tau(  13) = (   0.7877458   0.0067699   0.5193381  )
        14           O   tau(  14) = (   0.2194859  -0.0067700   0.5302410  )
        15           O   tau(  15) = (   0.7122541   0.4973740   0.0173658  )
        16           O   tau(  16) = (   0.2805141   0.5109138   0.0282686  )
        17           O   tau(  17) = (   0.5101675   0.2116421   0.4657822  )
        18           O   tau(  18) = (   0.5000475   0.7863863   0.5381625  )
        19           O   tau(  19) = (  -0.0101675   0.2925018   0.9677545  )
        20           O   tau(  20) = (  -0.0000475   0.7260455   0.0361901  )
        21           O   tau(  21) = (   0.4898325   0.2116421   0.0361901  )
        22           O   tau(  22) = (   0.4999525   0.7863863   0.9677545  )
        23           O   tau(  23) = (   0.0101675   0.2925018   0.5381625  )
        24           O   tau(  24) = (   0.0000475   0.7260455   0.4657822  )
        25           O   tau(  25) = (   0.7139521   0.2678754   0.7486410  )
        26           O   tau(  26) = (   0.2860479   0.7874260   0.2620692  )
        27           O   tau(  27) = (   0.7860480   0.2362685   0.2466688  )
        28           O   tau(  28) = (   0.2139521   0.7250058   0.7640415  )
        29           O   tau(  29) = (   0.2860479   0.2678754   0.7572759  )
        30           O   tau(  30) = (   0.7139521   0.7874260   0.2399032  )
        31           O   tau(  31) = (   0.2139521   0.2362685   0.2553036  )
        32           O   tau(  32) = (   0.7860480   0.7250058   0.7418754  )

     number of k points=    64  gaussian smearing, width (Ry)=  0.0007
                       cart. coord. in units 2pi/alat
        k(    1) = (   0.0000000   0.0000000   0.0000000), wk =   0.0092593
        k(    2) = (   0.0000000   0.0000000   0.1660118), wk =   0.0185185
        k(    3) = (   0.0000000   0.0000000   0.3320236), wk =   0.0185185
        k(    4) = (   0.0000000   0.0000000  -0.4980354), wk =   0.0092593
        k(    5) = (   0.0000000   0.1652967   0.0000000), wk =   0.0185185
        k(    6) = (   0.0000000   0.1652967   0.1660118), wk =   0.0370370
        k(    7) = (   0.0000000   0.1652967   0.3320236), wk =   0.0370370
        k(    8) = (   0.0000000   0.1652967  -0.4980354), wk =   0.0185185
        k(    9) = (   0.0000000   0.3305935   0.0000000), wk =   0.0185185
        k(   10) = (   0.0000000   0.3305935   0.1660118), wk =   0.0370370
        k(   11) = (   0.0000000   0.3305935   0.3320236), wk =   0.0370370
        k(   12) = (   0.0000000   0.3305935  -0.4980354), wk =   0.0185185
        k(   13) = (   0.0000000  -0.4958902   0.0000000), wk =   0.0092593
        k(   14) = (   0.0000000  -0.4958902   0.1660118), wk =   0.0185185
        k(   15) = (   0.0000000  -0.4958902   0.3320236), wk =   0.0185185
        k(   16) = (   0.0000000  -0.4958902  -0.4980354), wk =   0.0092593
        k(   17) = (   0.1666667   0.0000000   0.0000000), wk =   0.0185185
        k(   18) = (   0.1666667   0.0000000   0.1660118), wk =   0.0370370
        k(   19) = (   0.1666667   0.0000000   0.3320236), wk =   0.0370370
        k(   20) = (   0.1666667   0.0000000  -0.4980354), wk =   0.0185185
        k(   21) = (   0.1666667   0.1652967   0.0000000), wk =   0.0370370
        k(   22) = (   0.1666667   0.1652967   0.1660118), wk =   0.0740741
        k(   23) = (   0.1666667   0.1652967   0.3320236), wk =   0.0740741
        k(   24) = (   0.1666667   0.1652967  -0.4980354), wk =   0.0370370
        k(   25) = (   0.1666667   0.3305935   0.0000000), wk =   0.0370370
        k(   26) = (   0.1666667   0.3305935   0.1660118), wk =   0.0740741
        k(   27) = (   0.1666667   0.3305935   0.3320236), wk =   0.0740741
        k(   28) = (   0.1666667   0.3305935  -0.4980354), wk =   0.0370370
        k(   29) = (   0.1666667  -0.4958902   0.0000000), wk =   0.0185185
        k(   30) = (   0.1666667  -0.4958902   0.1660118), wk =   0.0370370
        k(   31) = (   0.1666667  -0.4958902   0.3320236), wk =   0.0370370
        k(   32) = (   0.1666667  -0.4958902  -0.4980354), wk =   0.0185185
        k(   33) = (   0.3333333   0.0000000   0.0000000), wk =   0.0185185
        k(   34) = (   0.3333333   0.0000000   0.1660118), wk =   0.0370370
        k(   35) = (   0.3333333   0.0000000   0.3320236), wk =   0.0370370
        k(   36) = (   0.3333333   0.0000000  -0.4980354), wk =   0.0185185
        k(   37) = (   0.3333333   0.1652967   0.0000000), wk =   0.0370370
        k(   38) = (   0.3333333   0.1652967   0.1660118), wk =   0.0740741
        k(   39) = (   0.3333333   0.1652967   0.3320236), wk =   0.0740741
        k(   40) = (   0.3333333   0.1652967  -0.4980354), wk =   0.0370370
        k(   41) = (   0.3333333   0.3305935   0.0000000), wk =   0.0370370
        k(   42) = (   0.3333333   0.3305935   0.1660118), wk =   0.0740741
        k(   43) = (   0.3333333   0.3305935   0.3320236), wk =   0.0740741
        k(   44) = (   0.3333333   0.3305935  -0.4980354), wk =   0.0370370
        k(   45) = (   0.3333333  -0.4958902   0.0000000), wk =   0.0185185
        k(   46) = (   0.3333333  -0.4958902   0.1660118), wk =   0.0370370
        k(   47) = (   0.3333333  -0.4958902   0.3320236), wk =   0.0370370
        k(   48) = (   0.3333333  -0.4958902  -0.4980354), wk =   0.0185185
        k(   49) = (  -0.5000000   0.0000000   0.0000000), wk =   0.0092593
        k(   50) = (  -0.5000000   0.0000000   0.1660118), wk =   0.0185185
        k(   51) = (  -0.5000000   0.0000000   0.3320236), wk =   0.0185185
        k(   52) = (  -0.5000000   0.0000000  -0.4980354), wk =   0.0092593
        k(   53) = (  -0.5000000   0.1652967   0.0000000), wk =   0.0185185
        k(   54) = (  -0.5000000   0.1652967   0.1660118), wk =   0.0370370
        k(   55) = (  -0.5000000   0.1652967   0.3320236), wk =   0.0370370
        k(   56) = (  -0.5000000   0.1652967  -0.4980354), wk =   0.0185185
        k(   57) = (  -0.5000000   0.3305935   0.0000000), wk =   0.0185185
        k(   58) = (  -0.5000000   0.3305935   0.1660118), wk =   0.0370370
        k(   59) = (  -0.5000000   0.3305935   0.3320236), wk =   0.0370370
        k(   60) = (  -0.5000000   0.3305935  -0.4980354), wk =   0.0185185
        k(   61) = (  -0.5000000  -0.4958902   0.0000000), wk =   0.0092593
        k(   62) = (  -0.5000000  -0.4958902   0.1660118), wk =   0.0185185
        k(   63) = (  -0.5000000  -0.4958902   0.3320236), wk =   0.0185185
        k(   64) = (  -0.5000000  -0.4958902  -0.4980354), wk =   0.0092593

     Initial potential from superposition of free atoms

     starting charge  367.99656, renormalised to  369.00000
     Starting wfc are  232 randomized atomic wfcs

     Self-consistent Calculation

     iteration #  1     ecut=   120.00 Ry     beta= 0.70
     Davidson diagonalization with overlap
     ethr =  1.00E-02,  avg # of iterations =  5.4

     total energy              =   -6253.05137961 Ry
     Harris-Foulkes estimate   =   -6263.97430450 Ry
     estimated scf accuracy    <      13.71680789 Ry

[...]

     total energy              =   -6260.33056348 Ry
     Harris-Foulkes estimate   =   -6260.33056350 Ry
     estimated scf accuracy    <       0.00000004 Ry

     iteration # 14     ecut=   120.00 Ry     beta= 0.70
     Davidson diagonalization with overlap
     ethr =  1.11E-11,  avg # of iterations =  2.0

     End of self-consistent calculation

          k = 0.0000 0.0000 0.0000 ( 61981 PWs)   bands (ev):

   -65.8515 -65.8508 -65.8507 -65.8500 -65.8450 -65.8443 -65.8441 -65.8434
   -30.3618 -30.3580 -30.3497 -30.3458 -30.2820 -30.2798 -30.2697 -30.2631
   -30.2183 -30.2101 -30.2090 -30.2011 -30.1552 -30.1491 -30.1468 -30.1425
   -30.1300 -30.1296 -30.1271 -30.1241 -30.0705 -30.0667 -30.0646 -30.0590
   -19.9924 -19.9923 -19.9898 -19.9897 -19.9831 -19.9829 -19.9817 -19.9816
   -19.9783 -19.9780 -19.9755 -19.9752 -19.9739 -19.9736 -19.9733 -19.9730
   -19.9728 -19.9726 -19.9720 -19.9719 -19.9713 -19.9712 -19.9679 -19.9675
   -19.9669 -19.9659 -19.9645 -19.9636 -19.9595 -19.9592 -19.9584 -19.9577
   -19.9577 -19.9570 -19.9561 -19.9558 -19.9531 -19.9529 -19.9528 -19.9522
   -19.9521 -19.9518 -19.9513 -19.9510 -19.9507 -19.9496 -19.9488 -19.9476
   -19.9475 -19.9465 -19.9465 -19.9453 -19.9442 -19.9438 -19.9418 -19.9414
    -9.8172  -9.4702  -9.4345  -9.4343  -9.0216  -9.0094  -8.9873  -8.8353
    -8.7189  -8.6625  -8.6618  -8.6335  -7.8743  -7.8168  -7.7546  -7.7486
    -7.6138  -7.5599  -7.5450  -7.5063  -7.4995  -7.4926  -7.4255  -7.4142
     1.4159   1.4729   1.4771   1.5147   1.6243   1.6590   1.6689   1.6883
     1.8245   1.8764   1.8819   2.0845   2.5543   2.5985   2.7140   2.7535
     2.7706   2.8289   4.3833   4.4277   4.6130   4.6580   4.6987   4.7191
     4.8032   4.8352   4.8439   4.9222   5.1317   5.1907   5.3871   5.5116
     5.5406   5.5608   5.5678   5.6184   5.7870   5.7908   5.8188   5.8725
     5.8907   5.8921   6.0157   6.0227   6.0363   6.0980   6.1471   6.2169
     6.3393   6.4819   6.4840   6.4878   6.7054   6.7411   6.9206   6.9626
     7.0316   7.1043   7.1297   7.1817   7.1920   7.2213   7.2291   7.2747
     7.4437   7.4826   7.9980   8.0613   8.0693   8.0896   8.2143   8.2879
    10.0000  10.0904  10.1665  10.1945  10.2260  10.2811  12.3873  12.4298
    12.4735  12.6290  12.6381  12.7806  12.8640  13.0789  13.1048  13.1152
    13.2893  13.2975  13.3285  13.5667  13.7151  13.8748  13.9627  14.2302
    14.8879  14.9482  15.0176  15.1491  15.2802  15.5453  15.9962  16.0918
    16.0935  16.9354  17.0520  17.1527  17.4726  17.8704

[...]

          k = 0.3333-0.4959-0.4980 ( 61908 PWs)   bands (ev):

[...]

          k =-0.5000 0.0000 0.0000 ( 61888 PWs)   bands (ev):

[...]

          k =-0.5000-0.4959-0.4980 ( 61832 PWs)   bands (ev):

   -65.8507 -65.8507 -65.8507 -65.8507 -65.8443 -65.8442 -65.8442 -65.8442
   -30.3189 -30.3189 -30.3186 -30.3186 -30.3061 -30.3061 -30.3057 -30.3057
   -30.1740 -30.1740 -30.1737 -30.1737 -30.1718 -30.1718 -30.1717 -30.1717
   -30.1092 -30.1092 -30.1089 -30.1089 -30.1007 -30.1007 -30.1003 -30.1003
   -19.9910 -19.9909 -19.9909 -19.9909 -19.9822 -19.9822 -19.9822 -19.9822
   -19.9769 -19.9769 -19.9768 -19.9768 -19.9732 -19.9732 -19.9730 -19.9730
   -19.9719 -19.9719 -19.9717 -19.9717 -19.9704 -19.9704 -19.9702 -19.9702
   -19.9653 -19.9653 -19.9653 -19.9652 -19.9578 -19.9578 -19.9578 -19.9578
   -19.9550 -19.9550 -19.9549 -19.9549 -19.9542 -19.9542 -19.9542 -19.9542
   -19.9528 -19.9528 -19.9526 -19.9526 -19.9494 -19.9494 -19.9492 -19.9492
   -19.9466 -19.9466 -19.9466 -19.9466 -19.9431 -19.9430 -19.9429 -19.9429
    -8.8769  -8.8769  -8.8212  -8.8212  -8.8166  -8.8166  -8.8153  -8.8153
    -8.3466  -8.3466  -8.2858  -8.2858  -8.2584  -8.2584  -8.2267  -8.2267
    -8.1279  -8.1279  -8.1134  -8.1134  -8.0852  -8.0852  -8.0646  -8.0646
     3.0121   3.0121   3.0541   3.0541   3.0671   3.0672   3.0757   3.0757
     3.2113   3.2113   3.3167   3.3167   3.3578   3.3578   3.4570   3.4570
     3.5258   3.5258   3.5895   3.5895   3.6633   3.6633   3.6934   3.6934
     4.2203   4.2203   4.2884   4.2884   4.3099   4.3100   4.3358   4.3359
     4.4569   4.4569   4.5035   4.5035   4.5290   4.5291   4.5757   4.5757
     4.6303   4.6303   4.6846   4.6846   4.7349   4.7349   4.7620   4.7620
     7.1574   7.1574   7.2394   7.2394   7.2701   7.2701   7.3860   7.3861
     7.4122   7.4122   7.4540   7.4540   7.5094   7.5094   7.5825   7.5825
     7.7181   7.7181   7.7453   7.7453   7.7541   7.7541   7.7895   7.7896
    12.0506  12.0506  12.0507  12.0507  12.1272  12.1272  12.1607  12.1607
    12.4033  12.4033  12.4167  12.4167  12.4856  12.4856  12.5837  12.5837
    12.6336  12.6336  12.7275  12.7275  12.8039  12.8039  12.8220  12.8220
    17.0034  17.0034  17.0626  17.0626  17.1181  17.1181  17.2584  17.2584
    17.5991  17.5992  17.6057  17.6057  17.6526  17.6526

     the Fermi energy is    10.3661 ev

!    total energy              =   -6260.33056349 Ry
     Harris-Foulkes estimate   =   -6260.33056349 Ry
     estimated scf accuracy    <          2.8E-09 Ry

     The total energy is the sum of the following terms:

     one-electron contribution =   -4685.46289319 Ry
     hartree contribution      =    2583.66854593 Ry
     xc contribution           =    -966.74714792 Ry
     ewald contribution        =   -3191.78901606 Ry
     smearing contrib. (-TS)   =      -0.00005226 Ry

     convergence has been achieved in  14 iterations

     Writing output data file Landau_20.save

     General routines

     Parallel routines

   This run was terminated on:  23:32:45  25Mar2020

   JOB DONE.