     Program PWSCF v.6.2 (svn rev. 14038) starts on 25Mar2020 at 20:20: 0

     K-points division:     npool     =      40
     Reading input from scf.in

     Current dimensions of program PWSCF are:
     Max number of different atomic species (ntypx) = 10
     Max number of k-points (npk) =  40000
     Max angular momentum in pseudopotentials (lmaxx) =  3

     Subspace diagonalization in iterative solution of the eigenvalue problem:
     a serial algorithm will be used

     bravais-lattice index     =            0
     lattice parameter (alat)  =      13.8427  a.u.
     unit-cell volume          =    2805.3381 (a.u.)^3
     number of atoms/cell      =           32
     number of atomic types    =            2
     number of electrons       =       368.60
     number of Kohn-Sham states=          221
     kinetic-energy cutoff     =     120.0000  Ry
     charge density cutoff     =     480.0000  Ry
     convergence threshold     =      1.0E-08
     mixing beta               =       0.7000
     number of iterations used =            8  plain     mixing
     Exchange-correlation      = SLA PW NOGX NOGC ( 1  4  0  0 0 0)

     celldm(1)=  13.842693  celldm(2)=   0.000000  celldm(3)=   0.000000
     celldm(4)=   0.000000  celldm(5)=   0.000000  celldm(6)=   0.000000

     crystal axes: (cart. coord. in units of alat)
               a(1) = (   1.000000   0.000000   0.000000 )
               a(2) = (   0.000000   1.057605   0.000000 )
               a(3) = (   0.000000   0.000000   1.000000 )

     reciprocal axes: (cart. coord. in units 2 pi/alat)
               b(1) = (  1.000000  0.000000  0.000000 )
               b(2) = (  0.000000  0.945533  0.000000 )
               b(3) = (  0.000000  0.000000  1.000000 )

     PseudoPot. # 1 for W  read from file:
     /cluster/scratch/mnoe/QE/pps/W_ONCV_LDA-4.0.upf
     MD5 check sum: ba0307d5d4cd419d6f1d13dc49d7c13a
     Pseudo is Norm-conserving + core correction, Zval = 28.0
     Generated using ONCVPSP code by D. R. Hamann
     Using radial grid of 1380 points,  8 beta functions with:
                l(1) =   0
                l(2) =   0
                l(3) =   1
                l(4) =   1
                l(5) =   2
                l(6) =   2
                l(7) =   3
                l(8) =   3

     PseudoPot. # 2 for O  read from file:
     /cluster/scratch/mnoe/QE/pps/O_ONCV_LDA-3.0.upf
     MD5 check sum: a1bd6164e7280c17a38c229939bfbd54
     Pseudo is Norm-conserving + core correction, Zval =  6.0
     Generated using ONCVPSP code by D. R. Hamann
     Using radial grid of  926 points,  5 beta functions with:
                l(1) =   0
                l(2) =   0
                l(3) =   1
                l(4) =   1
                l(5) =   2

     atomic species   valence    mass     pseudopotential
        W             28.00   183.84000     W ( 1.00)
        O              6.00    15.99940     O ( 1.00)

      8 Sym. Ops. (no inversion) found ( 7 have fractional translation)

   Cartesian axes

     site n.     atom                  positions (alat units)
         1           W   tau(   1) = (   0.2482015   0.2979909  -0.0000515  )
         2           W   tau(   2) = (   0.7500515   0.7596139  -0.0017985  )
         3           W   tau(   3) = (   0.2517985   0.2308115   0.4999485  )
         4           W   tau(   4) = (   0.7499485   0.8267933   0.4982015  )
         5           W   tau(   5) = (   0.7517985   0.2979909   0.5000515  )
         6           W   tau(   6) = (   0.2499485   0.7596139   0.5017985  )
         7           W   tau(   7) = (   0.7482015   0.2308115   0.0000515  )
         8           W   tau(   8) = (   0.2500515   0.8267933   0.0017985  )
         9           O   tau(   9) = (   0.2480220   0.0087705  -0.0014350  )
        10           O   tau(  10) = (   0.7514350  -0.0087705  -0.0019780  )
        11           O   tau(  11) = (   0.2519780   0.5200319   0.4985650  )
        12           O   tau(  12) = (   0.7485650   0.5375729   0.4980220  )
        13           O   tau(  13) = (   0.7519780   0.0087705   0.5014350  )
        14           O   tau(  14) = (   0.2485650  -0.0087705   0.5019780  )
        15           O   tau(  15) = (   0.7480220   0.5200319   0.0014350  )
        16           O   tau(  16) = (   0.2514350   0.5375729   0.0019780  )
        17           O   tau(  17) = (   0.5006365   0.2621459   0.4497841  )
        18           O   tau(  18) = (   0.5001305   0.7946509   0.5502159  )
        19           O   tau(  19) = (  -0.0006365   0.2666565   0.9497841  )
        20           O   tau(  20) = (  -0.0001305   0.7917562   0.0502159  )
        21           O   tau(  21) = (   0.4993635   0.2621459   0.0502159  )
        22           O   tau(  22) = (   0.4998695   0.7946509   0.9497841  )
        23           O   tau(  23) = (   0.0006365   0.2666565   0.5502159  )
        24           O   tau(  24) = (   0.0001305   0.7917562   0.4497841  )
        25           O   tau(  25) = (   0.6997841   0.2658485   0.7498695  )
        26           O   tau(  26) = (   0.3002159   0.7954589   0.2506365  )
        27           O   tau(  27) = (   0.8002159   0.2629539   0.2498695  )
        28           O   tau(  28) = (   0.1997841   0.7909482   0.7506365  )
        29           O   tau(  29) = (   0.3002159   0.2658485   0.7501305  )
        30           O   tau(  30) = (   0.6997841   0.7954589   0.2493635  )
        31           O   tau(  31) = (   0.1997841   0.2629539   0.2501305  )
        32           O   tau(  32) = (   0.8002159   0.7909482   0.7493635  )

     number of k points=    40  gaussian smearing, width (Ry)=  0.0007
                       cart. coord. in units 2pi/alat
        k(    1) = (   0.0000000   0.0000000   0.0000000), wk =   0.0092593
        k(    2) = (   0.0000000   0.0000000   0.1666667), wk =   0.0370370
        k(    3) = (   0.0000000   0.0000000   0.3333333), wk =   0.0370370
        k(    4) = (   0.0000000   0.0000000  -0.5000000), wk =   0.0185185
        k(    5) = (   0.0000000   0.1575888   0.0000000), wk =   0.0185185
        k(    6) = (   0.0000000   0.1575888   0.1666667), wk =   0.0740741
        k(    7) = (   0.0000000   0.1575888   0.3333333), wk =   0.0740741
        k(    8) = (   0.0000000   0.1575888  -0.5000000), wk =   0.0370370
        k(    9) = (   0.0000000   0.3151776   0.0000000), wk =   0.0185185
        k(   10) = (   0.0000000   0.3151776   0.1666667), wk =   0.0740741
        k(   11) = (   0.0000000   0.3151776   0.3333333), wk =   0.0740741
        k(   12) = (   0.0000000   0.3151776  -0.5000000), wk =   0.0370370
        k(   13) = (   0.0000000  -0.4727664   0.0000000), wk =   0.0092593
        k(   14) = (   0.0000000  -0.4727664   0.1666667), wk =   0.0370370
        k(   15) = (   0.0000000  -0.4727664   0.3333333), wk =   0.0370370
        k(   16) = (   0.0000000  -0.4727664  -0.5000000), wk =   0.0185185
        k(   17) = (   0.1666667   0.0000000   0.1666667), wk =   0.0370370
        k(   18) = (   0.1666667   0.0000000   0.3333333), wk =   0.0740741
        k(   19) = (   0.1666667   0.0000000  -0.5000000), wk =   0.0370370
        k(   20) = (   0.1666667   0.1575888   0.1666667), wk =   0.0740741
        k(   21) = (   0.1666667   0.1575888   0.3333333), wk =   0.1481481
        k(   22) = (   0.1666667   0.1575888  -0.5000000), wk =   0.0740741
        k(   23) = (   0.1666667   0.3151776   0.1666667), wk =   0.0740741
        k(   24) = (   0.1666667   0.3151776   0.3333333), wk =   0.1481481
        k(   25) = (   0.1666667   0.3151776  -0.5000000), wk =   0.0740741
        k(   26) = (   0.1666667  -0.4727664   0.1666667), wk =   0.0370370
        k(   27) = (   0.1666667  -0.4727664   0.3333333), wk =   0.0740741
        k(   28) = (   0.1666667  -0.4727664  -0.5000000), wk =   0.0370370
        k(   29) = (   0.3333333   0.0000000   0.3333333), wk =   0.0370370
        k(   30) = (   0.3333333   0.0000000  -0.5000000), wk =   0.0370370
        k(   31) = (   0.3333333   0.1575888   0.3333333), wk =   0.0740741
        k(   32) = (   0.3333333   0.1575888  -0.5000000), wk =   0.0740741
        k(   33) = (   0.3333333   0.3151776   0.3333333), wk =   0.0740741
        k(   34) = (   0.3333333   0.3151776  -0.5000000), wk =   0.0740741
        k(   35) = (   0.3333333  -0.4727664   0.3333333), wk =   0.0370370
        k(   36) = (   0.3333333  -0.4727664  -0.5000000), wk =   0.0370370
        k(   37) = (  -0.5000000   0.0000000  -0.5000000), wk =   0.0092593
        k(   38) = (  -0.5000000   0.1575888  -0.5000000), wk =   0.0185185
        k(   39) = (  -0.5000000   0.3151776  -0.5000000), wk =   0.0185185
        k(   40) = (  -0.5000000  -0.4727664  -0.5000000), wk =   0.0092593

     Initial potential from superposition of free atoms

     starting charge  367.99656, renormalised to  368.60000
     Starting wfc are  232 randomized atomic wfcs

     Self-consistent Calculation

     iteration #  1     ecut=   120.00 Ry     beta= 0.70
     Davidson diagonalization with overlap
     ethr =  1.00E-02,  avg # of iterations =  5.0

     total energy              =   -6253.44183448 Ry
     Harris-Foulkes estimate   =   -6264.26727722 Ry
     estimated scf accuracy    <      13.63691488 Ry

[...]

     total energy              =   -6260.68616522 Ry
     Harris-Foulkes estimate   =   -6260.68616526 Ry
     estimated scf accuracy    <       0.00000008 Ry

     iteration # 13     ecut=   120.00 Ry     beta= 0.70
     Davidson diagonalization with overlap
     ethr =  2.08E-11,  avg # of iterations =  2.8

     End of self-consistent calculation

          k = 0.0000 0.0000 0.0000 ( 62271 PWs)   bands (ev):

   -66.0375 -66.0371 -66.0365 -66.0365 -66.0361 -66.0361 -66.0355 -66.0351
   -30.4814 -30.4781 -30.4781 -30.4749 -30.4214 -30.4186 -30.4186 -30.4159
   -30.3774 -30.3770 -30.3738 -30.3736 -30.3718 -30.3718 -30.3684 -30.3684
   -30.2755 -30.2755 -30.2727 -30.2727 -30.2712 -30.2709 -30.2685 -30.2681
   -20.1896 -20.1894 -20.1894 -20.1891 -20.1859 -20.1858 -20.1858 -20.1858
   -20.1857 -20.1857 -20.1857 -20.1856 -20.1842 -20.1839 -20.1839 -20.1836
   -20.1771 -20.1771 -20.1769 -20.1769 -20.1759 -20.1759 -20.1759 -20.1758
   -20.1741 -20.1741 -20.1740 -20.1740 -20.1731 -20.1731 -20.1728 -20.1728
   -20.1625 -20.1624 -20.1621 -20.1621 -20.1620 -20.1620 -20.1617 -20.1617
   -20.1347 -20.1346 -20.1346 -20.1346 -20.1332 -20.1331 -20.1331 -20.1331
   -20.1285 -20.1285 -20.1284 -20.1284 -20.1270 -20.1270 -20.1270 -20.1270
    -9.9189  -9.6282  -9.4822  -9.4822  -9.1939  -9.1939  -9.0738  -9.0029
    -8.9907  -8.8626  -8.8288  -8.8288  -7.8528  -7.7931  -7.7930  -7.7411
    -7.7327  -7.7322  -7.7066  -7.7058  -7.5772  -7.5772  -7.5558  -7.5558
     1.2609   1.2614   1.3317   1.3317   1.3544   1.3544   1.4010   1.6479
     1.6479   1.6491   1.6986   1.8968   2.4381   2.5132   2.5918   2.5926
     2.7434   2.7434   4.1694   4.1694   4.3934   4.3935   4.8460   4.8484
     4.9037   4.9037   4.9308   4.9308   5.0503   5.0503   5.0802   5.4425
     5.4426   5.5432   5.5432   5.5564   5.5564   5.5935   5.5935   5.8306
     5.8306   5.9069   5.9070   5.9526   5.9705   6.0758   6.0764   6.1647
     6.1647   6.2786   6.2786   6.5936   6.5936   6.8167   6.8167   6.8519
     6.8520   6.9050   7.0401   7.0443   7.1112   7.1112   7.4381   7.4381
     7.4815   7.4815   7.8280   7.8423   8.0919   8.0919   8.1574   8.1586
     9.3380   9.3449  10.0395  10.0399  10.0755  10.0755  12.3208  12.3208
    12.3397  12.3397  12.3941  12.3941  12.5490  12.5506  12.9577  12.9649
    13.2839  13.2884  13.4604  13.4604  13.8322  14.2127  14.2127  14.2128
    14.2170  14.4156  14.4156  14.8662  15.5116  15.5189  15.5229  16.1322
    16.1322  16.8662  17.1009  17.1009  17.4349

[...]

          k = 0.3333-0.4728-0.5000 ( 62208 PWs)   bands (ev):

[...]

          k =-0.5000 0.0000-0.5000 ( 62308 PWs)   bands (ev):

[...]

          k =-0.5000-0.4728-0.5000 ( 62248 PWs)   bands (ev):

   -66.0363 -66.0363 -66.0363 -66.0363 -66.0363 -66.0363 -66.0363 -66.0363
   -30.4494 -30.4494 -30.4493 -30.4493 -30.4493 -30.4493 -30.4493 -30.4493
   -30.3230 -30.3230 -30.3230 -30.3230 -30.3230 -30.3230 -30.3230 -30.3230
   -30.3216 -30.3216 -30.3215 -30.3215 -30.3215 -30.3215 -30.3215 -30.3215
   -20.1868 -20.1868 -20.1868 -20.1868 -20.1868 -20.1868 -20.1868 -20.1868
   -20.1858 -20.1858 -20.1858 -20.1858 -20.1858 -20.1858 -20.1858 -20.1858
   -20.1751 -20.1751 -20.1751 -20.1751 -20.1751 -20.1751 -20.1751 -20.1751
   -20.1748 -20.1748 -20.1748 -20.1748 -20.1748 -20.1748 -20.1748 -20.1748
   -20.1620 -20.1620 -20.1620 -20.1620 -20.1620 -20.1620 -20.1620 -20.1620
   -20.1310 -20.1310 -20.1310 -20.1310 -20.1310 -20.1310 -20.1310 -20.1310
   -20.1308 -20.1308 -20.1308 -20.1308 -20.1308 -20.1308 -20.1308 -20.1308
    -8.9038  -8.9038  -8.9019  -8.9019  -8.9019  -8.9019  -8.9005  -8.9005
    -8.3809  -8.3809  -8.3774  -8.3774  -8.3774  -8.3774  -8.3752  -8.3752
    -8.3116  -8.3115  -8.3113  -8.3113  -8.3113  -8.3113  -8.3090  -8.3090
     3.0448   3.0448   3.0477   3.0477   3.0477   3.0478   3.0511   3.0511
     3.1842   3.1842   3.1878   3.1878   3.1878   3.1878   3.1919   3.1919
     3.4677   3.4677   3.4827   3.4827   3.4828   3.4828   3.4961   3.4961
     4.1899   4.1899   4.1924   4.1924   4.1924   4.1924   4.1938   4.1938
     4.4028   4.4028   4.4028   4.4028   4.4036   4.4037   4.4047   4.4047
     4.4875   4.4875   4.4922   4.4922   4.4922   4.4922   4.4948   4.4948
     7.2005   7.2006   7.2187   7.2187   7.2187   7.2187   7.2380   7.2380
     7.3529   7.3529   7.3554   7.3554   7.3554   7.3554   7.3574   7.3574
     7.6378   7.6378   7.6419   7.6419   7.6419   7.6420   7.6466   7.6466
    11.8818  11.8818  11.8830  11.8830  11.8831  11.8831  11.8846  11.8846
    12.3229  12.3229  12.3391  12.3391  12.3391  12.3391  12.3565  12.3565
    12.5891  12.5891  12.5966  12.5966  12.5966  12.5966  12.6032  12.6032
    17.1615  17.1615  17.1703  17.1703  17.1703  17.1704  17.1791  17.1791
    17.4043  17.4043  17.4059  17.4060  17.4065

     the Fermi energy is     9.9201 ev

!    total energy              =   -6260.68616524 Ry
     Harris-Foulkes estimate   =   -6260.68616524 Ry
     estimated scf accuracy    <          1.0E-09 Ry

     The total energy is the sum of the following terms:

     one-electron contribution =   -4723.91100304 Ry
     hartree contribution      =    2600.44471301 Ry
     xc contribution           =    -966.33517651 Ry
     ewald contribution        =   -3170.88468669 Ry
     smearing contrib. (-TS)   =      -0.00001202 Ry

     convergence has been achieved in  13 iterations

     Writing output data file Landau_1.save

     General routines

     Parallel routines

   This run was terminated on:  20:35: 7  25Mar2020

   JOB DONE.