     Program PWSCF v.6.2 (svn rev. 14038) starts on 28Feb2020 at 18:34:11

     K-points division:     npool     =      40
     Reading input from rscf.in

     Current dimensions of program PWSCF are:
     Max number of different atomic species (ntypx) = 10
     Max number of k-points (npk) =  40000
     Max angular momentum in pseudopotentials (lmaxx) =  3

     Subspace diagonalization in iterative solution of the eigenvalue problem:
     a serial algorithm will be used

     bravais-lattice index     =            0
     lattice parameter (alat)  =      13.8397  a.u.
     unit-cell volume          =    2804.9816 (a.u.)^3
     number of atoms/cell      =           32
     number of atomic types    =            2
     number of electrons       =       368.00
     number of Kohn-Sham states=          221
     kinetic-energy cutoff     =     120.0000  Ry
     charge density cutoff     =     480.0000  Ry
     convergence threshold     =      1.0E-08
     mixing beta               =       0.7000
     number of iterations used =            8  plain     mixing
     Exchange-correlation      = SLA PW NOGX NOGC ( 1  4  0  0 0 0)
     nstep                     =           50

     celldm(1)=  13.839685  celldm(2)=   0.000000  celldm(3)=   0.000000
     celldm(4)=   0.000000  celldm(5)=   0.000000  celldm(6)=   0.000000

     crystal axes: (cart. coord. in units of alat)
               a(1) = (   1.000000   0.000000   0.000000 )
               a(2) = (   0.000000   1.058160   0.000000 )
               a(3) = (   0.000000   0.000000   1.000000 )

     reciprocal axes: (cart. coord. in units 2 pi/alat)
               b(1) = (  1.000000  0.000000  0.000000 )
               b(2) = (  0.000000  0.945037  0.000000 )
               b(3) = (  0.000000  0.000000  1.000000 )

     PseudoPot. # 1 for W  read from file:
     /cluster/scratch/mnoe/QE/pps/W_ONCV_LDA-4.0.upf
     MD5 check sum: ba0307d5d4cd419d6f1d13dc49d7c13a
     Pseudo is Norm-conserving + core correction, Zval = 28.0
     Generated using ONCVPSP code by D. R. Hamann
     Using radial grid of 1380 points,  8 beta functions with:
                l(1) =   0
                l(2) =   0
                l(3) =   1
                l(4) =   1
                l(5) =   2
                l(6) =   2
                l(7) =   3
                l(8) =   3

     PseudoPot. # 2 for O  read from file:
     /cluster/scratch/mnoe/QE/pps/O_ONCV_LDA-3.0.upf
     MD5 check sum: a1bd6164e7280c17a38c229939bfbd54
     Pseudo is Norm-conserving + core correction, Zval =  6.0
     Generated using ONCVPSP code by D. R. Hamann
     Using radial grid of  926 points,  5 beta functions with:
                l(1) =   0
                l(2) =   0
                l(3) =   1
                l(4) =   1
                l(5) =   2

     atomic species   valence    mass     pseudopotential
        W             28.00   183.84000     W ( 1.00)
        O              6.00    15.99940     O ( 1.00)

      8 Sym. Ops. (no inversion) found ( 4 have fractional translation)

   Cartesian axes

     site n.     atom                  positions (alat units)
         1           W   tau(   1) = (   0.2769700   0.3090335   0.2507700  )
         2           W   tau(   2) = (  -0.2507699   0.7491266  -0.7230299  )
         3           W   tau(   3) = (   0.2230300   0.2200465   0.7507700  )
         4           W   tau(   4) = (   0.7507700   0.8381135   0.7769700  )
         5           W   tau(   5) = (   0.7230300   0.3090335   0.7492300  )
         6           W   tau(   6) = (   0.2507700   0.7491266   0.7230300  )
         7           W   tau(   7) = (  -0.2230299   0.2200465  -0.7507699  )
         8           W   tau(   8) = (   0.2492300   0.8381135   0.2230300  )
         9           O   tau(   9) = (   0.2796700   0.0292031   0.2715100  )
        10           O   tau(  10) = (  -0.2715100   1.0289570  -0.7203300  )
        11           O   tau(  11) = (   0.2203300   0.4998769   0.7715100  )
        12           O   tau(  12) = (   0.7715100   0.5582832   0.7796700  )
        13           O   tau(  13) = (   0.7203300   0.0292031   0.7284900  )
        14           O   tau(  14) = (   0.2715100   1.0289570   0.7203300  )
        15           O   tau(  15) = (  -0.2203300   0.4998769  -0.7715100  )
        16           O   tau(  16) = (   0.2284900   0.5582832   0.2203300  )
        17           O   tau(  17) = (   0.4904599   0.2983906   0.7521990  )
        18           O   tau(  18) = (   0.4980400   0.7718960   0.7478010  )
        19           O   tau(  19) = (  -0.9904600   0.2306895   1.2521990  )
        20           O   tau(  20) = (   0.0019599   0.8153440   0.2478010  )
        21           O   tau(  21) = (   0.5095401   0.2983906   0.2478010  )
        22           O   tau(  22) = (   0.5019600   0.7718960   1.2521990  )
        23           O   tau(  23) = (  -0.0095400   0.2306895   0.7478010  )
        24           O   tau(  24) = (  -1.0019600   0.8153440   0.7521990  )
        25           O   tau(  25) = (   0.7521991   0.2428160   2.0019600  )
        26           O   tau(  26) = (   0.2478010   0.7597694   0.4904600  )
        27           O   tau(  27) = (   0.7478010   0.2862640   0.5019599  )
        28           O   tau(  28) = (   0.2521991   0.8274706   1.9904599  )
        29           O   tau(  29) = (   0.2478010   0.2428160   0.9980400  )
        30           O   tau(  30) = (   0.7521991   0.7597694   0.5095400  )
        31           O   tau(  31) = (   0.2521991   0.2862640   0.4980400  )
        32           O   tau(  32) = (   0.7478010   0.8274706   1.0095401  )

     number of k points=    40  gaussian smearing, width (Ry)=  0.0007
                       cart. coord. in units 2pi/alat
        k(    1) = (   0.0000000   0.0000000   0.0000000), wk =   0.0092593
        k(    2) = (   0.0000000   0.0000000   0.1666667), wk =   0.0370370
        k(    3) = (   0.0000000   0.0000000   0.3333333), wk =   0.0370370
        k(    4) = (   0.0000000   0.0000000  -0.5000000), wk =   0.0185185
        k(    5) = (   0.0000000   0.1575061   0.0000000), wk =   0.0185185
        k(    6) = (   0.0000000   0.1575061   0.1666667), wk =   0.0740741
        k(    7) = (   0.0000000   0.1575061   0.3333333), wk =   0.0740741
        k(    8) = (   0.0000000   0.1575061  -0.5000000), wk =   0.0370370
        k(    9) = (   0.0000000   0.3150122   0.0000000), wk =   0.0185185
        k(   10) = (   0.0000000   0.3150122   0.1666667), wk =   0.0740741
        k(   11) = (   0.0000000   0.3150122   0.3333333), wk =   0.0740741
        k(   12) = (   0.0000000   0.3150122  -0.5000000), wk =   0.0370370
        k(   13) = (   0.0000000  -0.4725183   0.0000000), wk =   0.0092593
        k(   14) = (   0.0000000  -0.4725183   0.1666667), wk =   0.0370370
        k(   15) = (   0.0000000  -0.4725183   0.3333333), wk =   0.0370370
        k(   16) = (   0.0000000  -0.4725183  -0.5000000), wk =   0.0185185
        k(   17) = (   0.1666667   0.0000000   0.1666667), wk =   0.0370370
        k(   18) = (   0.1666667   0.0000000   0.3333333), wk =   0.0740741
        k(   19) = (   0.1666667   0.0000000  -0.5000000), wk =   0.0370370
        k(   20) = (   0.1666667   0.1575061   0.1666667), wk =   0.0740741
        k(   21) = (   0.1666667   0.1575061   0.3333333), wk =   0.1481481
        k(   22) = (   0.1666667   0.1575061  -0.5000000), wk =   0.0740741
        k(   23) = (   0.1666667   0.3150122   0.1666667), wk =   0.0740741
        k(   24) = (   0.1666667   0.3150122   0.3333333), wk =   0.1481481
        k(   25) = (   0.1666667   0.3150122  -0.5000000), wk =   0.0740741
        k(   26) = (   0.1666667  -0.4725183   0.1666667), wk =   0.0370370
        k(   27) = (   0.1666667  -0.4725183   0.3333333), wk =   0.0740741
        k(   28) = (   0.1666667  -0.4725183  -0.5000000), wk =   0.0370370
        k(   29) = (   0.3333333   0.0000000   0.3333333), wk =   0.0370370
        k(   30) = (   0.3333333   0.0000000  -0.5000000), wk =   0.0370370
        k(   31) = (   0.3333333   0.1575061   0.3333333), wk =   0.0740741
        k(   32) = (   0.3333333   0.1575061  -0.5000000), wk =   0.0740741
        k(   33) = (   0.3333333   0.3150122   0.3333333), wk =   0.0740741
        k(   34) = (   0.3333333   0.3150122  -0.5000000), wk =   0.0740741
        k(   35) = (   0.3333333  -0.4725183   0.3333333), wk =   0.0370370
        k(   36) = (   0.3333333  -0.4725183  -0.5000000), wk =   0.0370370
        k(   37) = (  -0.5000000   0.0000000  -0.5000000), wk =   0.0092593
        k(   38) = (  -0.5000000   0.1575061  -0.5000000), wk =   0.0185185
        k(   39) = (  -0.5000000   0.3150122  -0.5000000), wk =   0.0185185
        k(   40) = (  -0.5000000  -0.4725183  -0.5000000), wk =   0.0092593

     Initial potential from superposition of free atoms

     starting charge  367.99656, renormalised to  368.00000
     Starting wfc are  232 randomized atomic wfcs

     Self-consistent Calculation

     iteration #  1     ecut=   120.00 Ry     beta= 0.70
     Davidson diagonalization with overlap
     ethr =  1.00E-02,  avg # of iterations =  5.2

     total energy              =   -6253.66479928 Ry
     Harris-Foulkes estimate   =   -6264.39308367 Ry
     estimated scf accuracy    <      13.58853619 Ry

[...]

     End of self-consistent calculation

          k = 0.0000 0.0000 0.0000 ( 62239 PWs)   bands (ev):

   -66.1250 -66.1246 -66.1243 -66.1242 -66.1238 -66.1238 -66.1234 -66.1230
   -30.7126 -30.7120 -30.7083 -30.7083 -30.6175 -30.6175 -30.6143 -30.6140
   -30.4942 -30.4941 -30.4881 -30.4881 -30.4050 -30.4050 -30.4001 -30.4000
   -30.3178 -30.3156 -30.3156 -30.3136 -30.2632 -30.2618 -30.2617 -30.2605
   -20.2844 -20.2843 -20.2838 -20.2838 -20.2815 -20.2815 -20.2810 -20.2809
   -20.2719 -20.2719 -20.2713 -20.2712 -20.2695 -20.2695 -20.2692 -20.2692
   -20.2556 -20.2554 -20.2554 -20.2554 -20.2534 -20.2534 -20.2531 -20.2529
   -20.2516 -20.2514 -20.2505 -20.2505 -20.2501 -20.2501 -20.2491 -20.2489
   -20.2334 -20.2330 -20.2330 -20.2327 -20.2314 -20.2307 -20.2307 -20.2295
   -20.2291 -20.2282 -20.2282 -20.2276 -20.2247 -20.2245 -20.2245 -20.2243
   -20.2208 -20.2206 -20.2205 -20.2205 -20.2197 -20.2196 -20.2196 -20.2193
   -10.1011  -9.9001  -9.7316  -9.7316  -9.3595  -9.3595  -9.1096  -9.0980
    -8.4745  -8.3561  -8.3561  -8.3322  -8.1637  -8.1119  -8.0726  -8.0726
    -7.8184  -7.8156  -7.7696  -7.7696  -7.3676  -7.2949  -7.2949  -7.2265
     0.8962   0.9045   1.0368   1.0368   1.2763   1.2763   1.3886   1.4104
     2.0955   2.0963   2.1019   2.1019   2.1105   2.2087   2.5912   2.6385
     2.6678   2.6678   3.9181   3.9181   4.0546   4.1528   4.2041   4.2041
     4.4558   4.4558   4.9292   5.0675   5.1059   5.3336   5.3336   5.3575
     5.4614   5.4614   5.5143   5.6266   5.6266   5.6736   5.6941   5.7485
     5.7486   5.8629   5.9137   5.9819   5.9819   6.0241   6.0497   6.2771
     6.3504   6.4371   6.6208   6.6208   6.7042   6.7704   6.7704   6.8989
     7.0151   7.0151   7.0514   7.1791   7.1791   7.2427   7.2834   7.3149
     7.3340   7.3340   8.1556   8.1783   8.2534   8.3844   8.3844   8.3942
     9.7281   9.7765   9.9503   9.9503  10.0100  10.2574  12.4880  12.4880
[...]
W        0.250769980   0.707952008   0.723029968    0   0   0
W       -0.223029936   0.207952009  -0.750769948    0   0   0
W        0.249229987   0.792047961   0.223029994    0   0   0
O        0.279670011   0.027598001   0.271510018    0   0   0
O       -0.271510041   0.972402046  -0.720330005    0   0   0
O        0.220329973   0.472401988   0.771510009    0   0   0
O        0.771510018   0.527598009   0.779670027    0   0   0
O        0.720329982   0.027598001   0.728490007    0   0   0
O        0.271509993   0.972402046   0.720329989    0   0   0
O       -0.220330005   0.472401988  -0.771510041    0   0   0
O        0.228489991   0.527598009   0.220329982    0   0   0
O        0.490459935   0.281990006   0.752199040    0   0   0
O        0.498040001   0.729469954   0.747800985    0   0   0
O       -0.990460033   0.218009994   1.252199030    0   0   0
O        0.001959913   0.770529955   0.247801016    0   0   0
O        0.509540065   0.281990006   0.247801016    0   0   0
O        0.501959999   0.729469954   1.252199030    0   0   0
O       -0.009540020   0.218009994   0.747800985    0   0   0
O       -1.001959966   0.770529955   0.752199040    0   0   0
O        0.752199103   0.229470000   2.001959999    0   0   0
O        0.247801003   0.718009918   0.490459968    0   0   0
O        0.747800956   0.270530000   0.501959901    0   0   0
O        0.252199057   0.781989991   1.990459935    0   0   0
O        0.247801003   0.229470000   0.998039989    0   0   0
O        0.752199103   0.718009918   0.509539967    0   0   0
O        0.252199057   0.270530000   0.498040034    0   0   0
O        0.747800956   0.781989991   1.009540053    0   0   0
End final coordinates

     A final scf calculation at the relaxed structure.
     The G-vectors are recalculated for the final unit cell
     Results may differ from those at the preceding step.

     bravais-lattice index     =            0
     lattice parameter (alat)  =      13.8397  a.u.
     unit-cell volume          =    2817.7047 (a.u.)^3
     number of atoms/cell      =           32
     number of atomic types    =            2
     number of electrons       =       368.00
     number of Kohn-Sham states=          221
     kinetic-energy cutoff     =     120.0000  Ry
     charge density cutoff     =     480.0000  Ry
     convergence threshold     =      1.0E-10
     mixing beta               =       0.7000
     number of iterations used =            8  plain     mixing
     Exchange-correlation      = SLA PW NOGX NOGC ( 1  4  0  0 0 0)

     celldm(1)=  13.839685  celldm(2)=   0.000000  celldm(3)=   0.000000
     celldm(4)=   0.000000  celldm(5)=   0.000000  celldm(6)=   0.000000

     crystal axes: (cart. coord. in units of alat)
               a(1) = (   1.019308   0.000000   0.000000 )
               a(2) = (   0.000000   1.023072   0.000000 )
               a(3) = (   0.000000   0.000000   1.019308 )

     reciprocal axes: (cart. coord. in units 2 pi/alat)
               b(1) = (  0.981058  0.000000  0.000000 )
               b(2) = (  0.000000  0.977449  0.000000 )
               b(3) = (  0.000000  0.000000  0.981058 )

     PseudoPot. # 1 for W  read from file:
     /cluster/scratch/mnoe/QE/pps/W_ONCV_LDA-4.0.upf
     MD5 check sum: ba0307d5d4cd419d6f1d13dc49d7c13a
     Pseudo is Norm-conserving + core correction, Zval = 28.0
     Generated using ONCVPSP code by D. R. Hamann
     Using radial grid of 1380 points,  8 beta functions with:
                l(1) =   0
                l(2) =   0
                l(3) =   1
                l(4) =   1
                l(5) =   2
                l(6) =   2
                l(7) =   3
                l(8) =   3

     PseudoPot. # 2 for O  read from file:
     /cluster/scratch/mnoe/QE/pps/O_ONCV_LDA-3.0.upf
     MD5 check sum: a1bd6164e7280c17a38c229939bfbd54
     Pseudo is Norm-conserving + core correction, Zval =  6.0
     Generated using ONCVPSP code by D. R. Hamann
     Using radial grid of  926 points,  5 beta functions with:
                l(1) =   0
                l(2) =   0
                l(3) =   1
                l(4) =   1
                l(5) =   2

     atomic species   valence    mass     pseudopotential
        W             28.00   183.84000     W ( 1.00)
        O              6.00    15.99940     O ( 1.00)

      8 Sym. Ops. (no inversion) found ( 4 have fractional translation)

   Cartesian axes

     site n.     atom                  positions (alat units)
         1           W   tau(   1) = (   0.2823177   0.2987860   0.2556119  )
         2           W   tau(   2) = (  -0.2556118   0.7242856  -0.7369901  )
         3           W   tau(   3) = (   0.2273362   0.2127498   0.7652658  )
         4           W   tau(   4) = (   0.7652658   0.8103218   0.7919717  )
         5           W   tau(   5) = (   0.7369902   0.2987860   0.7636961  )
         6           W   tau(   6) = (   0.2556118   0.7242856   0.7369902  )
         7           W   tau(   7) = (  -0.2273362   0.2127498  -0.7652658  )
         8           W   tau(   8) = (   0.2540421   0.8103218   0.2273362  )
         9           O   tau(   9) = (   0.2850699   0.0282347   0.2767523  )
        10           O   tau(  10) = (  -0.2767523   0.9948369  -0.7342381  )
        11           O   tau(  11) = (   0.2245841   0.4833010   0.7864063  )
        12           O   tau(  12) = (   0.7864063   0.5397705   0.7947238  )
        13           O   tau(  13) = (   0.7342381   0.0282347   0.7425556  )
        14           O   tau(  14) = (   0.2767523   0.9948369   0.7342381  )
        15           O   tau(  15) = (  -0.2245841   0.4833010  -0.7864063  )
        16           O   tau(  16) = (   0.2329017   0.5397705   0.2245841  )
        17           O   tau(  17) = (   0.4999297   0.2884960   0.7667224  )
        18           O   tau(  18) = (   0.5076561   0.7463000   0.7622395  )
        19           O   tau(  19) = (  -1.0095838   0.2230398   1.2763764  )
        20           O   tau(  20) = (   0.0019978   0.7883073   0.2525855  )
        21           O   tau(  21) = (   0.5193782   0.2884960   0.2525855  )
        22           O   tau(  22) = (   0.5116518   0.7463000   1.2763764  )
        23           O   tau(  23) = (  -0.0097242   0.2230398   0.7622395  )
        24           O   tau(  24) = (  -1.0213057   0.7883073   0.7667224  )
        25           O   tau(  25) = (   0.7667225   0.2347642   2.0406137  )
        26           O   tau(  26) = (   0.2525855   0.7345755   0.4999297  )
        27           O   tau(  27) = (   0.7622394   0.2767716   0.5116517  )
        28           O   tau(  28) = (   0.2570685   0.8000317   2.0288916  )
        29           O   tau(  29) = (   0.2525855   0.2347642   1.0173101  )
        30           O   tau(  30) = (   0.7667225   0.7345755   0.5193781  )
        31           O   tau(  31) = (   0.2570685   0.2767716   0.5076562  )
        32           O   tau(  32) = (   0.7622394   0.8000317   1.0290322  )

     number of k points=    40  gaussian smearing, width (Ry)=  0.0007
                       cart. coord. in units 2pi/alat
        k(    1) = (   0.0000000   0.0000000   0.0000000), wk =   0.0092593
        k(    2) = (   0.0000000   0.0000000   0.1635096), wk =   0.0370370
        k(    3) = (   0.0000000   0.0000000   0.3270193), wk =   0.0370370
        k(    4) = (   0.0000000   0.0000000  -0.4905289), wk =   0.0185185
        k(    5) = (   0.0000000   0.1629081   0.0000000), wk =   0.0185185
        k(    6) = (   0.0000000   0.1629081   0.1635096), wk =   0.0740741
        k(    7) = (   0.0000000   0.1629081   0.3270193), wk =   0.0740741
        k(    8) = (   0.0000000   0.1629081  -0.4905289), wk =   0.0370370
        k(    9) = (   0.0000000   0.3258162   0.0000000), wk =   0.0185185
        k(   10) = (   0.0000000   0.3258162   0.1635096), wk =   0.0740741
        k(   11) = (   0.0000000   0.3258162   0.3270193), wk =   0.0740741
        k(   12) = (   0.0000000   0.3258162  -0.4905289), wk =   0.0370370
        k(   13) = (   0.0000000  -0.4887244   0.0000000), wk =   0.0092593
        k(   14) = (   0.0000000  -0.4887244   0.1635096), wk =   0.0370370
        k(   15) = (   0.0000000  -0.4887244   0.3270193), wk =   0.0370370
        k(   16) = (   0.0000000  -0.4887244  -0.4905289), wk =   0.0185185
        k(   17) = (   0.1635096   0.0000000   0.1635096), wk =   0.0370370
        k(   18) = (   0.1635096   0.0000000   0.3270193), wk =   0.0740741
        k(   19) = (   0.1635096   0.0000000  -0.4905289), wk =   0.0370370
        k(   20) = (   0.1635096   0.1629081   0.1635096), wk =   0.0740741
        k(   21) = (   0.1635096   0.1629081   0.3270193), wk =   0.1481481
        k(   22) = (   0.1635096   0.1629081  -0.4905289), wk =   0.0740741
        k(   23) = (   0.1635096   0.3258162   0.1635096), wk =   0.0740741
        k(   24) = (   0.1635096   0.3258162   0.3270193), wk =   0.1481481
        k(   25) = (   0.1635096   0.3258162  -0.4905289), wk =   0.0740741
        k(   26) = (   0.1635096  -0.4887244   0.1635096), wk =   0.0370370
        k(   27) = (   0.1635096  -0.4887244   0.3270193), wk =   0.0740741
        k(   28) = (   0.1635096  -0.4887244  -0.4905289), wk =   0.0370370
        k(   29) = (   0.3270193   0.0000000   0.3270193), wk =   0.0370370
        k(   30) = (   0.3270193   0.0000000  -0.4905289), wk =   0.0370370
        k(   31) = (   0.3270193   0.1629081   0.3270193), wk =   0.0740741
        k(   32) = (   0.3270193   0.1629081  -0.4905289), wk =   0.0740741
        k(   33) = (   0.3270193   0.3258162   0.3270193), wk =   0.0740741
        k(   34) = (   0.3270193   0.3258162  -0.4905289), wk =   0.0740741
        k(   35) = (   0.3270193  -0.4887244   0.3270193), wk =   0.0370370
        k(   36) = (   0.3270193  -0.4887244  -0.4905289), wk =   0.0370370
        k(   37) = (  -0.4905289   0.0000000  -0.4905289), wk =   0.0092593
        k(   38) = (  -0.4905289   0.1629081  -0.4905289), wk =   0.0185185
        k(   39) = (  -0.4905289   0.3258162  -0.4905289), wk =   0.0185185
        k(   40) = (  -0.4905289  -0.4887244  -0.4905289), wk =   0.0092593

     Initial potential from superposition of free atoms

     starting charge  367.99656, renormalised to  368.00000
     Starting wfc are  232 randomized atomic wfcs

     Writing output data file Landau_30.save

     Self-consistent Calculation

     iteration #  1     ecut=   120.00 Ry     beta= 0.70
     Davidson diagonalization with overlap
     c_bands:  1 eigenvalues not converged
     ethr =  1.00E-06,  avg # of iterations = 14.1

[...]

     total energy              =   -6260.98001560 Ry
     Harris-Foulkes estimate   =   -6260.98001560 Ry
     estimated scf accuracy    <          7.7E-10 Ry

     iteration # 14     ecut=   120.00 Ry     beta= 0.70
     Davidson diagonalization with overlap
     ethr =  2.08E-13,  avg # of iterations =  2.0

     End of self-consistent calculation

[...]

          k = 0.3270-0.4887-0.4905 ( 62556 PWs)   bands (ev):

[...]

          k =-0.4905-0.4887-0.4905 ( 62496 PWs)   bands (ev):

   -66.2088 -66.2088 -66.2088 -66.2087 -66.2087 -66.2087 -66.2087 -66.2087
   -30.6466 -30.6466 -30.6462 -30.6462 -30.6462 -30.6462 -30.6457 -30.6457
   -30.4851 -30.4851 -30.4842 -30.4842 -30.4842 -30.4842 -30.4829 -30.4829
   -30.4616 -30.4616 -30.4598 -30.4598 -30.4598 -30.4598 -30.4585 -30.4585
   -20.3834 -20.3834 -20.3833 -20.3833 -20.3833 -20.3833 -20.3832 -20.3832
   -20.3725 -20.3725 -20.3725 -20.3725 -20.3724 -20.3723 -20.3723 -20.3723
   -20.3463 -20.3463 -20.3462 -20.3462 -20.3462 -20.3462 -20.3462 -20.3462
   -20.3445 -20.3445 -20.3444 -20.3444 -20.3443 -20.3443 -20.3443 -20.3442
   -20.3247 -20.3247 -20.3240 -20.3240 -20.3240 -20.3240 -20.3235 -20.3235
   -20.3224 -20.3224 -20.3219 -20.3219 -20.3218 -20.3218 -20.3211 -20.3211
   -20.3110 -20.3110 -20.3110 -20.3109 -20.3109 -20.3109 -20.3109 -20.3109
    -9.1032  -9.1031  -9.0616  -9.0615  -9.0615  -9.0615  -9.0242  -9.0242
    -8.5000  -8.5000  -8.4448  -8.4448  -8.4448  -8.4448  -8.3838  -8.3838
    -8.2477  -8.2477  -8.2292  -8.2292  -8.2291  -8.2291  -8.2105  -8.2105
     2.6788   2.6789   2.6789   2.6789   2.7071   2.7071   2.7594   2.7594
     3.0974   3.0974   3.1218   3.1218   3.1475   3.1475   3.1475   3.1475
     3.1720   3.1720   3.3968   3.3968   3.3968   3.3968   3.4861   3.4862
     4.0801   4.0801   4.1280   4.1280   4.1291   4.1291   4.1291   4.1291
     4.2948   4.2948   4.3467   4.3467   4.3468   4.3468   4.3953   4.3953
     4.5630   4.5630   4.5869   4.5869   4.5870   4.5870   4.6821   4.6821
     7.1123   7.1123   7.1805   7.1805   7.1806   7.1806   7.2164   7.2164
     7.2894   7.2894   7.2895   7.2895   7.3483   7.3484   7.4915   7.4915
     7.6966   7.6966   7.7093   7.7093   7.7102   7.7102   7.7102   7.7102
    11.9356  11.9356  11.9466  11.9466  11.9639  11.9639  11.9639  11.9639
    12.1531  12.1531  12.1817  12.1817  12.2326  12.2326  12.2326  12.2326
    12.4428  12.4428  12.4811  12.4811  12.4811  12.4811  12.4958  12.4959
    16.6691  16.6691  16.7139  16.7139  16.7139  16.7139  17.0497  17.0497
    17.1973  17.1974  17.2798  17.2799  17.2800

     the Fermi energy is     8.7950 ev

!    total energy              =   -6260.98001560 Ry
     Harris-Foulkes estimate   =   -6260.98001560 Ry
     estimated scf accuracy    <          5.6E-11 Ry

     The total energy is the sum of the following terms:

     one-electron contribution =   -4727.28669480 Ry
     hartree contribution      =    2599.94714122 Ry
     xc contribution           =    -965.67281139 Ry
     ewald contribution        =   -3167.96765063 Ry
     smearing contrib. (-TS)   =      -0.00000000 Ry

     convergence has been achieved in  14 iterations

     Forces acting on atoms (cartesian axes, Ry/au):

     atom    1 type  1   force =    -0.05329180    0.00417548    0.00074852
     atom    2 type  1   force =    -0.00074852   -0.00417548   -0.05329180
     atom    3 type  1   force =     0.05329180   -0.00417548    0.00074852
     atom    4 type  1   force =     0.00074852    0.00417548   -0.05329180
     atom    5 type  1   force =     0.05329180    0.00417548   -0.00074852
     atom    6 type  1   force =     0.00074852   -0.00417548    0.05329180
     atom    7 type  1   force =    -0.05329180   -0.00417548   -0.00074852
     atom    8 type  1   force =    -0.00074852    0.00417548    0.05329180
     atom    9 type  2   force =    -0.00078925   -0.08618518   -0.01493128
     atom   10 type  2   force =     0.01493128    0.08618518   -0.00078925
     atom   11 type  2   force =     0.00078925    0.08618518   -0.01493128
     atom   12 type  2   force =    -0.01493128   -0.08618518   -0.00078925
     atom   13 type  2   force =     0.00078925   -0.08618518    0.01493128
     atom   14 type  2   force =    -0.01493128    0.08618518    0.00078925
     atom   15 type  2   force =    -0.00078925    0.08618518    0.01493128
     atom   16 type  2   force =     0.01493128   -0.08618518    0.00078925
     atom   17 type  2   force =    -0.03356110    0.00224282    0.00379799
     atom   18 type  2   force =     0.00626412   -0.01013017    0.00477558
     atom   19 type  2   force =     0.03356110   -0.00224282    0.00379799
     atom   20 type  2   force =    -0.00626412    0.01013017    0.00477558
     atom   21 type  2   force =     0.03356110    0.00224282   -0.00379799
     atom   22 type  2   force =    -0.00626412   -0.01013017   -0.00477558
     atom   23 type  2   force =    -0.03356110   -0.00224282   -0.00379799
     atom   24 type  2   force =     0.00626412    0.01013017   -0.00477558
     atom   25 type  2   force =    -0.00477558   -0.01013017   -0.00626412
     atom   26 type  2   force =    -0.00379799   -0.00224282   -0.03356110
     atom   27 type  2   force =     0.00477558    0.01013017   -0.00626412
     atom   28 type  2   force =     0.00379799    0.00224282   -0.03356110
     atom   29 type  2   force =     0.00477558   -0.01013017    0.00626412
     atom   30 type  2   force =     0.00379799   -0.00224282    0.03356110
     atom   31 type  2   force =    -0.00477558    0.01013017    0.00626412
     atom   32 type  2   force =    -0.00379799    0.00224282    0.03356110

     Total force =     0.000000     Total SCF correction =     0.000000

     Computing stress (Cartesian axis) and pressure

          total   stress  (Ry/bohr**3)                   (kbar)     P=    0.87
   0.00000953   0.00000000   0.00000000          1.40      0.00      0.00
   0.00000000  -0.00000127   0.00000000          0.00     -0.19      0.00
   0.00000000   0.00000000   0.00000953          0.00      0.00      1.40

     Writing output data file Landau_30.save

     General routines

     Parallel routines

   This run was terminated on:  19:51:22  28Feb2020

   JOB DONE.