     Program PWSCF v.6.2 (svn rev. 14038) starts on 30Apr2019 at 19:24: 1

     K-points division:     npool     =      32
     Reading input from rscf.in

     Current dimensions of program PWSCF are:
     Max number of different atomic species (ntypx) = 10
     Max number of k-points (npk) =  40000
     Max angular momentum in pseudopotentials (lmaxx) =  3

     Subspace diagonalization in iterative solution of the eigenvalue problem:
     a serial algorithm will be used

     bravais-lattice index     =            0
     lattice parameter (alat)  =      13.8397  a.u.
     unit-cell volume          =    2804.9816 (a.u.)^3
     number of atoms/cell      =           32
     number of atomic types    =            2
     number of electrons       =       368.00
     number of Kohn-Sham states=          221
     kinetic-energy cutoff     =     120.0000  Ry
     charge density cutoff     =     480.0000  Ry
     convergence threshold     =      1.0E-08
     mixing beta               =       0.7000
     number of iterations used =            8  plain     mixing
     Exchange-correlation      = SLA PW NOGX NOGC ( 1  4  0  0 0 0)
     nstep                     =           50

     celldm(1)=  13.839685  celldm(2)=   0.000000  celldm(3)=   0.000000
     celldm(4)=   0.000000  celldm(5)=   0.000000  celldm(6)=   0.000000

     crystal axes: (cart. coord. in units of alat)
               a(1) = (   1.000000   0.000000   0.000000 )
               a(2) = (   0.000000   1.058160   0.000000 )
               a(3) = (   0.000000   0.000000   1.000000 )

     reciprocal axes: (cart. coord. in units 2 pi/alat)
               b(1) = (  1.000000  0.000000  0.000000 )
               b(2) = (  0.000000  0.945037  0.000000 )
               b(3) = (  0.000000  0.000000  1.000000 )

     PseudoPot. # 1 for W  read from file:
     /cluster/scratch/mnoe/QE/pps/W_ONCV_LDA-4.0.upf
     MD5 check sum: ba0307d5d4cd419d6f1d13dc49d7c13a
     Pseudo is Norm-conserving + core correction, Zval = 28.0
     Generated using ONCVPSP code by D. R. Hamann
     Using radial grid of 1380 points,  8 beta functions with:
                l(1) =   0
                l(2) =   0
                l(3) =   1
                l(4) =   1
                l(5) =   2
                l(6) =   2
                l(7) =   3
                l(8) =   3

     PseudoPot. # 2 for O  read from file:
     /cluster/scratch/mnoe/QE/pps/O_ONCV_LDA-3.0.upf
     MD5 check sum: a1bd6164e7280c17a38c229939bfbd54
     Pseudo is Norm-conserving + core correction, Zval =  6.0
     Generated using ONCVPSP code by D. R. Hamann
     Using radial grid of  926 points,  5 beta functions with:
                l(1) =   0
                l(2) =   0
                l(3) =   1
                l(4) =   1
                l(5) =   2

     atomic species   valence    mass     pseudopotential
        W             28.00   183.84000     W ( 1.00)
        O              6.00    15.99940     O ( 1.00)

      8 Sym. Ops. (no inversion) found ( 4 have fractional translation)

   Cartesian axes

     site n.     atom                  positions (alat units)
         1           W   tau(   1) = (   0.2509000   0.2982530   0.2500200  )
         2           W   tau(   2) = (  -0.2500200   0.7599071  -0.7491000  )
         3           W   tau(   3) = (   0.2491000   0.2308271   0.7500200  )
         4           W   tau(   4) = (   0.7500200   0.8273330   0.7509000  )
         5           W   tau(   5) = (   0.7491000   0.2982530   0.7499800  )
         6           W   tau(   6) = (   0.2500200   0.7599071   0.7491000  )
         7           W   tau(   7) = (  -0.2491000   0.2308271  -0.7500200  )
         8           W   tau(   8) = (   0.2499800   0.8273330   0.2491000  )
         9           O   tau(   9) = (   0.2509900   0.0088039   0.2507100  )
        10           O   tau(  10) = (  -0.2507100   1.0493562  -0.7490100  )
        11           O   tau(  11) = (   0.2490100   0.5202761   0.7507100  )
        12           O   tau(  12) = (   0.7507100   0.5378839   0.7509900  )
        13           O   tau(  13) = (   0.7490100   0.0088039   0.7492900  )
        14           O   tau(  14) = (   0.2507100   1.0493562   0.7490100  )
        15           O   tau(  15) = (  -0.2490100   0.5202761  -0.7507100  )
        16           O   tau(  16) = (   0.2492900   0.5378839   0.2490100  )
        17           O   tau(  17) = (   0.4996800   0.2656723   0.6995400  )
        18           O   tau(  18) = (   0.4999400   0.7928899   0.8004600  )
        19           O   tau(  19) = (  -0.9996800   0.2634078   1.1995400  )
        20           O   tau(  20) = (   0.0000601   0.7943501   0.3004600  )
        21           O   tau(  21) = (   0.5003200   0.2656723   0.3004600  )
        22           O   tau(  22) = (   0.5000600   0.7928899   1.1995400  )
        23           O   tau(  23) = (  -0.0003200   0.2634078   0.8004600  )
        24           O   tau(  24) = (  -1.0000600   0.7943501   0.6995400  )
        25           O   tau(  25) = (   0.6995400   0.2638099   2.0000600  )
        26           O   tau(  26) = (   0.3004600   0.7924878   0.4996800  )
        27           O   tau(  27) = (   0.8004600   0.2652701   0.5000600  )
        28           O   tau(  28) = (   0.1995400   0.7947523   1.9996800  )
        29           O   tau(  29) = (   0.3004600   0.2638099   0.9999399  )
        30           O   tau(  30) = (   0.6995400   0.7924878   0.5003200  )
        31           O   tau(  31) = (   0.1995400   0.2652701   0.4999400  )
        32           O   tau(  32) = (   0.8004600   0.7947523   1.0003199  )

     number of k points=    40  gaussian smearing, width (Ry)=  0.0007
                       cart. coord. in units 2pi/alat
        k(    1) = (   0.0000000   0.0000000   0.0000000), wk =   0.0092593
        k(    2) = (   0.0000000   0.0000000   0.1666667), wk =   0.0370370
        k(    3) = (   0.0000000   0.0000000   0.3333333), wk =   0.0370370
        k(    4) = (   0.0000000   0.0000000  -0.5000000), wk =   0.0185185
        k(    5) = (   0.0000000   0.1575061   0.0000000), wk =   0.0185185
        k(    6) = (   0.0000000   0.1575061   0.1666667), wk =   0.0740741
        k(    7) = (   0.0000000   0.1575061   0.3333333), wk =   0.0740741
        k(    8) = (   0.0000000   0.1575061  -0.5000000), wk =   0.0370370
        k(    9) = (   0.0000000   0.3150122   0.0000000), wk =   0.0185185
        k(   10) = (   0.0000000   0.3150122   0.1666667), wk =   0.0740741
        k(   11) = (   0.0000000   0.3150122   0.3333333), wk =   0.0740741
        k(   12) = (   0.0000000   0.3150122  -0.5000000), wk =   0.0370370
        k(   13) = (   0.0000000  -0.4725183   0.0000000), wk =   0.0092593
        k(   14) = (   0.0000000  -0.4725183   0.1666667), wk =   0.0370370
        k(   15) = (   0.0000000  -0.4725183   0.3333333), wk =   0.0370370
        k(   16) = (   0.0000000  -0.4725183  -0.5000000), wk =   0.0185185
        k(   17) = (   0.1666667   0.0000000   0.1666667), wk =   0.0370370
        k(   18) = (   0.1666667   0.0000000   0.3333333), wk =   0.0740741
        k(   19) = (   0.1666667   0.0000000  -0.5000000), wk =   0.0370370
        k(   20) = (   0.1666667   0.1575061   0.1666667), wk =   0.0740741
        k(   21) = (   0.1666667   0.1575061   0.3333333), wk =   0.1481481
        k(   22) = (   0.1666667   0.1575061  -0.5000000), wk =   0.0740741
        k(   23) = (   0.1666667   0.3150122   0.1666667), wk =   0.0740741
        k(   24) = (   0.1666667   0.3150122   0.3333333), wk =   0.1481481
        k(   25) = (   0.1666667   0.3150122  -0.5000000), wk =   0.0740741
        k(   26) = (   0.1666667  -0.4725183   0.1666667), wk =   0.0370370
        k(   27) = (   0.1666667  -0.4725183   0.3333333), wk =   0.0740741
        k(   28) = (   0.1666667  -0.4725183  -0.5000000), wk =   0.0370370
        k(   29) = (   0.3333333   0.0000000   0.3333333), wk =   0.0370370
        k(   30) = (   0.3333333   0.0000000  -0.5000000), wk =   0.0370370
        k(   31) = (   0.3333333   0.1575061   0.3333333), wk =   0.0740741
        k(   32) = (   0.3333333   0.1575061  -0.5000000), wk =   0.0740741
        k(   33) = (   0.3333333   0.3150122   0.3333333), wk =   0.0740741
        k(   34) = (   0.3333333   0.3150122  -0.5000000), wk =   0.0740741
        k(   35) = (   0.3333333  -0.4725183   0.3333333), wk =   0.0370370
        k(   36) = (   0.3333333  -0.4725183  -0.5000000), wk =   0.0370370
        k(   37) = (  -0.5000000   0.0000000  -0.5000000), wk =   0.0092593
        k(   38) = (  -0.5000000   0.1575061  -0.5000000), wk =   0.0185185
        k(   39) = (  -0.5000000   0.3150122  -0.5000000), wk =   0.0185185
        k(   40) = (  -0.5000000  -0.4725183  -0.5000000), wk =   0.0092593

     Initial potential from superposition of free atoms

     starting charge  367.99656, renormalised to  368.00000
     Starting wfc are  232 randomized atomic wfcs

     Self-consistent Calculation

     iteration #  1     ecut=   120.00 Ry     beta= 0.70
     Davidson diagonalization with overlap
     ethr =  1.00E-02,  avg # of iterations =  5.0

     total energy              =   -6253.97932517 Ry
     Harris-Foulkes estimate   =   -6264.58690742 Ry
     estimated scf accuracy    <      13.43133444 Ry

[...]

     End of self-consistent calculation

          k = 0.0000 0.0000 0.0000 ( 62239 PWs)   bands (ev):

   -66.1759 -66.1755 -66.1749 -66.1749 -66.1745 -66.1745 -66.1739 -66.1735
   -30.5696 -30.5663 -30.5663 -30.5631 -30.5205 -30.5205 -30.5174 -30.5171
   -30.5152 -30.5152 -30.5120 -30.5120 -30.5101 -30.5076 -30.5076 -30.5052
   -30.4197 -30.4197 -30.4170 -30.4170 -30.4154 -30.4153 -30.4127 -30.4127
   -20.3361 -20.3360 -20.3360 -20.3360 -20.3359 -20.3359 -20.3359 -20.3359
   -20.3185 -20.3182 -20.3182 -20.3180 -20.3134 -20.3133 -20.3130 -20.3129
   -20.3129 -20.3128 -20.3127 -20.3127 -20.3127 -20.3124 -20.3122 -20.3122
   -20.3117 -20.3117 -20.3115 -20.3115 -20.3111 -20.3111 -20.3108 -20.3107
   -20.3040 -20.3040 -20.3037 -20.3037 -20.3034 -20.3033 -20.3031 -20.3031
   -20.3025 -20.3025 -20.3022 -20.3022 -20.3021 -20.3021 -20.3019 -20.3018
   -20.2961 -20.2961 -20.2955 -20.2955 -20.2955 -20.2955 -20.2950 -20.2950
    -9.9513  -9.6762  -9.5090  -9.5090  -9.2441  -9.2441  -9.0727  -9.0558
    -9.0438  -8.8764  -8.8506  -8.8506  -7.8546  -7.7955  -7.7955  -7.7828
    -7.7827  -7.7572  -7.7570  -7.7440  -7.6272  -7.6272  -7.6063  -7.6063
     1.1826   1.1831   1.2655   1.2655   1.2832   1.2832   1.3670   1.6293
     1.6293   1.6359   1.6359   1.8551   2.3861   2.4590   2.5795   2.5798
     2.7277   2.7277   4.1320   4.1320   4.3519   4.3520   4.8369   4.8375
     4.8429   4.8429   4.8697   4.8697   5.0338   5.0338   5.0660   5.4411
     5.4411   5.5163   5.5163   5.5256   5.5256   5.5801   5.5801   5.8092
     5.8092   5.8785   5.8785   5.9416   5.9604   6.0345   6.0346   6.1048
     6.1048   6.2453   6.2453   6.5758   6.5758   6.8034   6.8034   6.8308
     6.8308   6.8830   7.0202   7.0204   7.0885   7.0885   7.3908   7.3908
     7.4354   7.4354   7.7790   7.7926   8.0752   8.0752   8.1450   8.1453
     9.2243   9.2315   9.9858   9.9858  10.0254  10.0254  12.2230  12.2230
[...]
W        0.249100007   0.218140012   0.750020005    0   0   0
W        0.750020016   0.781859972   0.750899993    0   0   0
W        0.749099984   0.281860003   0.749979995    0   0   0
W        0.250020005   0.718139997   0.749100007    0   0   0
W       -0.249099958   0.218140012  -0.750019990    0   0   0
W        0.249979995   0.781859972   0.249099984    0   0   0
O        0.250990026   0.008320000   0.250710036    0   0   0
O       -0.250710045   0.991680023  -0.749009973    0   0   0
O        0.249009957   0.491679992   0.750709997    0   0   0
O        0.750710036   0.508319977   0.750990043    0   0   0
O        0.749009964   0.008320000   0.749290020    0   0   0
O        0.250709980   0.991680023   0.749009974    0   0   0
O       -0.249009973   0.491679992  -0.750710045    0   0   0
O        0.249290003   0.508319977   0.249009964    0   0   0
O        0.499680007   0.251070017   0.699540004    0   0   0
O        0.499939999   0.749309961   0.800459963    0   0   0
O       -0.999679959   0.248929983   1.199540037    0   0   0
O        0.000060075   0.750689948   0.300460012    0   0   0
O        0.500319993   0.251070017   0.300460012    0   0   0
O        0.500060001   0.749309961   1.199540037    0   0   0
O       -0.000319951   0.248929983   0.800459963    0   0   0
O       -1.000059985   0.750689948   0.699540004    0   0   0
O        0.699540037   0.249310007   2.000059969    0   0   0
O        0.300459996   0.748929937   0.499679991    0   0   0
O        0.800459963   0.250689993   0.500060017    0   0   0
O        0.199540020   0.751069972   1.999679975    0   0   0
O        0.300459996   0.249310007   0.999939941    0   0   0
O        0.699540037   0.748929937   0.500320009    0   0   0
O        0.199540020   0.250689993   0.499939983    0   0   0
O        0.800459963   0.751069972   1.000319935    0   0   0
End final coordinates

     A final scf calculation at the relaxed structure.
     The G-vectors are recalculated for the final unit cell
     Results may differ from those at the preceding step.

     bravais-lattice index     =            0
     lattice parameter (alat)  =      13.8397  a.u.
     unit-cell volume          =    2804.9816 (a.u.)^3
     number of atoms/cell      =           32
     number of atomic types    =            2
     number of electrons       =       368.00
     number of Kohn-Sham states=          221
     kinetic-energy cutoff     =     120.0000  Ry
     charge density cutoff     =     480.0000  Ry
     convergence threshold     =      1.0E-08
     mixing beta               =       0.7000
     number of iterations used =            8  plain     mixing
     Exchange-correlation      = SLA PW NOGX NOGC ( 1  4  0  0 0 0)

     celldm(1)=  13.839685  celldm(2)=   0.000000  celldm(3)=   0.000000
     celldm(4)=   0.000000  celldm(5)=   0.000000  celldm(6)=   0.000000

     crystal axes: (cart. coord. in units of alat)
               a(1) = (   1.000000   0.000000   0.000000 )
               a(2) = (   0.000000   1.058160   0.000000 )
               a(3) = (   0.000000   0.000000   1.000000 )

     reciprocal axes: (cart. coord. in units 2 pi/alat)
               b(1) = (  1.000000  0.000000  0.000000 )
               b(2) = (  0.000000  0.945037  0.000000 )
               b(3) = (  0.000000  0.000000  1.000000 )

     PseudoPot. # 1 for W  read from file:
     /cluster/scratch/mnoe/QE/pps/W_ONCV_LDA-4.0.upf
     MD5 check sum: ba0307d5d4cd419d6f1d13dc49d7c13a
     Pseudo is Norm-conserving + core correction, Zval = 28.0
     Generated using ONCVPSP code by D. R. Hamann
     Using radial grid of 1380 points,  8 beta functions with:
                l(1) =   0
                l(2) =   0
                l(3) =   1
                l(4) =   1
                l(5) =   2
                l(6) =   2
                l(7) =   3
                l(8) =   3

     PseudoPot. # 2 for O  read from file:
     /cluster/scratch/mnoe/QE/pps/O_ONCV_LDA-3.0.upf
     MD5 check sum: a1bd6164e7280c17a38c229939bfbd54
     Pseudo is Norm-conserving + core correction, Zval =  6.0
     Generated using ONCVPSP code by D. R. Hamann
     Using radial grid of  926 points,  5 beta functions with:
                l(1) =   0
                l(2) =   0
                l(3) =   1
                l(4) =   1
                l(5) =   2

     atomic species   valence    mass     pseudopotential
        W             28.00   183.84000     W ( 1.00)
        O              6.00    15.99940     O ( 1.00)

      8 Sym. Ops. (no inversion) found ( 4 have fractional translation)

   Cartesian axes

     site n.     atom                  positions (alat units)
         1           W   tau(   1) = (   0.2509000   0.2982530   0.2500200  )
         2           W   tau(   2) = (  -0.2500200   0.7599071  -0.7491000  )
         3           W   tau(   3) = (   0.2491000   0.2308271   0.7500200  )
         4           W   tau(   4) = (   0.7500200   0.8273330   0.7509000  )
         5           W   tau(   5) = (   0.7491000   0.2982530   0.7499800  )
         6           W   tau(   6) = (   0.2500200   0.7599071   0.7491000  )
         7           W   tau(   7) = (  -0.2491000   0.2308271  -0.7500200  )
         8           W   tau(   8) = (   0.2499800   0.8273330   0.2491000  )
         9           O   tau(   9) = (   0.2509900   0.0088039   0.2507100  )
        10           O   tau(  10) = (  -0.2507100   1.0493562  -0.7490100  )
        11           O   tau(  11) = (   0.2490100   0.5202761   0.7507100  )
        12           O   tau(  12) = (   0.7507100   0.5378839   0.7509900  )
        13           O   tau(  13) = (   0.7490100   0.0088039   0.7492900  )
        14           O   tau(  14) = (   0.2507100   1.0493562   0.7490100  )
        15           O   tau(  15) = (  -0.2490100   0.5202761  -0.7507100  )
        16           O   tau(  16) = (   0.2492900   0.5378839   0.2490100  )
        17           O   tau(  17) = (   0.4996800   0.2656723   0.6995400  )
        18           O   tau(  18) = (   0.4999400   0.7928899   0.8004600  )
        19           O   tau(  19) = (  -0.9996800   0.2634078   1.1995400  )
        20           O   tau(  20) = (   0.0000601   0.7943501   0.3004600  )
        21           O   tau(  21) = (   0.5003200   0.2656723   0.3004600  )
        22           O   tau(  22) = (   0.5000600   0.7928899   1.1995400  )
        23           O   tau(  23) = (  -0.0003200   0.2634078   0.8004600  )
        24           O   tau(  24) = (  -1.0000600   0.7943501   0.6995400  )
        25           O   tau(  25) = (   0.6995400   0.2638099   2.0000600  )
        26           O   tau(  26) = (   0.3004600   0.7924878   0.4996800  )
        27           O   tau(  27) = (   0.8004600   0.2652701   0.5000600  )
        28           O   tau(  28) = (   0.1995400   0.7947523   1.9996800  )
        29           O   tau(  29) = (   0.3004600   0.2638099   0.9999399  )
        30           O   tau(  30) = (   0.6995400   0.7924878   0.5003200  )
        31           O   tau(  31) = (   0.1995400   0.2652701   0.4999400  )
        32           O   tau(  32) = (   0.8004600   0.7947523   1.0003199  )

     number of k points=    40  gaussian smearing, width (Ry)=  0.0007
                       cart. coord. in units 2pi/alat
        k(    1) = (   0.0000000   0.0000000   0.0000000), wk =   0.0092593
        k(    2) = (   0.0000000   0.0000000   0.1666667), wk =   0.0370370
        k(    3) = (   0.0000000   0.0000000   0.3333333), wk =   0.0370370
        k(    4) = (   0.0000000   0.0000000  -0.5000000), wk =   0.0185185
        k(    5) = (   0.0000000   0.1575061   0.0000000), wk =   0.0185185
        k(    6) = (   0.0000000   0.1575061   0.1666667), wk =   0.0740741
        k(    7) = (   0.0000000   0.1575061   0.3333333), wk =   0.0740741
        k(    8) = (   0.0000000   0.1575061  -0.5000000), wk =   0.0370370
        k(    9) = (   0.0000000   0.3150122   0.0000000), wk =   0.0185185
        k(   10) = (   0.0000000   0.3150122   0.1666667), wk =   0.0740741
        k(   11) = (   0.0000000   0.3150122   0.3333333), wk =   0.0740741
        k(   12) = (   0.0000000   0.3150122  -0.5000000), wk =   0.0370370
        k(   13) = (   0.0000000  -0.4725183   0.0000000), wk =   0.0092593
        k(   14) = (   0.0000000  -0.4725183   0.1666667), wk =   0.0370370
        k(   15) = (   0.0000000  -0.4725183   0.3333333), wk =   0.0370370
        k(   16) = (   0.0000000  -0.4725183  -0.5000000), wk =   0.0185185
        k(   17) = (   0.1666667   0.0000000   0.1666667), wk =   0.0370370
        k(   18) = (   0.1666667   0.0000000   0.3333333), wk =   0.0740741
        k(   19) = (   0.1666667   0.0000000  -0.5000000), wk =   0.0370370
        k(   20) = (   0.1666667   0.1575061   0.1666667), wk =   0.0740741
        k(   21) = (   0.1666667   0.1575061   0.3333333), wk =   0.1481481
        k(   22) = (   0.1666667   0.1575061  -0.5000000), wk =   0.0740741
        k(   23) = (   0.1666667   0.3150122   0.1666667), wk =   0.0740741
        k(   24) = (   0.1666667   0.3150122   0.3333333), wk =   0.1481481
        k(   25) = (   0.1666667   0.3150122  -0.5000000), wk =   0.0740741
        k(   26) = (   0.1666667  -0.4725183   0.1666667), wk =   0.0370370
        k(   27) = (   0.1666667  -0.4725183   0.3333333), wk =   0.0740741
        k(   28) = (   0.1666667  -0.4725183  -0.5000000), wk =   0.0370370
        k(   29) = (   0.3333333   0.0000000   0.3333333), wk =   0.0370370
        k(   30) = (   0.3333333   0.0000000  -0.5000000), wk =   0.0370370
        k(   31) = (   0.3333333   0.1575061   0.3333333), wk =   0.0740741
        k(   32) = (   0.3333333   0.1575061  -0.5000000), wk =   0.0740741
        k(   33) = (   0.3333333   0.3150122   0.3333333), wk =   0.0740741
        k(   34) = (   0.3333333   0.3150122  -0.5000000), wk =   0.0740741
        k(   35) = (   0.3333333  -0.4725183   0.3333333), wk =   0.0370370
        k(   36) = (   0.3333333  -0.4725183  -0.5000000), wk =   0.0370370
        k(   37) = (  -0.5000000   0.0000000  -0.5000000), wk =   0.0092593
        k(   38) = (  -0.5000000   0.1575061  -0.5000000), wk =   0.0185185
        k(   39) = (  -0.5000000   0.3150122  -0.5000000), wk =   0.0185185
        k(   40) = (  -0.5000000  -0.4725183  -0.5000000), wk =   0.0092593

     Initial potential from superposition of free atoms

     starting charge  367.99656, renormalised to  368.00000
     Starting wfc are  232 randomized atomic wfcs

     Writing output data file Landau_1.save

     Self-consistent Calculation

[...]

     total energy              =   -6261.10939476 Ry
     Harris-Foulkes estimate   =   -6261.10939477 Ry
     estimated scf accuracy    <       0.00000002 Ry

     iteration # 13     ecut=   120.00 Ry     beta= 0.70
     Davidson diagonalization with overlap
     ethr =  4.86E-12,  avg # of iterations =  2.0

     End of self-consistent calculation

[...]

          k = 0.3333-0.4725-0.5000 ( 62200 PWs)   bands (ev):

[...]

          k =-0.5000-0.4725-0.5000 ( 62272 PWs)   bands (ev):

   -66.1747 -66.1747 -66.1747 -66.1747 -66.1747 -66.1747 -66.1746 -66.1746
   -30.5387 -30.5387 -30.5387 -30.5387 -30.5387 -30.5387 -30.5386 -30.5386
   -30.4664 -30.4663 -30.4663 -30.4663 -30.4663 -30.4663 -30.4663 -30.4663
   -30.4653 -30.4653 -30.4652 -30.4652 -30.4652 -30.4652 -30.4652 -30.4652
   -20.3360 -20.3360 -20.3360 -20.3360 -20.3360 -20.3360 -20.3359 -20.3359
   -20.3157 -20.3157 -20.3157 -20.3157 -20.3156 -20.3156 -20.3156 -20.3156
   -20.3120 -20.3120 -20.3120 -20.3120 -20.3120 -20.3120 -20.3120 -20.3119
   -20.3119 -20.3119 -20.3119 -20.3119 -20.3119 -20.3118 -20.3118 -20.3118
   -20.3034 -20.3033 -20.3033 -20.3033 -20.3033 -20.3033 -20.3033 -20.3033
   -20.2996 -20.2996 -20.2996 -20.2996 -20.2996 -20.2996 -20.2996 -20.2996
   -20.2985 -20.2985 -20.2985 -20.2985 -20.2985 -20.2985 -20.2985 -20.2985
    -8.9360  -8.9360  -8.9351  -8.9351  -8.9350  -8.9350  -8.9343  -8.9343
    -8.4197  -8.4197  -8.4186  -8.4186  -8.4186  -8.4186  -8.4177  -8.4176
    -8.3395  -8.3394  -8.3386  -8.3386  -8.3385  -8.3385  -8.3373  -8.3373
     2.9942   2.9942   2.9957   2.9957   2.9957   2.9957   2.9973   2.9973
     3.1345   3.1345   3.1368   3.1368   3.1368   3.1368   3.1393   3.1393
     3.4397   3.4397   3.4474   3.4474   3.4475   3.4475   3.4547   3.4548
     4.1501   4.1501   4.1515   4.1515   4.1516   4.1516   4.1528   4.1528
     4.3792   4.3792   4.3792   4.3792   4.3793   4.3794   4.3795   4.3795
     4.4619   4.4619   4.4640   4.4640   4.4641   4.4641   4.4657   4.4658
     7.1980   7.1980   7.2072   7.2072   7.2072   7.2072   7.2166   7.2167
     7.3338   7.3339   7.3348   7.3348   7.3348   7.3348   7.3356   7.3356
     7.6023   7.6023   7.6047   7.6047   7.6047   7.6047   7.6072   7.6072
    11.7919  11.7919  11.7925  11.7925  11.7925  11.7925  11.7931  11.7931
    12.2750  12.2750  12.2832  12.2832  12.2832  12.2832  12.2918  12.2918
    12.5274  12.5274  12.5311  12.5311  12.5311  12.5311  12.5345  12.5345
    17.1626  17.1628  17.1656  17.1656  17.1657  17.1657  17.1686  17.1687
    17.3655  17.3655  17.3655  17.3655  17.3656

     the Fermi energy is     8.5392 ev

!    total energy              =   -6261.10939476 Ry
     Harris-Foulkes estimate   =   -6261.10939476 Ry
     estimated scf accuracy    <          4.0E-10 Ry

     The total energy is the sum of the following terms:

     one-electron contribution =   -4721.65546235 Ry
     hartree contribution      =    2597.52389419 Ry
     xc contribution           =    -965.66661440 Ry
     ewald contribution        =   -3171.31121220 Ry
     smearing contrib. (-TS)   =      -0.00000000 Ry

     convergence has been achieved in  13 iterations

     Forces acting on atoms (cartesian axes, Ry/au):

     atom    1 type  1   force =     0.00031995    0.00011294    0.00007699
     atom    2 type  1   force =    -0.00007699   -0.00011294    0.00031995
     atom    3 type  1   force =    -0.00031995   -0.00011294    0.00007699
     atom    4 type  1   force =     0.00007699    0.00011294    0.00031995
     atom    5 type  1   force =    -0.00031995    0.00011294   -0.00007699
     atom    6 type  1   force =     0.00007699   -0.00011294   -0.00031995
     atom    7 type  1   force =     0.00031995   -0.00011294   -0.00007699
     atom    8 type  1   force =    -0.00007699    0.00011294   -0.00031995
     atom    9 type  2   force =     0.00005708   -0.00012621    0.00003349
     atom   10 type  2   force =    -0.00003349    0.00012621    0.00005708
     atom   11 type  2   force =    -0.00005708    0.00012621    0.00003349
     atom   12 type  2   force =     0.00003349   -0.00012621    0.00005708
     atom   13 type  2   force =    -0.00005708   -0.00012621   -0.00003349
     atom   14 type  2   force =     0.00003349    0.00012621   -0.00005708
     atom   15 type  2   force =     0.00005708    0.00012621   -0.00003349
     atom   16 type  2   force =    -0.00003349   -0.00012621   -0.00005708
     atom   17 type  2   force =     0.00016674    0.00006474   -0.00000495
     atom   18 type  2   force =    -0.00006938    0.00010726    0.00000197
     atom   19 type  2   force =    -0.00016674   -0.00006474   -0.00000495
     atom   20 type  2   force =     0.00006938   -0.00010726    0.00000197
     atom   21 type  2   force =    -0.00016674    0.00006474    0.00000495
     atom   22 type  2   force =     0.00006938    0.00010726   -0.00000197
     atom   23 type  2   force =     0.00016674   -0.00006474    0.00000495
     atom   24 type  2   force =    -0.00006938   -0.00010726   -0.00000197
     atom   25 type  2   force =    -0.00000197    0.00010726    0.00006938
     atom   26 type  2   force =     0.00000495   -0.00006474    0.00016674
     atom   27 type  2   force =     0.00000197   -0.00010726    0.00006938
     atom   28 type  2   force =    -0.00000495    0.00006474    0.00016674
     atom   29 type  2   force =     0.00000197    0.00010726   -0.00006938
     atom   30 type  2   force =    -0.00000495   -0.00006474   -0.00016674
     atom   31 type  2   force =    -0.00000197   -0.00010726   -0.00006938
     atom   32 type  2   force =     0.00000495    0.00006474   -0.00016674

     Total force =     0.000000     Total SCF correction =     0.000000

     Computing stress (Cartesian axis) and pressure

          total   stress  (Ry/bohr**3)                   (kbar)     P=   -0.27
  -0.00000133   0.00000000   0.00000000         -0.20      0.00      0.00
   0.00000000  -0.00000283   0.00000000          0.00     -0.42      0.00
   0.00000000   0.00000000  -0.00000133          0.00      0.00     -0.20

     Writing output data file Landau_1.save

     General routines

     Parallel routines

   This run was terminated on:  20:17:20  30Apr2019

   JOB DONE.