     Program PWSCF v.6.4.1 starts on 21Nov2019 at 16: 6:41

     K-points division:     npool     =      40
     Reading input from scf.in

     Current dimensions of program PWSCF are:
     Max number of different atomic species (ntypx) = 10
     Max number of k-points (npk) =  40000
     Max angular momentum in pseudopotentials (lmaxx) =  3

     Subspace diagonalization in iterative solution of the eigenvalue problem:
     a serial algorithm will be used

     Message from routine setup:
     using ibrav=0 with symmetry is DISCOURAGED, use correct ibrav instead

     bravais-lattice index     =            0
     lattice parameter (alat)  =       9.8962  a.u.
     unit-cell volume          =    1409.2059 (a.u.)^3
     number of atoms/cell      =           16
     number of atomic types    =            2
     number of electrons       =       184.34
     number of Kohn-Sham states=          111
     kinetic-energy cutoff     =     120.0000  Ry
     charge density cutoff     =     480.0000  Ry
     convergence threshold     =      1.0E-08
     mixing beta               =       0.7000
     number of iterations used =            8  plain     mixing
     Exchange-correlation      = SLA PW NOGX NOGC ( 1  4  0  0 0 0)

     celldm(1)=   9.896218  celldm(2)=   0.000000  celldm(3)=   0.000000
     celldm(4)=   0.000000  celldm(5)=   0.000000  celldm(6)=   0.000000

     crystal axes: (cart. coord. in units of alat)
               a(1) = (   1.000000   0.000000   0.000000 )
               a(2) = (   0.000000   1.000000   0.000000 )
               a(3) = (   0.000000   0.000000   1.454008 )

     reciprocal axes: (cart. coord. in units 2 pi/alat)
               b(1) = (  1.000000  0.000000  0.000000 )
               b(2) = (  0.000000  1.000000  0.000000 )
               b(3) = (  0.000000  0.000000  0.687754 )

     PseudoPot. # 1 for W  read from file:
     /cluster/scratch/mnoe/QE/pps/W_ONCV_LDA-4.0.upf
     MD5 check sum: ba0307d5d4cd419d6f1d13dc49d7c13a
     Pseudo is Norm-conserving + core correction, Zval = 28.0
     Generated using ONCVPSP code by D. R. Hamann
     Using radial grid of 1380 points,  8 beta functions with:
                l(1) =   0
                l(2) =   0
                l(3) =   1
                l(4) =   1
                l(5) =   2
                l(6) =   2
                l(7) =   3
                l(8) =   3

     PseudoPot. # 2 for O  read from file:
     /cluster/scratch/mnoe/QE/pps/O_ONCV_LDA-3.0.upf
     MD5 check sum: b55cdb4f45ae2203d24ad12cf8d61a31
     Pseudo is Norm-conserving + core correction, Zval =  6.0
     Generated using ONCVPSP code by D. R. Hamann
     Using radial grid of  926 points,  5 beta functions with:
                l(1) =   0
                l(2) =   0
                l(3) =   1
                l(4) =   1
                l(5) =   2

     atomic species   valence    mass     pseudopotential
        W             28.00   183.84000     W ( 1.00)
        O              6.00    15.99940     O ( 1.00)

     16 Sym. Ops., with inversion, found (14 have fractional translation)

   Cartesian axes

     site n.     atom                  positions (alat units)
         1           W   tau(   1) = (   0.2500000   0.2500000   0.2988839  )
         2           W   tau(   2) = (   0.7500000   0.7500000   1.1551240  )
         3           W   tau(   3) = (   0.7500000   0.7500000   0.4281201  )
         4           W   tau(   4) = (   0.2500000   0.2500000   1.0258878  )
         5           O   tau(   5) = (   0.2500000   0.2500000   0.6803285  )
         6           O   tau(   6) = (   0.7500000   0.7500000   0.7736794  )
         7           O   tau(   7) = (   0.7500000   0.7500000   0.0466755  )
         8           O   tau(   8) = (   0.2500000   0.2500000   1.4073324  )
         9           O   tau(   9) = (   0.5143603   0.4856397   0.3635020  )
        10           O   tau(  10) = (   0.4856397   0.5143603   1.0905059  )
        11           O   tau(  11) = (  -0.0143603   1.0143603   0.3635020  )
        12           O   tau(  12) = (   1.0143602  -0.0143602   1.0905059  )
        13           O   tau(  13) = (   1.0143603   0.5143603   0.3635020  )
        14           O   tau(  14) = (  -0.0143602   0.4856397   1.0905059  )
        15           O   tau(  15) = (   0.4856397  -0.0143603   0.3635020  )
        16           O   tau(  16) = (   0.5143603   1.0143602   1.0905059  )

     number of k points=    40  gaussian smearing, width (Ry)=  0.0007
                       cart. coord. in units 2pi/alat
        k(    1) = (   0.0000000   0.0000000   0.0000000), wk =   0.0092593
        k(    2) = (   0.0000000   0.0000000   0.1146257), wk =   0.0185185
        k(    3) = (   0.0000000   0.0000000   0.2292514), wk =   0.0185185
        k(    4) = (   0.0000000   0.0000000  -0.3438771), wk =   0.0092593
        k(    5) = (   0.0000000   0.1666667   0.0000000), wk =   0.0370370
        k(    6) = (   0.0000000   0.1666667   0.1146257), wk =   0.0740741
        k(    7) = (   0.0000000   0.1666667   0.2292514), wk =   0.0740741
        k(    8) = (   0.0000000   0.1666667  -0.3438771), wk =   0.0370370
        k(    9) = (   0.0000000   0.3333333   0.0000000), wk =   0.0370370
        k(   10) = (   0.0000000   0.3333333   0.1146257), wk =   0.0740741
        k(   11) = (   0.0000000   0.3333333   0.2292514), wk =   0.0740741
        k(   12) = (   0.0000000   0.3333333  -0.3438771), wk =   0.0370370
        k(   13) = (   0.0000000  -0.5000000   0.0000000), wk =   0.0185185
        k(   14) = (   0.0000000  -0.5000000   0.1146257), wk =   0.0370370
        k(   15) = (   0.0000000  -0.5000000   0.2292514), wk =   0.0370370
        k(   16) = (   0.0000000  -0.5000000  -0.3438771), wk =   0.0185185
        k(   17) = (   0.1666667   0.1666667   0.0000000), wk =   0.0370370
        k(   18) = (   0.1666667   0.1666667   0.1146257), wk =   0.0740741
        k(   19) = (   0.1666667   0.1666667   0.2292514), wk =   0.0740741
        k(   20) = (   0.1666667   0.1666667  -0.3438771), wk =   0.0370370
        k(   21) = (   0.1666667   0.3333333   0.0000000), wk =   0.0740741
        k(   22) = (   0.1666667   0.3333333   0.1146257), wk =   0.1481481
        k(   23) = (   0.1666667   0.3333333   0.2292514), wk =   0.1481481
        k(   24) = (   0.1666667   0.3333333  -0.3438771), wk =   0.0740741
        k(   25) = (   0.1666667  -0.5000000   0.0000000), wk =   0.0370370
        k(   26) = (   0.1666667  -0.5000000   0.1146257), wk =   0.0740741
        k(   27) = (   0.1666667  -0.5000000   0.2292514), wk =   0.0740741
        k(   28) = (   0.1666667  -0.5000000  -0.3438771), wk =   0.0370370
        k(   29) = (   0.3333333   0.3333333   0.0000000), wk =   0.0370370
        k(   30) = (   0.3333333   0.3333333   0.1146257), wk =   0.0740741
        k(   31) = (   0.3333333   0.3333333   0.2292514), wk =   0.0740741
        k(   32) = (   0.3333333   0.3333333  -0.3438771), wk =   0.0370370
        k(   33) = (   0.3333333  -0.5000000   0.0000000), wk =   0.0370370
        k(   34) = (   0.3333333  -0.5000000   0.1146257), wk =   0.0740741
        k(   35) = (   0.3333333  -0.5000000   0.2292514), wk =   0.0740741
        k(   36) = (   0.3333333  -0.5000000  -0.3438771), wk =   0.0370370
        k(   37) = (  -0.5000000  -0.5000000   0.0000000), wk =   0.0092593
        k(   38) = (  -0.5000000  -0.5000000   0.1146257), wk =   0.0185185
        k(   39) = (  -0.5000000  -0.5000000   0.2292514), wk =   0.0185185
        k(   40) = (  -0.5000000  -0.5000000  -0.3438771), wk =   0.0092593

     Initial potential from superposition of free atoms

     starting charge  183.99828, renormalised to  184.34000
     Starting wfcs are  116 randomized atomic wfcs

     Self-consistent Calculation

     iteration #  1     ecut=   120.00 Ry     beta= 0.70
     Davidson diagonalization with overlap
     ethr =  1.00E-02,  avg # of iterations =  4.6

     total energy              =   -3126.46874595 Ry
     Harris-Foulkes estimate   =   -3132.10666528 Ry
     estimated scf accuracy    <       7.08680798 Ry

[...]

     total energy              =   -3130.24276063 Ry
     Harris-Foulkes estimate   =   -3130.24276065 Ry
     estimated scf accuracy    <       0.00000004 Ry

     iteration # 12     ecut=   120.00 Ry     beta= 0.70
     Davidson diagonalization with overlap
     ethr =  1.96E-11,  avg # of iterations =  2.0

     End of self-consistent calculation

          k = 0.0000 0.0000 0.0000 ( 31263 PWs)   bands (ev):

   -66.1319 -66.1314 -66.1306 -66.1301 -30.4966 -30.4933 -30.4675 -30.4675
   -30.4631 -30.4631 -30.4207 -30.4187 -30.3881 -30.3881 -30.3847 -30.3847
   -20.2876 -20.2875 -20.2875 -20.2874 -20.2731 -20.2731 -20.2731 -20.2731
   -20.2723 -20.2722 -20.2721 -20.2719 -20.2718 -20.2716 -20.2700 -20.2700
   -20.2700 -20.2700 -20.2650 -20.2647 -20.2624 -20.2624 -20.2612 -20.2612
   -20.2602 -20.2602 -20.2590 -20.2590 -10.0477  -9.6080  -9.2519  -8.9430
    -8.9178  -8.8275  -7.7701  -7.7297  -7.7297  -7.7067  -7.7067  -7.6251
     1.1516   1.1927   1.1965   1.3420   1.5455   1.5972   2.4454   2.4454
     2.5354   2.6539   3.9860   3.9860   4.8724   4.8724   5.0375   5.6278
     5.6278   5.9054   5.9054   6.0041   6.0041   6.0113   6.0894   6.6233
     6.6233   6.9036   7.1913   7.2363   7.2363   7.2672   7.2672   7.3336
     8.4077   8.4153   8.4353   8.4353   9.0145   9.0220   9.5794   9.5794
    12.5252  12.5252  13.3698  13.3698  13.5406  13.6268  13.6406  14.2628
    14.2628  14.3502  14.3510  14.7555  15.6832  16.4070  17.1541

[...]

          k = 0.3333-0.5000-0.3439 ( 31320 PWs)   bands (ev):

[...]

          k =-0.5000-0.5000 0.0000 ( 31256 PWs)   bands (ev):

[...]

          k =-0.5000-0.5000-0.3439 ( 31328 PWs)   bands (ev):

   -66.1310 -66.1310 -66.1310 -66.1310 -30.4700 -30.4700 -30.4700 -30.4700
   -30.4575 -30.4575 -30.4575 -30.4575 -30.3822 -30.3822 -30.3822 -30.3822
   -20.2875 -20.2875 -20.2875 -20.2875 -20.2746 -20.2746 -20.2746 -20.2746
   -20.2720 -20.2720 -20.2720 -20.2720 -20.2685 -20.2685 -20.2685 -20.2685
   -20.2684 -20.2684 -20.2684 -20.2684 -20.2618 -20.2618 -20.2618 -20.2618
   -20.2598 -20.2598 -20.2598 -20.2598  -9.3648  -9.3648  -9.3648  -9.3648
    -8.4302  -8.4302  -8.4302  -8.4302  -7.7782  -7.7782  -7.7782  -7.7782
     1.3293   1.3293   1.3293   1.3293   3.0432   3.0432   3.0432   3.0432
     3.3294   3.3294   3.3294   3.3294   4.7302   4.7302   4.7302   4.7302
     5.4083   5.4083   5.4083   5.4083   6.0257   6.0257   6.0257   6.0257
     6.3075   6.3075   6.3075   6.3075   6.7759   6.7760   6.7760   6.7760
     7.6326   7.6326   7.6326   7.6326  11.2303  11.2303  11.2303  11.2303
    12.5074  12.5074  12.5074  12.5074  13.6684  13.6684  13.6684  13.6684
    15.0636  15.0636  15.0636  15.0636  17.9827  17.9827  17.9827

     the Fermi energy is     9.6665 ev

!    total energy              =   -3130.24276064 Ry
     Harris-Foulkes estimate   =   -3130.24276064 Ry
     estimated scf accuracy    <          1.7E-09 Ry

     The total energy is the sum of the following terms:

     one-electron contribution =   -2377.15700748 Ry
     hartree contribution      =    1307.49154394 Ry
     xc contribution           =    -483.23842033 Ry
     ewald contribution        =   -1577.33882662 Ry
     smearing contrib. (-TS)   =      -0.00005015 Ry

     convergence has been achieved in  12 iterations

     Writing output data file Landau_37.save/

     General routines

     Parallel routines

   This run was terminated on:  16: 9: 1  21Nov2019

   JOB DONE.