     Program PWSCF v.6.4.1 starts on 21Nov2019 at 15:41: 3

     K-points division:     npool     =      40
     Reading input from scf.in

     Current dimensions of program PWSCF are:
     Max number of different atomic species (ntypx) = 10
     Max number of k-points (npk) =  40000
     Max angular momentum in pseudopotentials (lmaxx) =  3

     Subspace diagonalization in iterative solution of the eigenvalue problem:
     a serial algorithm will be used

     Message from routine setup:
     using ibrav=0 with symmetry is DISCOURAGED, use correct ibrav instead

     bravais-lattice index     =            0
     lattice parameter (alat)  =       9.8846  a.u.
     unit-cell volume          =    1405.0110 (a.u.)^3
     number of atoms/cell      =           16
     number of atomic types    =            2
     number of electrons       =       184.18
     number of Kohn-Sham states=          111
     kinetic-energy cutoff     =     120.0000  Ry
     charge density cutoff     =     480.0000  Ry
     convergence threshold     =      1.0E-08
     mixing beta               =       0.7000
     number of iterations used =            8  plain     mixing
     Exchange-correlation      = SLA PW NOGX NOGC ( 1  4  0  0 0 0)

     celldm(1)=   9.884566  celldm(2)=   0.000000  celldm(3)=   0.000000
     celldm(4)=   0.000000  celldm(5)=   0.000000  celldm(6)=   0.000000

     crystal axes: (cart. coord. in units of alat)
               a(1) = (   1.000000   0.000000   0.000000 )
               a(2) = (   0.000000   1.000000   0.000000 )
               a(3) = (   0.000000   0.000000   1.454812 )

     reciprocal axes: (cart. coord. in units 2 pi/alat)
               b(1) = (  1.000000  0.000000  0.000000 )
               b(2) = (  0.000000  1.000000  0.000000 )
               b(3) = (  0.000000  0.000000  0.687374 )

     PseudoPot. # 1 for W  read from file:
     /cluster/scratch/mnoe/QE/pps/W_ONCV_LDA-4.0.upf
     MD5 check sum: ba0307d5d4cd419d6f1d13dc49d7c13a
     Pseudo is Norm-conserving + core correction, Zval = 28.0
     Generated using ONCVPSP code by D. R. Hamann
     Using radial grid of 1380 points,  8 beta functions with:
                l(1) =   0
                l(2) =   0
                l(3) =   1
                l(4) =   1
                l(5) =   2
                l(6) =   2
                l(7) =   3
                l(8) =   3

     PseudoPot. # 2 for O  read from file:
     /cluster/scratch/mnoe/QE/pps/O_ONCV_LDA-3.0.upf
     MD5 check sum: b55cdb4f45ae2203d24ad12cf8d61a31
     Pseudo is Norm-conserving + core correction, Zval =  6.0
     Generated using ONCVPSP code by D. R. Hamann
     Using radial grid of  926 points,  5 beta functions with:
                l(1) =   0
                l(2) =   0
                l(3) =   1
                l(4) =   1
                l(5) =   2

     atomic species   valence    mass     pseudopotential
        W             28.00   183.84000     W ( 1.00)
        O              6.00    15.99940     O ( 1.00)

     16 Sym. Ops., with inversion, found (14 have fractional translation)

   Cartesian axes

     site n.     atom                  positions (alat units)
         1           W   tau(   1) = (   0.2500000   0.2500000   0.2980613  )
         2           W   tau(   2) = (   0.7500000   0.7500000   1.1567507  )
         3           W   tau(   3) = (   0.7500000   0.7500000   0.4293447  )
         4           W   tau(   4) = (   0.2500000   0.2500000   1.0254673  )
         5           O   tau(   5) = (   0.2500000   0.2500000   0.6788354  )
         6           O   tau(   6) = (   0.7500000   0.7500000   0.7759766  )
         7           O   tau(   7) = (   0.7500000   0.7500000   0.0485706  )
         8           O   tau(   8) = (   0.2500000   0.2500000   1.4062414  )
         9           O   tau(   9) = (   0.5178711   0.4821289   0.3637030  )
        10           O   tau(  10) = (   0.4821289   0.5178711   1.0911090  )
        11           O   tau(  11) = (  -0.0178711   1.0178711   0.3637030  )
        12           O   tau(  12) = (   1.0178710  -0.0178711   1.0911090  )
        13           O   tau(  13) = (   1.0178711   0.5178711   0.3637030  )
        14           O   tau(  14) = (  -0.0178711   0.4821289   1.0911090  )
        15           O   tau(  15) = (   0.4821289  -0.0178711   0.3637030  )
        16           O   tau(  16) = (   0.5178711   1.0178710   1.0911090  )

     number of k points=    40  gaussian smearing, width (Ry)=  0.0007
                       cart. coord. in units 2pi/alat
        k(    1) = (   0.0000000   0.0000000   0.0000000), wk =   0.0092593
        k(    2) = (   0.0000000   0.0000000   0.1145623), wk =   0.0185185
        k(    3) = (   0.0000000   0.0000000   0.2291247), wk =   0.0185185
        k(    4) = (   0.0000000   0.0000000  -0.3436870), wk =   0.0092593
        k(    5) = (   0.0000000   0.1666667   0.0000000), wk =   0.0370370
        k(    6) = (   0.0000000   0.1666667   0.1145623), wk =   0.0740741
        k(    7) = (   0.0000000   0.1666667   0.2291247), wk =   0.0740741
        k(    8) = (   0.0000000   0.1666667  -0.3436870), wk =   0.0370370
        k(    9) = (   0.0000000   0.3333333   0.0000000), wk =   0.0370370
        k(   10) = (   0.0000000   0.3333333   0.1145623), wk =   0.0740741
        k(   11) = (   0.0000000   0.3333333   0.2291247), wk =   0.0740741
        k(   12) = (   0.0000000   0.3333333  -0.3436870), wk =   0.0370370
        k(   13) = (   0.0000000  -0.5000000   0.0000000), wk =   0.0185185
        k(   14) = (   0.0000000  -0.5000000   0.1145623), wk =   0.0370370
        k(   15) = (   0.0000000  -0.5000000   0.2291247), wk =   0.0370370
        k(   16) = (   0.0000000  -0.5000000  -0.3436870), wk =   0.0185185
        k(   17) = (   0.1666667   0.1666667   0.0000000), wk =   0.0370370
        k(   18) = (   0.1666667   0.1666667   0.1145623), wk =   0.0740741
        k(   19) = (   0.1666667   0.1666667   0.2291247), wk =   0.0740741
        k(   20) = (   0.1666667   0.1666667  -0.3436870), wk =   0.0370370
        k(   21) = (   0.1666667   0.3333333   0.0000000), wk =   0.0740741
        k(   22) = (   0.1666667   0.3333333   0.1145623), wk =   0.1481481
        k(   23) = (   0.1666667   0.3333333   0.2291247), wk =   0.1481481
        k(   24) = (   0.1666667   0.3333333  -0.3436870), wk =   0.0740741
        k(   25) = (   0.1666667  -0.5000000   0.0000000), wk =   0.0370370
        k(   26) = (   0.1666667  -0.5000000   0.1145623), wk =   0.0740741
        k(   27) = (   0.1666667  -0.5000000   0.2291247), wk =   0.0740741
        k(   28) = (   0.1666667  -0.5000000  -0.3436870), wk =   0.0370370
        k(   29) = (   0.3333333   0.3333333   0.0000000), wk =   0.0370370
        k(   30) = (   0.3333333   0.3333333   0.1145623), wk =   0.0740741
        k(   31) = (   0.3333333   0.3333333   0.2291247), wk =   0.0740741
        k(   32) = (   0.3333333   0.3333333  -0.3436870), wk =   0.0370370
        k(   33) = (   0.3333333  -0.5000000   0.0000000), wk =   0.0370370
        k(   34) = (   0.3333333  -0.5000000   0.1145623), wk =   0.0740741
        k(   35) = (   0.3333333  -0.5000000   0.2291247), wk =   0.0740741
        k(   36) = (   0.3333333  -0.5000000  -0.3436870), wk =   0.0370370
        k(   37) = (  -0.5000000  -0.5000000   0.0000000), wk =   0.0092593
        k(   38) = (  -0.5000000  -0.5000000   0.1145623), wk =   0.0185185
        k(   39) = (  -0.5000000  -0.5000000   0.2291247), wk =   0.0185185
        k(   40) = (  -0.5000000  -0.5000000  -0.3436870), wk =   0.0092593

     Initial potential from superposition of free atoms

     starting charge  183.99828, renormalised to  184.18000
     Starting wfcs are  116 randomized atomic wfcs

     Self-consistent Calculation

     iteration #  1     ecut=   120.00 Ry     beta= 0.70
     Davidson diagonalization with overlap
     ethr =  1.00E-02,  avg # of iterations =  4.7

     total energy              =   -3126.59230185 Ry
     Harris-Foulkes estimate   =   -3132.18570062 Ry
     estimated scf accuracy    <       7.04874012 Ry

[...]

     total energy              =   -3130.34808006 Ry
     Harris-Foulkes estimate   =   -3130.34808008 Ry
     estimated scf accuracy    <       0.00000003 Ry

     iteration # 12     ecut=   120.00 Ry     beta= 0.70
     Davidson diagonalization with overlap
     ethr =  1.79E-11,  avg # of iterations =  2.0

     End of self-consistent calculation

          k = 0.0000 0.0000 0.0000 ( 31095 PWs)   bands (ev):

   -66.1563 -66.1558 -66.1550 -66.1544 -30.4955 -30.4935 -30.4935 -30.4924
   -30.4890 -30.4890 -30.4194 -30.4177 -30.4141 -30.4141 -30.4107 -30.4107
   -20.3190 -20.3190 -20.3189 -20.3188 -20.3148 -20.3148 -20.3147 -20.3147
   -20.3122 -20.3122 -20.3121 -20.3121 -20.2979 -20.2978 -20.2974 -20.2973
   -20.2923 -20.2919 -20.2850 -20.2846 -20.2844 -20.2844 -20.2829 -20.2829
   -20.2823 -20.2823 -20.2807 -20.2807 -10.0254  -9.5891  -9.2118  -8.9217
    -8.8969  -8.7874  -7.7206  -7.7127  -7.7127  -7.6904  -7.6904  -7.5722
     1.1756   1.2081   1.2125   1.3673   1.5737   1.6228   2.4709   2.4709
     2.5503   2.6671   3.9812   3.9812   4.9315   4.9315   5.0737   5.6450
     5.6450   5.9619   5.9619   6.0523   6.0707   6.0707   6.1350   6.6616
     6.6616   6.9392   7.2201   7.2618   7.2618   7.2994   7.2994   7.3842
     8.4047   8.4104   8.4792   8.4792   9.0140   9.0247   9.6024   9.6024
    12.5372  12.5372  13.3815  13.3815  13.5272  13.5403  13.5575  14.2699
    14.2699  14.4058  14.4069  14.8354  15.6962  16.4147  17.2267

[...]

          k = 0.3333-0.5000-0.3437 ( 31204 PWs)   bands (ev):

[...]

          k =-0.5000-0.5000 0.0000 ( 31192 PWs)   bands (ev):

[...]

          k =-0.5000-0.5000-0.3437 ( 31216 PWs)   bands (ev):

   -66.1554 -66.1554 -66.1554 -66.1554 -30.4960 -30.4960 -30.4960 -30.4960
   -30.4564 -30.4564 -30.4564 -30.4564 -30.4083 -30.4083 -30.4083 -30.4083
   -20.3189 -20.3189 -20.3189 -20.3189 -20.3163 -20.3163 -20.3163 -20.3163
   -20.3105 -20.3105 -20.3105 -20.3105 -20.2977 -20.2977 -20.2976 -20.2976
   -20.2885 -20.2885 -20.2885 -20.2885 -20.2837 -20.2837 -20.2837 -20.2837
   -20.2815 -20.2815 -20.2815 -20.2815  -9.3411  -9.3411  -9.3411  -9.3411
    -8.3855  -8.3855  -8.3855  -8.3855  -7.7652  -7.7652  -7.7651  -7.7651
     1.3474   1.3474   1.3474   1.3474   3.0675   3.0675   3.0675   3.0675
     3.3622   3.3622   3.3622   3.3622   4.7548   4.7548   4.7549   4.7549
     5.4503   5.4503   5.4503   5.4503   6.0426   6.0426   6.0426   6.0426
     6.3372   6.3372   6.3372   6.3372   6.8179   6.8179   6.8179   6.8179
     7.6848   7.6848   7.6848   7.6848  11.2475  11.2475  11.2475  11.2475
    12.4799  12.4799  12.4799  12.4799  13.6769  13.6769  13.6769  13.6769
    15.0699  15.0699  15.0699  15.0699  18.0802  18.0802  18.0802

     the Fermi energy is     9.6449 ev

!    total energy              =   -3130.34808006 Ry
     Harris-Foulkes estimate   =   -3130.34808006 Ry
     estimated scf accuracy    <          1.3E-09 Ry

     The total energy is the sum of the following terms:

     one-electron contribution =   -2371.03488794 Ry
     hartree contribution      =    1304.28424629 Ry
     xc contribution           =    -483.06307272 Ry
     ewald contribution        =   -1580.53435255 Ry
     smearing contrib. (-TS)   =      -0.00001313 Ry

     convergence has been achieved in  12 iterations

     Writing output data file Landau_39.save/

     General routines

     Parallel routines

   This run was terminated on:  15:43: 3  21Nov2019

   JOB DONE.