     Program PWSCF v.6.4.1 starts on 21Nov2019 at 16: 0: 5

     K-points division:     npool     =      40
     Reading input from scf.in

     Current dimensions of program PWSCF are:
     Max number of different atomic species (ntypx) = 10
     Max number of k-points (npk) =  40000
     Max angular momentum in pseudopotentials (lmaxx) =  3

     Subspace diagonalization in iterative solution of the eigenvalue problem:
     a serial algorithm will be used

     Message from routine setup:
     using ibrav=0 with symmetry is DISCOURAGED, use correct ibrav instead

     bravais-lattice index     =            0
     lattice parameter (alat)  =       9.8661  a.u.
     unit-cell volume          =    1417.9462 (a.u.)^3
     number of atoms/cell      =           16
     number of atomic types    =            2
     number of electrons       =       184.34
     number of Kohn-Sham states=          111
     kinetic-energy cutoff     =     120.0000  Ry
     charge density cutoff     =     480.0000  Ry
     convergence threshold     =      1.0E-08
     mixing beta               =       0.7000
     number of iterations used =            8  plain     mixing
     Exchange-correlation      = SLA PW NOGX NOGC ( 1  4  0  0 0 0)

     celldm(1)=   9.866131  celldm(2)=   0.000000  celldm(3)=   0.000000
     celldm(4)=   0.000000  celldm(5)=   0.000000  celldm(6)=   0.000000

     crystal axes: (cart. coord. in units of alat)
               a(1) = (   1.000000   0.000000   0.000000 )
               a(2) = (   0.000000   1.000000   0.000000 )
               a(3) = (   0.000000   0.000000   1.476451 )

     reciprocal axes: (cart. coord. in units 2 pi/alat)
               b(1) = (  1.000000  0.000000  0.000000 )
               b(2) = (  0.000000  1.000000  0.000000 )
               b(3) = (  0.000000  0.000000  0.677300 )

     PseudoPot. # 1 for W  read from file:
     /cluster/scratch/mnoe/QE/pps/W_ONCV_LDA-4.0.upf
     MD5 check sum: ba0307d5d4cd419d6f1d13dc49d7c13a
     Pseudo is Norm-conserving + core correction, Zval = 28.0
     Generated using ONCVPSP code by D. R. Hamann
     Using radial grid of 1380 points,  8 beta functions with:
                l(1) =   0
                l(2) =   0
                l(3) =   1
                l(4) =   1
                l(5) =   2
                l(6) =   2
                l(7) =   3
                l(8) =   3

     PseudoPot. # 2 for O  read from file:
     /cluster/scratch/mnoe/QE/pps/O_ONCV_LDA-3.0.upf
     MD5 check sum: b55cdb4f45ae2203d24ad12cf8d61a31
     Pseudo is Norm-conserving + core correction, Zval =  6.0
     Generated using ONCVPSP code by D. R. Hamann
     Using radial grid of  926 points,  5 beta functions with:
                l(1) =   0
                l(2) =   0
                l(3) =   1
                l(4) =   1
                l(5) =   2

     atomic species   valence    mass     pseudopotential
        W             28.00   183.84000     W ( 1.00)
        O              6.00    15.99940     O ( 1.00)

     16 Sym. Ops., with inversion, found (14 have fractional translation)

   Cartesian axes

     site n.     atom                  positions (alat units)
         1           W   tau(   1) = (   0.2500000   0.2500000   0.3175323  )
         2           W   tau(   2) = (   0.7500000   0.7500000   1.1589189  )
         3           W   tau(   3) = (   0.7500000   0.7500000   0.4206933  )
         4           W   tau(   4) = (   0.2500000   0.2500000   1.0557579  )
         5           O   tau(   5) = (   0.2500000   0.2500000   0.7173897  )
         6           O   tau(   6) = (   0.7500000   0.7500000   0.7590615  )
         7           O   tau(   7) = (   0.7500000   0.7500000   0.0208360  )
         8           O   tau(   8) = (   0.2500000   0.2500000   1.4556153  )
         9           O   tau(   9) = (   0.4652087   0.5347913   0.3691128  )
        10           O   tau(  10) = (   0.5347913   0.4652087   1.1073384  )
        11           O   tau(  11) = (   0.0347913   0.9652087   0.3691128  )
        12           O   tau(  12) = (   0.9652086   0.0347913   1.1073384  )
        13           O   tau(  13) = (   0.9652087   0.4652087   0.3691128  )
        14           O   tau(  14) = (   0.0347913   0.5347913   1.1073384  )
        15           O   tau(  15) = (   0.5347913   0.0347913   0.3691128  )
        16           O   tau(  16) = (   0.4652087   0.9652086   1.1073384  )

     number of k points=    40  gaussian smearing, width (Ry)=  0.0007
                       cart. coord. in units 2pi/alat
        k(    1) = (   0.0000000   0.0000000   0.0000000), wk =   0.0092593
        k(    2) = (   0.0000000   0.0000000   0.1128833), wk =   0.0185185
        k(    3) = (   0.0000000   0.0000000   0.2257666), wk =   0.0185185
        k(    4) = (   0.0000000   0.0000000  -0.3386499), wk =   0.0092593
        k(    5) = (   0.0000000   0.1666667   0.0000000), wk =   0.0370370
        k(    6) = (   0.0000000   0.1666667   0.1128833), wk =   0.0740741
        k(    7) = (   0.0000000   0.1666667   0.2257666), wk =   0.0740741
        k(    8) = (   0.0000000   0.1666667  -0.3386499), wk =   0.0370370
        k(    9) = (   0.0000000   0.3333333   0.0000000), wk =   0.0370370
        k(   10) = (   0.0000000   0.3333333   0.1128833), wk =   0.0740741
        k(   11) = (   0.0000000   0.3333333   0.2257666), wk =   0.0740741
        k(   12) = (   0.0000000   0.3333333  -0.3386499), wk =   0.0370370
        k(   13) = (   0.0000000  -0.5000000   0.0000000), wk =   0.0185185
        k(   14) = (   0.0000000  -0.5000000   0.1128833), wk =   0.0370370
        k(   15) = (   0.0000000  -0.5000000   0.2257666), wk =   0.0370370
        k(   16) = (   0.0000000  -0.5000000  -0.3386499), wk =   0.0185185
        k(   17) = (   0.1666667   0.1666667   0.0000000), wk =   0.0370370
        k(   18) = (   0.1666667   0.1666667   0.1128833), wk =   0.0740741
        k(   19) = (   0.1666667   0.1666667   0.2257666), wk =   0.0740741
        k(   20) = (   0.1666667   0.1666667  -0.3386499), wk =   0.0370370
        k(   21) = (   0.1666667   0.3333333   0.0000000), wk =   0.0740741
        k(   22) = (   0.1666667   0.3333333   0.1128833), wk =   0.1481481
        k(   23) = (   0.1666667   0.3333333   0.2257666), wk =   0.1481481
        k(   24) = (   0.1666667   0.3333333  -0.3386499), wk =   0.0740741
        k(   25) = (   0.1666667  -0.5000000   0.0000000), wk =   0.0370370
        k(   26) = (   0.1666667  -0.5000000   0.1128833), wk =   0.0740741
        k(   27) = (   0.1666667  -0.5000000   0.2257666), wk =   0.0740741
        k(   28) = (   0.1666667  -0.5000000  -0.3386499), wk =   0.0370370
        k(   29) = (   0.3333333   0.3333333   0.0000000), wk =   0.0370370
        k(   30) = (   0.3333333   0.3333333   0.1128833), wk =   0.0740741
        k(   31) = (   0.3333333   0.3333333   0.2257666), wk =   0.0740741
        k(   32) = (   0.3333333   0.3333333  -0.3386499), wk =   0.0370370
        k(   33) = (   0.3333333  -0.5000000   0.0000000), wk =   0.0370370
        k(   34) = (   0.3333333  -0.5000000   0.1128833), wk =   0.0740741
        k(   35) = (   0.3333333  -0.5000000   0.2257666), wk =   0.0740741
        k(   36) = (   0.3333333  -0.5000000  -0.3386499), wk =   0.0370370
        k(   37) = (  -0.5000000  -0.5000000   0.0000000), wk =   0.0092593
        k(   38) = (  -0.5000000  -0.5000000   0.1128833), wk =   0.0185185
        k(   39) = (  -0.5000000  -0.5000000   0.2257666), wk =   0.0185185
        k(   40) = (  -0.5000000  -0.5000000  -0.3386499), wk =   0.0092593

     Initial potential from superposition of free atoms

     starting charge  183.99828, renormalised to  184.34000
     Starting wfcs are  116 randomized atomic wfcs

     Self-consistent Calculation

     iteration #  1     ecut=   120.00 Ry     beta= 0.70
     Davidson diagonalization with overlap
     ethr =  1.00E-02,  avg # of iterations =  4.7

     total energy              =   -3126.66521066 Ry
     Harris-Foulkes estimate   =   -3132.12658011 Ry
     estimated scf accuracy    <       6.87427561 Ry

[...]

     total energy              =   -3130.31323874 Ry
     Harris-Foulkes estimate   =   -3130.31323877 Ry
     estimated scf accuracy    <       0.00000005 Ry

     iteration # 12     ecut=   120.00 Ry     beta= 0.70
     Davidson diagonalization with overlap
     ethr =  2.54E-11,  avg # of iterations =  2.0

     End of self-consistent calculation

          k = 0.0000 0.0000 0.0000 ( 31487 PWs)   bands (ev):

   -66.2042 -66.2038 -66.2026 -66.2021 -30.6326 -30.6271 -30.5682 -30.5638
   -30.5367 -30.5367 -30.5331 -30.5331 -30.4486 -30.4486 -30.4457 -30.4457
   -20.3551 -20.3548 -20.3530 -20.3530 -20.3529 -20.3528 -20.3492 -20.3489
   -20.3432 -20.3432 -20.3421 -20.3421 -20.3404 -20.3404 -20.3393 -20.3393
   -20.3341 -20.3340 -20.3336 -20.3336 -20.3067 -20.3067 -20.3067 -20.3067
   -20.3029 -20.3029 -20.3029 -20.3029 -10.0796  -9.7462  -9.2817  -9.1209
    -9.1034  -9.0117  -7.9848  -7.8725  -7.7734  -7.7734  -7.7502  -7.7502
     1.0624   1.0626   1.1708   1.4059   1.4473   1.6102   2.3702   2.4622
     2.5092   2.5092   4.0273   4.0273   4.7949   4.7949   4.9233   5.4495
     5.4495   5.4632   5.4632   5.6901   5.6901   5.8316   5.8528   6.6001
     6.6001   6.7571   6.9671   6.9691   7.1893   7.1893   7.2152   7.2152
     8.0091   8.0154   8.0282   8.0282   9.0524   9.0534   9.7529   9.7529
    12.2819  12.2819  13.1756  13.1771  13.2927  13.2927  13.5991  14.1084
    14.1084  14.6242  14.9359  14.9426  15.4406  16.5808  17.1737

[...]

          k = 0.3333-0.5000-0.3386 ( 31484 PWs)   bands (ev):

[...]

          k =-0.5000-0.5000 0.0000 ( 31504 PWs)   bands (ev):

[...]

          k =-0.5000-0.5000-0.3386 ( 31488 PWs)   bands (ev):

   -66.2032 -66.2032 -66.2032 -66.2032 -30.5981 -30.5981 -30.5980 -30.5980
   -30.5399 -30.5399 -30.5399 -30.5399 -30.4429 -30.4429 -30.4429 -30.4429
   -20.3529 -20.3529 -20.3529 -20.3529 -20.3521 -20.3521 -20.3521 -20.3520
   -20.3427 -20.3427 -20.3427 -20.3427 -20.3398 -20.3398 -20.3398 -20.3398
   -20.3339 -20.3338 -20.3338 -20.3338 -20.3083 -20.3083 -20.3083 -20.3083
   -20.3014 -20.3014 -20.3014 -20.3014  -9.4553  -9.4553  -9.4553  -9.4553
    -8.5963  -8.5963  -8.5963  -8.5963  -7.8542  -7.8542  -7.8542  -7.8542
     1.1811   1.1811   1.1811   1.1811   3.0357   3.0357   3.0357   3.0357
     3.2782   3.2782   3.2782   3.2782   4.6673   4.6673   4.6673   4.6673
     5.1946   5.1946   5.1946   5.1946   5.9295   5.9295   5.9295   5.9295
     6.0929   6.0929   6.0929   6.0929   6.6040   6.6040   6.6040   6.6040
     7.3535   7.3535   7.3535   7.3535  11.1828  11.1828  11.1828  11.1828
    12.3473  12.3473  12.3473  12.3473  13.5227  13.5227  13.5227  13.5227
    15.3364  15.3364  15.3364  15.3364  17.9643  17.9643  17.9643

     the Fermi energy is     9.6913 ev

!    total energy              =   -3130.31323874 Ry
     Harris-Foulkes estimate   =   -3130.31323875 Ry
     estimated scf accuracy    <          1.1E-09 Ry

     The total energy is the sum of the following terms:

     one-electron contribution =   -2384.64118231 Ry
     hartree contribution      =    1310.51129415 Ry
     xc contribution           =    -483.21895663 Ry
     ewald contribution        =   -1572.96435326 Ry
     smearing contrib. (-TS)   =      -0.00004069 Ry

     convergence has been achieved in  12 iterations

     Writing output data file Landau_9.save/

     General routines

     Parallel routines

   This run was terminated on:  16: 2: 6  21Nov2019

   JOB DONE.