     Program PWSCF v.6.4.1 starts on 21Nov2019 at  0:36:11

     K-points division:     npool     =      64
     Reading input from rscf.in

     Current dimensions of program PWSCF are:
     Max number of different atomic species (ntypx) = 10
     Max number of k-points (npk) =  40000
     Max angular momentum in pseudopotentials (lmaxx) =  3

     Subspace diagonalization in iterative solution of the eigenvalue problem:
     a serial algorithm will be used

     Message from routine setup:
     using ibrav=0 with symmetry is DISCOURAGED, use correct ibrav instead

     bravais-lattice index     =            0
     lattice parameter (alat)  =      13.8397  a.u.
     unit-cell volume          =    2804.9816 (a.u.)^3
     number of atoms/cell      =           32
     number of atomic types    =            2
     number of electrons       =       368.00
     number of Kohn-Sham states=          221
     kinetic-energy cutoff     =     120.0000  Ry
     charge density cutoff     =     480.0000  Ry
     convergence threshold     =      1.0E-08
     mixing beta               =       0.7000
     number of iterations used =            8  plain     mixing
     Exchange-correlation      = SLA PW NOGX NOGC ( 1  4  0  0 0 0)
     nstep                     =           50

     celldm(1)=  13.839685  celldm(2)=   0.000000  celldm(3)=   0.000000
     celldm(4)=   0.000000  celldm(5)=   0.000000  celldm(6)=   0.000000

     crystal axes: (cart. coord. in units of alat)
               a(1) = (   1.000000   0.000000   0.000000 )
               a(2) = (   0.000000   1.058160   0.000000 )
               a(3) = (   0.000000   0.000000   1.000000 )

     reciprocal axes: (cart. coord. in units 2 pi/alat)
               b(1) = (  1.000000  0.000000  0.000000 )
               b(2) = (  0.000000  0.945037  0.000000 )
               b(3) = (  0.000000  0.000000  1.000000 )

     PseudoPot. # 1 for W  read from file:
     /cluster/scratch/mnoe/QE/pps/W_ONCV_LDA-4.0.upf
     MD5 check sum: ba0307d5d4cd419d6f1d13dc49d7c13a
     Pseudo is Norm-conserving + core correction, Zval = 28.0
     Generated using ONCVPSP code by D. R. Hamann
     Using radial grid of 1380 points,  8 beta functions with:
                l(1) =   0
                l(2) =   0
                l(3) =   1
                l(4) =   1
                l(5) =   2
                l(6) =   2
                l(7) =   3
                l(8) =   3

     PseudoPot. # 2 for O  read from file:
     /cluster/scratch/mnoe/QE/pps/O_ONCV_LDA-3.0.upf
     MD5 check sum: b55cdb4f45ae2203d24ad12cf8d61a31
     Pseudo is Norm-conserving + core correction, Zval =  6.0
     Generated using ONCVPSP code by D. R. Hamann
     Using radial grid of  926 points,  5 beta functions with:
                l(1) =   0
                l(2) =   0
                l(3) =   1
                l(4) =   1
                l(5) =   2

     atomic species   valence    mass     pseudopotential
        W             28.00   183.84000     W ( 1.00)
        O              6.00    15.99940     O ( 1.00)

      8 Sym. Ops., with inversion, found ( 6 have fractional translation)

   Cartesian axes

     site n.     atom                  positions (alat units)
         1           W   tau(   1) = (   0.2324300   0.3119083   0.0166000  )
         2           W   tau(   2) = (   0.7675700   0.7462517   0.9834000  )
         3           W   tau(   3) = (   0.2675700   0.2171717   0.5166000  )
         4           W   tau(   4) = (   0.7324300   0.8409883   0.4834000  )
         5           W   tau(   5) = (   0.7675700   0.3119083   0.4834000  )
         6           W   tau(   6) = (   0.2324300   0.7462517   0.5166000  )
         7           W   tau(   7) = (   0.7324300   0.2171717   0.9834000  )
         8           W   tau(   8) = (   0.2675700   0.8409883   0.0166000  )
         9           O   tau(   9) = (   0.2175800   0.0346429   0.0051600  )
        10           O   tau(  10) = (   0.7824200   1.0235172   0.9948400  )
        11           O   tau(  11) = (   0.2824200   0.4944371   0.5051600  )
        12           O   tau(  12) = (   0.7175800   0.5637230   0.4948400  )
        13           O   tau(  13) = (   0.7824200   0.0346429   0.4948400  )
        14           O   tau(  14) = (   0.2175800   1.0235172   0.5051600  )
        15           O   tau(  15) = (   0.7175800   0.4944371   0.9948400  )
        16           O   tau(  16) = (   0.2824200   0.5637230   0.0051600  )
        17           O   tau(  17) = (   0.5048000   0.2293456   0.5162414  )
        18           O   tau(  18) = (   0.4952000   0.8288145   0.4837586  )
        19           O   tau(  19) = (   0.9952000   0.2997344   1.0162414  )
        20           O   tau(  20) = (   0.0048001   0.7584257  -0.0162414  )
        21           O   tau(  21) = (   0.4952000   0.2293456  -0.0162414  )
        22           O   tau(  22) = (   0.5048000   0.8288145   1.0162414  )
        23           O   tau(  23) = (   0.0048001   0.2997344   0.4837586  )
        24           O   tau(  24) = (   0.9952000   0.7584257   0.5162414  )
        25           O   tau(  25) = (   0.7662415   0.2568578   0.7427100  )
        26           O   tau(  26) = (   0.2337586   0.8013022   0.2572900  )
        27           O   tau(  27) = (   0.7337586   0.2722223   0.2427100  )
        28           O   tau(  28) = (   0.2662415   0.7859378   0.7572900  )
        29           O   tau(  29) = (   0.2337586   0.2568578   0.7572900  )
        30           O   tau(  30) = (   0.7662415   0.8013022   0.2427100  )
        31           O   tau(  31) = (   0.2662415   0.2722223   0.2572900  )
        32           O   tau(  32) = (   0.7337586   0.7859378   0.7427100  )

     number of k points=    64  gaussian smearing, width (Ry)=  0.0007
                       cart. coord. in units 2pi/alat
        k(    1) = (   0.0000000   0.0000000   0.0000000), wk =   0.0092593
        k(    2) = (   0.0000000   0.0000000   0.1666667), wk =   0.0185185
        k(    3) = (   0.0000000   0.0000000   0.3333333), wk =   0.0185185
        k(    4) = (   0.0000000   0.0000000  -0.5000000), wk =   0.0092593
        k(    5) = (   0.0000000   0.1575061   0.0000000), wk =   0.0185185
        k(    6) = (   0.0000000   0.1575061   0.1666667), wk =   0.0370370
        k(    7) = (   0.0000000   0.1575061   0.3333333), wk =   0.0370370
        k(    8) = (   0.0000000   0.1575061  -0.5000000), wk =   0.0185185
        k(    9) = (   0.0000000   0.3150122   0.0000000), wk =   0.0185185
        k(   10) = (   0.0000000   0.3150122   0.1666667), wk =   0.0370370
        k(   11) = (   0.0000000   0.3150122   0.3333333), wk =   0.0370370
        k(   12) = (   0.0000000   0.3150122  -0.5000000), wk =   0.0185185
        k(   13) = (   0.0000000  -0.4725183   0.0000000), wk =   0.0092593
        k(   14) = (   0.0000000  -0.4725183   0.1666667), wk =   0.0185185
        k(   15) = (   0.0000000  -0.4725183   0.3333333), wk =   0.0185185
        k(   16) = (   0.0000000  -0.4725183  -0.5000000), wk =   0.0092593
        k(   17) = (   0.1666667   0.0000000   0.1666667), wk =   0.0370370
        k(   18) = (   0.1666667   0.0000000   0.3333333), wk =   0.0370370
        k(   19) = (   0.1666667   0.0000000  -0.5000000), wk =   0.0185185
        k(   20) = (   0.1666667   0.1575061   0.1666667), wk =   0.0740741
        k(   21) = (   0.1666667   0.1575061   0.3333333), wk =   0.0740741
        k(   22) = (   0.1666667   0.1575061  -0.5000000), wk =   0.0370370
        k(   23) = (   0.1666667   0.3150122   0.1666667), wk =   0.0740741
        k(   24) = (   0.1666667   0.3150122   0.3333333), wk =   0.0740741
        k(   25) = (   0.1666667   0.3150122  -0.5000000), wk =   0.0370370
        k(   26) = (   0.1666667  -0.4725183   0.1666667), wk =   0.0370370
        k(   27) = (   0.1666667  -0.4725183   0.3333333), wk =   0.0370370
        k(   28) = (   0.1666667  -0.4725183  -0.5000000), wk =   0.0185185
        k(   29) = (   0.3333333   0.0000000   0.3333333), wk =   0.0370370
        k(   30) = (   0.3333333   0.0000000  -0.5000000), wk =   0.0185185
        k(   31) = (   0.3333333   0.1575061   0.3333333), wk =   0.0740741
        k(   32) = (   0.3333333   0.1575061  -0.5000000), wk =   0.0370370
        k(   33) = (   0.3333333   0.3150122   0.3333333), wk =   0.0740741
        k(   34) = (   0.3333333   0.3150122  -0.5000000), wk =   0.0370370
        k(   35) = (   0.3333333  -0.4725183   0.3333333), wk =   0.0370370
        k(   36) = (   0.3333333  -0.4725183  -0.5000000), wk =   0.0185185
        k(   37) = (  -0.5000000   0.0000000  -0.5000000), wk =   0.0092593
        k(   38) = (  -0.5000000   0.1575061  -0.5000000), wk =   0.0185185
        k(   39) = (  -0.5000000   0.3150122  -0.5000000), wk =   0.0185185
        k(   40) = (  -0.5000000  -0.4725183  -0.5000000), wk =   0.0092593
        k(   41) = (   0.1666667   0.0000000   0.0000000), wk =   0.0185185
        k(   42) = (   0.3333333   0.0000000   0.0000000), wk =   0.0185185
        k(   43) = (  -0.5000000   0.0000000   0.0000000), wk =   0.0092593
        k(   44) = (   0.1666667  -0.1575061   0.0000000), wk =   0.0370370
        k(   45) = (   0.3333333  -0.1575061   0.0000000), wk =   0.0370370
        k(   46) = (  -0.5000000  -0.1575061   0.0000000), wk =   0.0185185
        k(   47) = (   0.1666667  -0.3150122   0.0000000), wk =   0.0370370
        k(   48) = (   0.3333333  -0.3150122   0.0000000), wk =   0.0370370
        k(   49) = (  -0.5000000  -0.3150122   0.0000000), wk =   0.0185185
        k(   50) = (   0.1666667   0.4725183   0.0000000), wk =   0.0185185
        k(   51) = (   0.3333333   0.4725183   0.0000000), wk =   0.0185185
        k(   52) = (  -0.5000000   0.4725183   0.0000000), wk =   0.0092593
        k(   53) = (   0.3333333   0.0000000   0.1666667), wk =   0.0370370
        k(   54) = (  -0.5000000   0.0000000   0.1666667), wk =   0.0185185
        k(   55) = (   0.3333333  -0.1575061   0.1666667), wk =   0.0740741
        k(   56) = (  -0.5000000  -0.1575061   0.1666667), wk =   0.0370370
        k(   57) = (   0.3333333  -0.3150122   0.1666667), wk =   0.0740741
        k(   58) = (  -0.5000000  -0.3150122   0.1666667), wk =   0.0370370
        k(   59) = (   0.3333333   0.4725183   0.1666667), wk =   0.0370370
        k(   60) = (  -0.5000000   0.4725183   0.1666667), wk =   0.0185185
        k(   61) = (  -0.5000000   0.0000000   0.3333333), wk =   0.0185185
        k(   62) = (  -0.5000000  -0.1575061   0.3333333), wk =   0.0370370
        k(   63) = (  -0.5000000  -0.3150122   0.3333333), wk =   0.0370370
        k(   64) = (  -0.5000000   0.4725183   0.3333333), wk =   0.0185185

     Initial potential from superposition of free atoms

     starting charge  367.99656, renormalised to  368.00000
     Starting wfcs are  232 randomized atomic wfcs

     Self-consistent Calculation

     iteration #  1     ecut=   120.00 Ry     beta= 0.70
     Davidson diagonalization with overlap
     ethr =  1.00E-02,  avg # of iterations =  5.1

     total energy              =   -6253.49260758 Ry
     Harris-Foulkes estimate   =   -6264.42023954 Ry
[...]
End final coordinates

     Writing output data file Landau_38.save/

     Final scf calculation at the relaxed structure.
     The G-vectors are recalculated for the final unit cell
     Results may differ from those at the preceding step.

     bravais-lattice index     =            0
     lattice parameter (alat)  =      13.8397  a.u.
     unit-cell volume          =    2801.1042 (a.u.)^3
     number of atoms/cell      =           32
     number of atomic types    =            2
     number of electrons       =       368.00
     number of Kohn-Sham states=          221
     kinetic-energy cutoff     =     120.0000  Ry
     charge density cutoff     =     480.0000  Ry
     convergence threshold     =      1.0E-10
     mixing beta               =       0.7000
     number of iterations used =            8  plain     mixing
     Exchange-correlation      = SLA PW NOGX NOGC ( 1  4  0  0 0 0)

     celldm(1)=  13.839685  celldm(2)=   0.000000  celldm(3)=   0.000000
     celldm(4)=   0.000000  celldm(5)=   0.000000  celldm(6)=   0.000000

     crystal axes: (cart. coord. in units of alat)
               a(1) = (   1.019169   0.000000   0.000000 )
               a(2) = (   0.000000   1.024841   0.000000 )
               a(3) = (   0.000000   0.000000   1.011691 )

     reciprocal axes: (cart. coord. in units 2 pi/alat)
               b(1) = (  0.981192  0.000000  0.000000 )
               b(2) = (  0.000000  0.975761  0.000000 )
               b(3) = (  0.000000  0.000000  0.988444 )

     PseudoPot. # 1 for W  read from file:
     /cluster/scratch/mnoe/QE/pps/W_ONCV_LDA-4.0.upf
     MD5 check sum: ba0307d5d4cd419d6f1d13dc49d7c13a
     Pseudo is Norm-conserving + core correction, Zval = 28.0
     Generated using ONCVPSP code by D. R. Hamann
     Using radial grid of 1380 points,  8 beta functions with:
                l(1) =   0
                l(2) =   0
                l(3) =   1
                l(4) =   1
                l(5) =   2
                l(6) =   2
                l(7) =   3
                l(8) =   3

     PseudoPot. # 2 for O  read from file:
     /cluster/scratch/mnoe/QE/pps/O_ONCV_LDA-3.0.upf
     MD5 check sum: b55cdb4f45ae2203d24ad12cf8d61a31
     Pseudo is Norm-conserving + core correction, Zval =  6.0
     Generated using ONCVPSP code by D. R. Hamann
     Using radial grid of  926 points,  5 beta functions with:
                l(1) =   0
                l(2) =   0
                l(3) =   1
                l(4) =   1
                l(5) =   2

     atomic species   valence    mass     pseudopotential
        W             28.00   183.84000     W ( 1.00)
        O              6.00    15.99940     O ( 1.00)

      8 Sym. Ops., with inversion, found ( 6 have fractional translation)

   Cartesian axes

     site n.     atom                  positions (alat units)
         1           W   tau(   1) = (   0.2368854   0.3020871   0.0167941  )
         2           W   tau(   2) = (   0.7822834   0.7227542   0.9948969  )
         3           W   tau(   3) = (   0.2726990   0.2103335   0.5226396  )
         4           W   tau(   4) = (   0.7464698   0.8145078   0.4890514  )
         5           W   tau(   5) = (   0.7822834   0.3020871   0.4890514  )
         6           W   tau(   6) = (   0.2368854   0.7227542   0.5226396  )
         7           W   tau(   7) = (   0.7464698   0.2103335   0.9948969  )
         8           W   tau(   8) = (   0.2726990   0.8145078   0.0167941  )
         9           O   tau(   9) = (   0.2217507   0.0335521   0.0052203  )
        10           O   tau(  10) = (   0.7974180   0.9912893   1.0064707  )
        11           O   tau(  11) = (   0.2878336   0.4788686   0.5110658  )
        12           O   tau(  12) = (   0.7313351   0.5459727   0.5006252  )
        13           O   tau(  13) = (   0.7974180   0.0335521   0.5006252  )
        14           O   tau(  14) = (   0.2217507   0.9912893   0.5110658  )
        15           O   tau(  15) = (   0.7313351   0.4788686   1.0064707  )
        16           O   tau(  16) = (   0.2878336   0.5459727   0.0052203  )
        17           O   tau(  17) = (   0.5144764   0.2221241   0.5222768  )
        18           O   tau(  18) = (   0.5046924   0.8027172   0.4894142  )
        19           O   tau(  19) = (   1.0142767   0.2902965   1.0281223  )
        20           O   tau(  20) = (   0.0048921   0.7345448  -0.0164313  )
        21           O   tau(  21) = (   0.5046924   0.2221241  -0.0164313  )
        22           O   tau(  22) = (   0.5144764   0.8027172   1.0281223  )
        23           O   tau(  23) = (   0.0048921   0.2902965   0.4894142  )
        24           O   tau(  24) = (   1.0142767   0.7345448   0.5222768  )
        25           O   tau(  25) = (   0.7809294   0.2487700   0.7513930  )
        26           O   tau(  26) = (   0.2382395   0.7760713   0.2602980  )
        27           O   tau(  27) = (   0.7478238   0.2636507   0.2455475  )
        28           O   tau(  28) = (   0.2713450   0.7611907   0.7661435  )
        29           O   tau(  29) = (   0.2382395   0.2487700   0.7661435  )
        30           O   tau(  30) = (   0.7809294   0.7760713   0.2455475  )
        31           O   tau(  31) = (   0.2713450   0.2636507   0.2602980  )
        32           O   tau(  32) = (   0.7478238   0.7611907   0.7513930  )

     number of k points=    64  gaussian smearing, width (Ry)=  0.0007
                       cart. coord. in units 2pi/alat
        k(    1) = (   0.0000000   0.0000000   0.0000000), wk =   0.0092593
        k(    2) = (   0.0000000   0.0000000   0.1647407), wk =   0.0185185
        k(    3) = (   0.0000000   0.0000000   0.3294814), wk =   0.0185185
        k(    4) = (   0.0000000   0.0000000  -0.4942221), wk =   0.0092593
        k(    5) = (   0.0000000   0.1626268   0.0000000), wk =   0.0185185
        k(    6) = (   0.0000000   0.1626268   0.1647407), wk =   0.0370370
        k(    7) = (   0.0000000   0.1626268   0.3294814), wk =   0.0370370
        k(    8) = (   0.0000000   0.1626268  -0.4942221), wk =   0.0185185
        k(    9) = (   0.0000000   0.3252536   0.0000000), wk =   0.0185185
        k(   10) = (   0.0000000   0.3252536   0.1647407), wk =   0.0370370
        k(   11) = (   0.0000000   0.3252536   0.3294814), wk =   0.0370370
        k(   12) = (   0.0000000   0.3252536  -0.4942221), wk =   0.0185185
        k(   13) = (   0.0000000  -0.4878804   0.0000000), wk =   0.0092593
        k(   14) = (   0.0000000  -0.4878804   0.1647407), wk =   0.0185185
        k(   15) = (   0.0000000  -0.4878804   0.3294814), wk =   0.0185185
        k(   16) = (   0.0000000  -0.4878804  -0.4942221), wk =   0.0092593
        k(   17) = (   0.1635320   0.0000000   0.1647407), wk =   0.0370370
        k(   18) = (   0.1635320   0.0000000   0.3294814), wk =   0.0370370
        k(   19) = (   0.1635320   0.0000000  -0.4942221), wk =   0.0185185
        k(   20) = (   0.1635320   0.1626268   0.1647407), wk =   0.0740741
        k(   21) = (   0.1635320   0.1626268   0.3294814), wk =   0.0740741
        k(   22) = (   0.1635320   0.1626268  -0.4942221), wk =   0.0370370
        k(   23) = (   0.1635320   0.3252536   0.1647407), wk =   0.0740741
        k(   24) = (   0.1635320   0.3252536   0.3294814), wk =   0.0740741
        k(   25) = (   0.1635320   0.3252536  -0.4942221), wk =   0.0370370
        k(   26) = (   0.1635320  -0.4878804   0.1647407), wk =   0.0370370
        k(   27) = (   0.1635320  -0.4878804   0.3294814), wk =   0.0370370
        k(   28) = (   0.1635320  -0.4878804  -0.4942221), wk =   0.0185185
        k(   29) = (   0.3270639   0.0000000   0.3294814), wk =   0.0370370
        k(   30) = (   0.3270639   0.0000000  -0.4942221), wk =   0.0185185
        k(   31) = (   0.3270639   0.1626268   0.3294814), wk =   0.0740741
        k(   32) = (   0.3270639   0.1626268  -0.4942221), wk =   0.0370370
        k(   33) = (   0.3270639   0.3252536   0.3294814), wk =   0.0740741
        k(   34) = (   0.3270639   0.3252536  -0.4942221), wk =   0.0370370
        k(   35) = (   0.3270639  -0.4878804   0.3294814), wk =   0.0370370
        k(   36) = (   0.3270639  -0.4878804  -0.4942221), wk =   0.0185185
        k(   37) = (  -0.4905959   0.0000000  -0.4942221), wk =   0.0092593
        k(   38) = (  -0.4905959   0.1626268  -0.4942221), wk =   0.0185185
        k(   39) = (  -0.4905959   0.3252536  -0.4942221), wk =   0.0185185
        k(   40) = (  -0.4905959  -0.4878804  -0.4942221), wk =   0.0092593
        k(   41) = (   0.1635320   0.0000000   0.0000000), wk =   0.0185185
        k(   42) = (   0.3270639   0.0000000   0.0000000), wk =   0.0185185
        k(   43) = (  -0.4905959   0.0000000   0.0000000), wk =   0.0092593
        k(   44) = (   0.1635320  -0.1626268   0.0000000), wk =   0.0370370
        k(   45) = (   0.3270639  -0.1626268   0.0000000), wk =   0.0370370
        k(   46) = (  -0.4905959  -0.1626268   0.0000000), wk =   0.0185185
        k(   47) = (   0.1635320  -0.3252536   0.0000000), wk =   0.0370370
        k(   48) = (   0.3270639  -0.3252536   0.0000000), wk =   0.0370370
        k(   49) = (  -0.4905959  -0.3252536   0.0000000), wk =   0.0185185
        k(   50) = (   0.1635320   0.4878804   0.0000000), wk =   0.0185185
        k(   51) = (   0.3270639   0.4878804   0.0000000), wk =   0.0185185
        k(   52) = (  -0.4905959   0.4878804   0.0000000), wk =   0.0092593
        k(   53) = (   0.3270639   0.0000000   0.1647407), wk =   0.0370370
        k(   54) = (  -0.4905959   0.0000000   0.1647407), wk =   0.0185185
        k(   55) = (   0.3270639  -0.1626268   0.1647407), wk =   0.0740741
        k(   56) = (  -0.4905959  -0.1626268   0.1647407), wk =   0.0370370
        k(   57) = (   0.3270639  -0.3252536   0.1647407), wk =   0.0740741
        k(   58) = (  -0.4905959  -0.3252536   0.1647407), wk =   0.0370370
        k(   59) = (   0.3270639   0.4878804   0.1647407), wk =   0.0370370
        k(   60) = (  -0.4905959   0.4878804   0.1647407), wk =   0.0185185
        k(   61) = (  -0.4905959   0.0000000   0.3294814), wk =   0.0185185
        k(   62) = (  -0.4905959  -0.1626268   0.3294814), wk =   0.0370370
        k(   63) = (  -0.4905959  -0.3252536   0.3294814), wk =   0.0370370
        k(   64) = (  -0.4905959   0.4878804   0.3294814), wk =   0.0185185

     Initial potential from superposition of free atoms

     starting charge  367.99656, renormalised to  368.00000
     Starting wfcs are  232 randomized atomic wfcs

     Self-consistent Calculation

[...]

     total energy              =   -6260.94826633 Ry
     Harris-Foulkes estimate   =   -6260.94826633 Ry
     estimated scf accuracy    <          1.2E-10 Ry

     iteration # 15     ecut=   120.00 Ry     beta= 0.70
     Davidson diagonalization with overlap
     ethr =  1.00E-13,  avg # of iterations =  1.0

     End of self-consistent calculation

[...]

          k = 0.3271 0.4879 0.1647 ( 62172 PWs)   bands (ev):

[...]

          k =-0.4906 0.4879 0.3295 ( 62164 PWs)   bands (ev):

   -66.1191 -66.1191 -66.1191 -66.1191 -66.1188 -66.1188 -66.1188 -66.1187
   -30.4899 -30.4899 -30.4894 -30.4894 -30.4869 -30.4868 -30.4863 -30.4863
   -30.4447 -30.4447 -30.4444 -30.4444 -30.4095 -30.4095 -30.4093 -30.4093
   -30.3820 -30.3820 -30.3807 -30.3807 -30.3779 -30.3779 -30.3768 -30.3768
   -20.2996 -20.2996 -20.2996 -20.2996 -20.2988 -20.2988 -20.2988 -20.2988
   -20.2899 -20.2899 -20.2899 -20.2899 -20.2897 -20.2896 -20.2896 -20.2896
   -20.2661 -20.2661 -20.2661 -20.2661 -20.2657 -20.2656 -20.2656 -20.2656
   -20.2584 -20.2584 -20.2583 -20.2583 -20.2581 -20.2581 -20.2581 -20.2581
   -20.2381 -20.2381 -20.2381 -20.2381 -20.2374 -20.2374 -20.2374 -20.2373
   -20.2315 -20.2315 -20.2314 -20.2314 -20.2310 -20.2310 -20.2310 -20.2310
   -20.2220 -20.2220 -20.2219 -20.2219 -20.2214 -20.2214 -20.2214 -20.2214
    -9.1806  -9.1806  -9.1505  -9.1505  -8.8404  -8.8404  -8.7714  -8.7714
    -8.4610  -8.4610  -8.4174  -8.4174  -8.2850  -8.2850  -8.2455  -8.2455
    -8.2022  -8.2022  -8.1635  -8.1635  -8.0348  -8.0348  -8.0313  -8.0313
     2.2499   2.2499   2.2631   2.2631   2.8805   2.8805   2.9388   2.9388
     2.9900   2.9900   3.0200   3.0200   3.1829   3.1829   3.2540   3.2540
     3.3920   3.3920   3.5030   3.5030   3.5769   3.5769   3.5979   3.5980
     3.8478   3.8478   4.0382   4.0382   4.4029   4.4029   4.4661   4.4661
     4.4956   4.4956   4.5468   4.5468   4.6268   4.6268   4.6655   4.6655
     4.8094   4.8094   5.0014   5.0014   5.0892   5.0892   5.1278   5.1278
     7.1406   7.1406   7.1488   7.1488   7.2173   7.2173   7.3097   7.3097
     7.3967   7.3967   7.4499   7.4499   7.5470   7.5470   7.6120   7.6120
     7.7522   7.7522   7.7781   7.7781   7.8092   7.8092   7.8607   7.8607
    11.4954  11.4954  11.6053  11.6053  11.7558  11.7558  11.9041  11.9041
    12.1869  12.1869  12.3268  12.3268  12.4186  12.4186  12.4743  12.4743
    12.6719  12.6719  12.7409  12.7409  12.9063  12.9063  13.0012  13.0012
    16.1243  16.1243  16.1878  16.1878  16.6991  16.6991  16.9134  16.9134
    17.1340  17.1340  17.1811  17.1811  17.4559

     the Fermi energy is     8.9068 ev

!    total energy              =   -6260.94826633 Ry
     Harris-Foulkes estimate   =   -6260.94826633 Ry
     estimated scf accuracy    <          1.1E-11 Ry

     The total energy is the sum of the following terms:

     one-electron contribution =   -4709.00301751 Ry
     hartree contribution      =    2592.12704611 Ry
     xc contribution           =    -965.69128810 Ry
     ewald contribution        =   -3178.38100684 Ry
     smearing contrib. (-TS)   =      -0.00000000 Ry

     convergence has been achieved in  15 iterations

     Forces acting on atoms (cartesian axes, Ry/au):

     atom    1 type  1   force =     0.01789651    0.01569233    0.00327190
     atom    2 type  1   force =    -0.01789651   -0.01569233   -0.00327190
     atom    3 type  1   force =    -0.01789651   -0.01569233    0.00327190
     atom    4 type  1   force =     0.01789651    0.01569233   -0.00327190
     atom    5 type  1   force =    -0.01789651    0.01569233   -0.00327190
     atom    6 type  1   force =     0.01789651   -0.01569233    0.00327190
     atom    7 type  1   force =     0.01789651   -0.01569233   -0.00327190
     atom    8 type  1   force =    -0.01789651    0.01569233    0.00327190
     atom    9 type  2   force =     0.01318744   -0.11297581    0.00509092
     atom   10 type  2   force =    -0.01318744    0.11297581   -0.00509092
     atom   11 type  2   force =    -0.01318744    0.11297581    0.00509092
     atom   12 type  2   force =     0.01318744   -0.11297581   -0.00509092
     atom   13 type  2   force =    -0.01318744   -0.11297581   -0.00509092
     atom   14 type  2   force =     0.01318744    0.11297581    0.00509092
     atom   15 type  2   force =     0.01318744    0.11297581   -0.00509092
     atom   16 type  2   force =    -0.01318744   -0.11297581    0.00509092
     atom   17 type  2   force =     0.01244668   -0.01059906    0.00145445
     atom   18 type  2   force =    -0.01244668    0.01059906   -0.00145445
     atom   19 type  2   force =    -0.01244668    0.01059906    0.00145445
     atom   20 type  2   force =     0.01244668   -0.01059906   -0.00145445
     atom   21 type  2   force =    -0.01244668   -0.01059906   -0.00145445
     atom   22 type  2   force =     0.01244668    0.01059906    0.00145445
     atom   23 type  2   force =     0.01244668    0.01059906   -0.00145445
     atom   24 type  2   force =    -0.01244668   -0.01059906    0.00145445
     atom   25 type  2   force =    -0.00245341    0.00836934    0.01398823
     atom   26 type  2   force =     0.00245341   -0.00836934   -0.01398823
     atom   27 type  2   force =     0.00245341   -0.00836934    0.01398823
     atom   28 type  2   force =    -0.00245341    0.00836934   -0.01398823
     atom   29 type  2   force =     0.00245341    0.00836934   -0.01398823
     atom   30 type  2   force =    -0.00245341   -0.00836934    0.01398823
     atom   31 type  2   force =    -0.00245341   -0.00836934   -0.01398823
     atom   32 type  2   force =     0.00245341    0.00836934    0.01398823

     Total force =     0.000000     Total SCF correction =     0.000000

     Computing stress (Cartesian axis) and pressure

          total   stress  (Ry/bohr**3)                   (kbar)     P=    0.55
   0.00000804   0.00000000   0.00000000          1.18      0.00      0.00
   0.00000000  -0.00000162   0.00000000          0.00     -0.24      0.00
   0.00000000   0.00000000   0.00000483          0.00      0.00      0.71

     Writing output data file Landau_38.save/

     General routines

     Parallel routines

   This run was terminated on:   2:14: 9  21Nov2019

   JOB DONE.