     Program PWSCF v.6.4.1 starts on 20Nov2019 at 23:10: 5

     K-points division:     npool     =      64
     Reading input from rscf.in

     Current dimensions of program PWSCF are:
     Max number of different atomic species (ntypx) = 10
     Max number of k-points (npk) =  40000
     Max angular momentum in pseudopotentials (lmaxx) =  3

     Subspace diagonalization in iterative solution of the eigenvalue problem:
     a serial algorithm will be used

     Message from routine setup:
     using ibrav=0 with symmetry is DISCOURAGED, use correct ibrav instead

     bravais-lattice index     =            0
     lattice parameter (alat)  =      13.8397  a.u.
     unit-cell volume          =    2804.9816 (a.u.)^3
     number of atoms/cell      =           32
     number of atomic types    =            2
     number of electrons       =       368.00
     number of Kohn-Sham states=          221
     kinetic-energy cutoff     =     120.0000  Ry
     charge density cutoff     =     480.0000  Ry
     convergence threshold     =      1.0E-08
     mixing beta               =       0.7000
     number of iterations used =            8  plain     mixing
     Exchange-correlation      = SLA PW NOGX NOGC ( 1  4  0  0 0 0)
     nstep                     =           50

     celldm(1)=  13.839685  celldm(2)=   0.000000  celldm(3)=   0.000000
     celldm(4)=   0.000000  celldm(5)=   0.000000  celldm(6)=   0.000000

     crystal axes: (cart. coord. in units of alat)
               a(1) = (   1.000000   0.000000   0.000000 )
               a(2) = (   0.000000   1.058160   0.000000 )
               a(3) = (   0.000000   0.000000   1.000000 )

     reciprocal axes: (cart. coord. in units 2 pi/alat)
               b(1) = (  1.000000  0.000000  0.000000 )
               b(2) = (  0.000000  0.945037  0.000000 )
               b(3) = (  0.000000  0.000000  1.000000 )

     PseudoPot. # 1 for W  read from file:
     /cluster/scratch/mnoe/QE/pps/W_ONCV_LDA-4.0.upf
     MD5 check sum: ba0307d5d4cd419d6f1d13dc49d7c13a
     Pseudo is Norm-conserving + core correction, Zval = 28.0
     Generated using ONCVPSP code by D. R. Hamann
     Using radial grid of 1380 points,  8 beta functions with:
                l(1) =   0
                l(2) =   0
                l(3) =   1
                l(4) =   1
                l(5) =   2
                l(6) =   2
                l(7) =   3
                l(8) =   3

     PseudoPot. # 2 for O  read from file:
     /cluster/scratch/mnoe/QE/pps/O_ONCV_LDA-3.0.upf
     MD5 check sum: b55cdb4f45ae2203d24ad12cf8d61a31
     Pseudo is Norm-conserving + core correction, Zval =  6.0
     Generated using ONCVPSP code by D. R. Hamann
     Using radial grid of  926 points,  5 beta functions with:
                l(1) =   0
                l(2) =   0
                l(3) =   1
                l(4) =   1
                l(5) =   2

     atomic species   valence    mass     pseudopotential
        W             28.00   183.84000     W ( 1.00)
        O              6.00    15.99940     O ( 1.00)

      8 Sym. Ops., with inversion, found ( 6 have fractional translation)

   Cartesian axes

     site n.     atom                  positions (alat units)
         1           W   tau(   1) = (   0.2426000   0.3040026   0.0069900  )
         2           W   tau(   2) = (   0.7574000   0.7541575   0.9930100  )
         3           W   tau(   3) = (   0.2574000   0.2250774   0.5069900  )
         4           W   tau(   4) = (   0.7426000   0.8330826   0.4930100  )
         5           W   tau(   5) = (   0.7574000   0.3040026   0.4930100  )
         6           W   tau(   6) = (   0.2426000   0.7541575   0.5069900  )
         7           W   tau(   7) = (   0.7426000   0.2250774   0.9930100  )
         8           W   tau(   8) = (   0.2574000   0.8330826   0.0069900  )
         9           O   tau(   9) = (   0.2363500   0.0196835   0.0021700  )
        10           O   tau(  10) = (   0.7636500   1.0384766   0.9978300  )
        11           O   tau(  11) = (   0.2636500   0.5093966   0.5021700  )
        12           O   tau(  12) = (   0.7363500   0.5487635   0.4978300  )
        13           O   tau(  13) = (   0.7636500   0.0196835   0.4978300  )
        14           O   tau(  14) = (   0.2363500   1.0384766   0.5021700  )
        15           O   tau(  15) = (   0.7363500   0.5093966   0.9978300  )
        16           O   tau(  16) = (   0.2636500   0.5487635   0.0021700  )
        17           O   tau(  17) = (   0.5020200   0.2497258   0.4776248  )
        18           O   tau(  18) = (   0.4979800   0.8084343   0.5223752  )
        19           O   tau(  19) = (   0.9979800   0.2793542   0.9776248  )
        20           O   tau(  20) = (   0.0020200   0.7788058   0.0223752  )
        21           O   tau(  21) = (   0.4979800   0.2497258   0.0223752  )
        22           O   tau(  22) = (   0.5020200   0.8084343   0.9776248  )
        23           O   tau(  23) = (   0.0020200   0.2793542   0.5223752  )
        24           O   tau(  24) = (   0.9979800   0.7788058   0.4776248  )
        25           O   tau(  25) = (   0.7276249   0.2613020   0.7469300  )
        26           O   tau(  26) = (   0.2723752   0.7968580   0.2530700  )
        27           O   tau(  27) = (   0.7723752   0.2677780   0.2469300  )
        28           O   tau(  28) = (   0.2276248   0.7903821   0.7530700  )
        29           O   tau(  29) = (   0.2723752   0.2613020   0.7530700  )
        30           O   tau(  30) = (   0.7276249   0.7968580   0.2469300  )
        31           O   tau(  31) = (   0.2276248   0.2677780   0.2530700  )
        32           O   tau(  32) = (   0.7723752   0.7903821   0.7469300  )

     number of k points=    64  gaussian smearing, width (Ry)=  0.0007
                       cart. coord. in units 2pi/alat
        k(    1) = (   0.0000000   0.0000000   0.0000000), wk =   0.0092593
        k(    2) = (   0.0000000   0.0000000   0.1666667), wk =   0.0185185
        k(    3) = (   0.0000000   0.0000000   0.3333333), wk =   0.0185185
        k(    4) = (   0.0000000   0.0000000  -0.5000000), wk =   0.0092593
        k(    5) = (   0.0000000   0.1575061   0.0000000), wk =   0.0185185
        k(    6) = (   0.0000000   0.1575061   0.1666667), wk =   0.0370370
        k(    7) = (   0.0000000   0.1575061   0.3333333), wk =   0.0370370
        k(    8) = (   0.0000000   0.1575061  -0.5000000), wk =   0.0185185
        k(    9) = (   0.0000000   0.3150122   0.0000000), wk =   0.0185185
        k(   10) = (   0.0000000   0.3150122   0.1666667), wk =   0.0370370
        k(   11) = (   0.0000000   0.3150122   0.3333333), wk =   0.0370370
        k(   12) = (   0.0000000   0.3150122  -0.5000000), wk =   0.0185185
        k(   13) = (   0.0000000  -0.4725183   0.0000000), wk =   0.0092593
        k(   14) = (   0.0000000  -0.4725183   0.1666667), wk =   0.0185185
        k(   15) = (   0.0000000  -0.4725183   0.3333333), wk =   0.0185185
        k(   16) = (   0.0000000  -0.4725183  -0.5000000), wk =   0.0092593
        k(   17) = (   0.1666667   0.0000000   0.1666667), wk =   0.0370370
        k(   18) = (   0.1666667   0.0000000   0.3333333), wk =   0.0370370
        k(   19) = (   0.1666667   0.0000000  -0.5000000), wk =   0.0185185
        k(   20) = (   0.1666667   0.1575061   0.1666667), wk =   0.0740741
        k(   21) = (   0.1666667   0.1575061   0.3333333), wk =   0.0740741
        k(   22) = (   0.1666667   0.1575061  -0.5000000), wk =   0.0370370
        k(   23) = (   0.1666667   0.3150122   0.1666667), wk =   0.0740741
        k(   24) = (   0.1666667   0.3150122   0.3333333), wk =   0.0740741
        k(   25) = (   0.1666667   0.3150122  -0.5000000), wk =   0.0370370
        k(   26) = (   0.1666667  -0.4725183   0.1666667), wk =   0.0370370
        k(   27) = (   0.1666667  -0.4725183   0.3333333), wk =   0.0370370
        k(   28) = (   0.1666667  -0.4725183  -0.5000000), wk =   0.0185185
        k(   29) = (   0.3333333   0.0000000   0.3333333), wk =   0.0370370
        k(   30) = (   0.3333333   0.0000000  -0.5000000), wk =   0.0185185
        k(   31) = (   0.3333333   0.1575061   0.3333333), wk =   0.0740741
        k(   32) = (   0.3333333   0.1575061  -0.5000000), wk =   0.0370370
        k(   33) = (   0.3333333   0.3150122   0.3333333), wk =   0.0740741
        k(   34) = (   0.3333333   0.3150122  -0.5000000), wk =   0.0370370
        k(   35) = (   0.3333333  -0.4725183   0.3333333), wk =   0.0370370
        k(   36) = (   0.3333333  -0.4725183  -0.5000000), wk =   0.0185185
        k(   37) = (  -0.5000000   0.0000000  -0.5000000), wk =   0.0092593
        k(   38) = (  -0.5000000   0.1575061  -0.5000000), wk =   0.0185185
        k(   39) = (  -0.5000000   0.3150122  -0.5000000), wk =   0.0185185
        k(   40) = (  -0.5000000  -0.4725183  -0.5000000), wk =   0.0092593
        k(   41) = (   0.1666667   0.0000000   0.0000000), wk =   0.0185185
        k(   42) = (   0.3333333   0.0000000   0.0000000), wk =   0.0185185
        k(   43) = (  -0.5000000   0.0000000   0.0000000), wk =   0.0092593
        k(   44) = (   0.1666667  -0.1575061   0.0000000), wk =   0.0370370
        k(   45) = (   0.3333333  -0.1575061   0.0000000), wk =   0.0370370
        k(   46) = (  -0.5000000  -0.1575061   0.0000000), wk =   0.0185185
        k(   47) = (   0.1666667  -0.3150122   0.0000000), wk =   0.0370370
        k(   48) = (   0.3333333  -0.3150122   0.0000000), wk =   0.0370370
        k(   49) = (  -0.5000000  -0.3150122   0.0000000), wk =   0.0185185
        k(   50) = (   0.1666667   0.4725183   0.0000000), wk =   0.0185185
        k(   51) = (   0.3333333   0.4725183   0.0000000), wk =   0.0185185
        k(   52) = (  -0.5000000   0.4725183   0.0000000), wk =   0.0092593
        k(   53) = (   0.3333333   0.0000000   0.1666667), wk =   0.0370370
        k(   54) = (  -0.5000000   0.0000000   0.1666667), wk =   0.0185185
        k(   55) = (   0.3333333  -0.1575061   0.1666667), wk =   0.0740741
        k(   56) = (  -0.5000000  -0.1575061   0.1666667), wk =   0.0370370
        k(   57) = (   0.3333333  -0.3150122   0.1666667), wk =   0.0740741
        k(   58) = (  -0.5000000  -0.3150122   0.1666667), wk =   0.0370370
        k(   59) = (   0.3333333   0.4725183   0.1666667), wk =   0.0370370
        k(   60) = (  -0.5000000   0.4725183   0.1666667), wk =   0.0185185
        k(   61) = (  -0.5000000   0.0000000   0.3333333), wk =   0.0185185
        k(   62) = (  -0.5000000  -0.1575061   0.3333333), wk =   0.0370370
        k(   63) = (  -0.5000000  -0.3150122   0.3333333), wk =   0.0370370
        k(   64) = (  -0.5000000   0.4725183   0.3333333), wk =   0.0185185

     Initial potential from superposition of free atoms

     starting charge  367.99656, renormalised to  368.00000
     Starting wfcs are  232 randomized atomic wfcs

     Self-consistent Calculation

     iteration #  1     ecut=   120.00 Ry     beta= 0.70
     Davidson diagonalization with overlap
     ethr =  1.00E-02,  avg # of iterations =  5.1

     total energy              =   -6253.95602850 Ry
     Harris-Foulkes estimate   =   -6264.55425977 Ry
[...]
End final coordinates

     Writing output data file Landau_16.save/

     Final scf calculation at the relaxed structure.
     The G-vectors are recalculated for the final unit cell
     Results may differ from those at the preceding step.

     bravais-lattice index     =            0
     lattice parameter (alat)  =      13.8397  a.u.
     unit-cell volume          =    2843.9777 (a.u.)^3
     number of atoms/cell      =           32
     number of atomic types    =            2
     number of electrons       =       368.00
     number of Kohn-Sham states=          221
     kinetic-energy cutoff     =     120.0000  Ry
     charge density cutoff     =     480.0000  Ry
     convergence threshold     =      1.0E-10
     mixing beta               =       0.7000
     number of iterations used =            8  plain     mixing
     Exchange-correlation      = SLA PW NOGX NOGC ( 1  4  0  0 0 0)

     celldm(1)=  13.839685  celldm(2)=   0.000000  celldm(3)=   0.000000
     celldm(4)=   0.000000  celldm(5)=   0.000000  celldm(6)=   0.000000

     crystal axes: (cart. coord. in units of alat)
               a(1) = (   1.012833   0.000000   0.000000 )
               a(2) = (   0.000000   1.045652   0.000000 )
               a(3) = (   0.000000   0.000000   1.013030 )

     reciprocal axes: (cart. coord. in units 2 pi/alat)
               b(1) = (  0.987330  0.000000  0.000000 )
               b(2) = (  0.000000  0.956341  0.000000 )
               b(3) = (  0.000000  0.000000  0.987137 )

     PseudoPot. # 1 for W  read from file:
     /cluster/scratch/mnoe/QE/pps/W_ONCV_LDA-4.0.upf
     MD5 check sum: ba0307d5d4cd419d6f1d13dc49d7c13a
     Pseudo is Norm-conserving + core correction, Zval = 28.0
     Generated using ONCVPSP code by D. R. Hamann
     Using radial grid of 1380 points,  8 beta functions with:
                l(1) =   0
                l(2) =   0
                l(3) =   1
                l(4) =   1
                l(5) =   2
                l(6) =   2
                l(7) =   3
                l(8) =   3

     PseudoPot. # 2 for O  read from file:
     /cluster/scratch/mnoe/QE/pps/O_ONCV_LDA-3.0.upf
     MD5 check sum: b55cdb4f45ae2203d24ad12cf8d61a31
     Pseudo is Norm-conserving + core correction, Zval =  6.0
     Generated using ONCVPSP code by D. R. Hamann
     Using radial grid of  926 points,  5 beta functions with:
                l(1) =   0
                l(2) =   0
                l(3) =   1
                l(4) =   1
                l(5) =   2

     atomic species   valence    mass     pseudopotential
        W             28.00   183.84000     W ( 1.00)
        O              6.00    15.99940     O ( 1.00)

      8 Sym. Ops., with inversion, found ( 6 have fractional translation)

   Cartesian axes

     site n.     atom                  positions (alat units)
         1           W   tau(   1) = (   0.2457132   0.3004092   0.0070811  )
         2           W   tau(   2) = (   0.7671196   0.7452430   1.0059494  )
         3           W   tau(   3) = (   0.2607032   0.2224169   0.5135963  )
         4           W   tau(   4) = (   0.7521296   0.8232352   0.4994342  )
         5           W   tau(   5) = (   0.7671196   0.3004092   0.4994342  )
         6           W   tau(   6) = (   0.2457132   0.7452430   0.5135963  )
         7           W   tau(   7) = (   0.7521296   0.2224169   1.0059494  )
         8           W   tau(   8) = (   0.2607032   0.8232352   0.0070811  )
         9           O   tau(   9) = (   0.2393830   0.0194508   0.0021983  )
        10           O   tau(  10) = (   0.7734498   1.0262014   1.0108321  )
        11           O   tau(  11) = (   0.2670334   0.5033753   0.5087135  )
        12           O   tau(  12) = (   0.7457995   0.5422769   0.5043170  )
        13           O   tau(  13) = (   0.7734498   0.0194508   0.5043170  )
        14           O   tau(  14) = (   0.2393830   1.0262014   0.5087135  )
        15           O   tau(  15) = (   0.7457995   0.5033753   1.0108321  )
        16           O   tau(  16) = (   0.2670334   0.5422769   0.0021983  )
        17           O   tau(  17) = (   0.5084623   0.2467739   0.4838485  )
        18           O   tau(  18) = (   0.5043705   0.7988783   0.5291820  )
        19           O   tau(  19) = (   1.0107869   0.2760522   0.9903637  )
        20           O   tau(  20) = (   0.0020459   0.7696000   0.0226668  )
        21           O   tau(  21) = (   0.5043705   0.2467739   0.0226668  )
        22           O   tau(  22) = (   0.5084623   0.7988783   0.9903637  )
        23           O   tau(  23) = (   0.0020459   0.2760522   0.5291820  )
        24           O   tau(  24) = (   1.0107869   0.7696000   0.4838485  )
        25           O   tau(  25) = (   0.7369624   0.2582133   0.7566628  )
        26           O   tau(  26) = (   0.2758705   0.7874388   0.2563676  )
        27           O   tau(  27) = (   0.7822869   0.2646127   0.2501476  )
        28           O   tau(  28) = (   0.2305459   0.7810395   0.7628829  )
        29           O   tau(  29) = (   0.2758705   0.2582133   0.7628829  )
        30           O   tau(  30) = (   0.7369624   0.7874388   0.2501476  )
        31           O   tau(  31) = (   0.2305459   0.2646127   0.2563676  )
        32           O   tau(  32) = (   0.7822869   0.7810395   0.7566628  )

     number of k points=    64  gaussian smearing, width (Ry)=  0.0007
                       cart. coord. in units 2pi/alat
        k(    1) = (   0.0000000   0.0000000   0.0000000), wk =   0.0092593
        k(    2) = (   0.0000000   0.0000000   0.1645229), wk =   0.0185185
        k(    3) = (   0.0000000   0.0000000   0.3290457), wk =   0.0185185
        k(    4) = (   0.0000000   0.0000000  -0.4935686), wk =   0.0092593
        k(    5) = (   0.0000000   0.1593902   0.0000000), wk =   0.0185185
        k(    6) = (   0.0000000   0.1593902   0.1645229), wk =   0.0370370
        k(    7) = (   0.0000000   0.1593902   0.3290457), wk =   0.0370370
        k(    8) = (   0.0000000   0.1593902  -0.4935686), wk =   0.0185185
        k(    9) = (   0.0000000   0.3187803   0.0000000), wk =   0.0185185
        k(   10) = (   0.0000000   0.3187803   0.1645229), wk =   0.0370370
        k(   11) = (   0.0000000   0.3187803   0.3290457), wk =   0.0370370
        k(   12) = (   0.0000000   0.3187803  -0.4935686), wk =   0.0185185
        k(   13) = (   0.0000000  -0.4781705   0.0000000), wk =   0.0092593
        k(   14) = (   0.0000000  -0.4781705   0.1645229), wk =   0.0185185
        k(   15) = (   0.0000000  -0.4781705   0.3290457), wk =   0.0185185
        k(   16) = (   0.0000000  -0.4781705  -0.4935686), wk =   0.0092593
        k(   17) = (   0.1645550   0.0000000   0.1645229), wk =   0.0370370
        k(   18) = (   0.1645550   0.0000000   0.3290457), wk =   0.0370370
        k(   19) = (   0.1645550   0.0000000  -0.4935686), wk =   0.0185185
        k(   20) = (   0.1645550   0.1593902   0.1645229), wk =   0.0740741
        k(   21) = (   0.1645550   0.1593902   0.3290457), wk =   0.0740741
        k(   22) = (   0.1645550   0.1593902  -0.4935686), wk =   0.0370370
        k(   23) = (   0.1645550   0.3187803   0.1645229), wk =   0.0740741
        k(   24) = (   0.1645550   0.3187803   0.3290457), wk =   0.0740741
        k(   25) = (   0.1645550   0.3187803  -0.4935686), wk =   0.0370370
        k(   26) = (   0.1645550  -0.4781705   0.1645229), wk =   0.0370370
        k(   27) = (   0.1645550  -0.4781705   0.3290457), wk =   0.0370370
        k(   28) = (   0.1645550  -0.4781705  -0.4935686), wk =   0.0185185
        k(   29) = (   0.3291099   0.0000000   0.3290457), wk =   0.0370370
        k(   30) = (   0.3291099   0.0000000  -0.4935686), wk =   0.0185185
        k(   31) = (   0.3291099   0.1593902   0.3290457), wk =   0.0740741
        k(   32) = (   0.3291099   0.1593902  -0.4935686), wk =   0.0370370
        k(   33) = (   0.3291099   0.3187803   0.3290457), wk =   0.0740741
        k(   34) = (   0.3291099   0.3187803  -0.4935686), wk =   0.0370370
        k(   35) = (   0.3291099  -0.4781705   0.3290457), wk =   0.0370370
        k(   36) = (   0.3291099  -0.4781705  -0.4935686), wk =   0.0185185
        k(   37) = (  -0.4936649   0.0000000  -0.4935686), wk =   0.0092593
        k(   38) = (  -0.4936649   0.1593902  -0.4935686), wk =   0.0185185
        k(   39) = (  -0.4936649   0.3187803  -0.4935686), wk =   0.0185185
        k(   40) = (  -0.4936649  -0.4781705  -0.4935686), wk =   0.0092593
        k(   41) = (   0.1645550   0.0000000   0.0000000), wk =   0.0185185
        k(   42) = (   0.3291099   0.0000000   0.0000000), wk =   0.0185185
        k(   43) = (  -0.4936649   0.0000000   0.0000000), wk =   0.0092593
        k(   44) = (   0.1645550  -0.1593902   0.0000000), wk =   0.0370370
        k(   45) = (   0.3291099  -0.1593902   0.0000000), wk =   0.0370370
        k(   46) = (  -0.4936649  -0.1593902   0.0000000), wk =   0.0185185
        k(   47) = (   0.1645550  -0.3187803   0.0000000), wk =   0.0370370
        k(   48) = (   0.3291099  -0.3187803   0.0000000), wk =   0.0370370
        k(   49) = (  -0.4936649  -0.3187803   0.0000000), wk =   0.0185185
        k(   50) = (   0.1645550   0.4781705   0.0000000), wk =   0.0185185
        k(   51) = (   0.3291099   0.4781705   0.0000000), wk =   0.0185185
        k(   52) = (  -0.4936649   0.4781705   0.0000000), wk =   0.0092593
        k(   53) = (   0.3291099   0.0000000   0.1645229), wk =   0.0370370
        k(   54) = (  -0.4936649   0.0000000   0.1645229), wk =   0.0185185
        k(   55) = (   0.3291099  -0.1593902   0.1645229), wk =   0.0740741
        k(   56) = (  -0.4936649  -0.1593902   0.1645229), wk =   0.0370370
        k(   57) = (   0.3291099  -0.3187803   0.1645229), wk =   0.0740741
        k(   58) = (  -0.4936649  -0.3187803   0.1645229), wk =   0.0370370
        k(   59) = (   0.3291099   0.4781705   0.1645229), wk =   0.0370370
        k(   60) = (  -0.4936649   0.4781705   0.1645229), wk =   0.0185185
        k(   61) = (  -0.4936649   0.0000000   0.3290457), wk =   0.0185185
        k(   62) = (  -0.4936649  -0.1593902   0.3290457), wk =   0.0370370
        k(   63) = (  -0.4936649  -0.3187803   0.3290457), wk =   0.0370370
        k(   64) = (  -0.4936649   0.4781705   0.3290457), wk =   0.0185185

     Initial potential from superposition of free atoms

     starting charge  367.99656, renormalised to  368.00000
     Starting wfcs are  232 randomized atomic wfcs

     Self-consistent Calculation

[...]

     total energy              =   -6261.07791043 Ry
     Harris-Foulkes estimate   =   -6261.07791043 Ry
     estimated scf accuracy    <          5.0E-10 Ry

     iteration # 15     ecut=   120.00 Ry     beta= 0.70
     Davidson diagonalization with overlap
     ethr =  1.35E-13,  avg # of iterations =  2.0

     End of self-consistent calculation

[...]

          k = 0.3291 0.4782 0.1645 ( 63124 PWs)   bands (ev):

[...]

          k =-0.4937 0.4782 0.3290 ( 63100 PWs)   bands (ev):

   -66.3980 -66.3980 -66.3980 -66.3980 -66.3977 -66.3977 -66.3977 -66.3977
   -30.7314 -30.7314 -30.7306 -30.7306 -30.7267 -30.7267 -30.7253 -30.7253
   -30.7174 -30.7174 -30.7168 -30.7168 -30.6977 -30.6977 -30.6965 -30.6965
   -30.6943 -30.6943 -30.6927 -30.6927 -30.6740 -30.6740 -30.6738 -30.6738
   -20.5644 -20.5644 -20.5644 -20.5643 -20.5640 -20.5640 -20.5640 -20.5640
   -20.5497 -20.5497 -20.5497 -20.5497 -20.5491 -20.5491 -20.5491 -20.5491
   -20.5450 -20.5450 -20.5450 -20.5450 -20.5438 -20.5438 -20.5438 -20.5438
   -20.5328 -20.5328 -20.5327 -20.5327 -20.5324 -20.5323 -20.5323 -20.5322
   -20.5311 -20.5311 -20.5310 -20.5310 -20.5306 -20.5306 -20.5305 -20.5305
   -20.5255 -20.5255 -20.5254 -20.5254 -20.5246 -20.5246 -20.5245 -20.5245
   -20.5206 -20.5206 -20.5206 -20.5206 -20.5198 -20.5198 -20.5198 -20.5198
    -9.4024  -9.4024  -9.3934  -9.3934  -9.0345  -9.0345  -9.0114  -9.0114
    -8.7408  -8.7408  -8.7224  -8.7224  -8.5664  -8.5664  -8.5531  -8.5531
    -8.5283  -8.5283  -8.5194  -8.5194  -8.3161  -8.3161  -8.3153  -8.3153
     1.9973   1.9973   2.0059   2.0059   2.7341   2.7341   2.7740   2.7740
     2.8056   2.8056   2.8210   2.8211   2.9802   2.9802   3.0135   3.0135
     3.1292   3.1293   3.1975   3.1975   3.3614   3.3614   3.3711   3.3711
     3.5512   3.5512   3.6356   3.6356   4.1393   4.1393   4.1423   4.1423
     4.1840   4.1840   4.2203   4.2203   4.3037   4.3037   4.3721   4.3721
     4.5160   4.5160   4.6144   4.6144   4.8122   4.8122   4.8204   4.8204
     6.8606   6.8606   6.9369   6.9369   6.9761   6.9761   6.9806   6.9806
     7.0887   7.0887   7.1559   7.1559   7.2104   7.2104   7.2534   7.2534
     7.3200   7.3200   7.3887   7.3887   7.4876   7.4876   7.5238   7.5238
    11.2001  11.2001  11.2266  11.2266  11.5056  11.5056  11.5704  11.5704
    11.9830  11.9830  12.0692  12.0692  12.1274  12.1274  12.1679  12.1679
    12.2757  12.2757  12.3984  12.3984  12.7345  12.7345  12.7933  12.7933
    16.1131  16.1131  16.1610  16.1610  16.7095  16.7095  16.7781  16.7781
    17.1019  17.1019  17.1983  17.1983  17.2712

     the Fermi energy is     8.6769 ev

!    total energy              =   -6261.07791043 Ry
     Harris-Foulkes estimate   =   -6261.07791043 Ry
     estimated scf accuracy    <          2.0E-11 Ry

     The total energy is the sum of the following terms:

     one-electron contribution =   -4778.77105568 Ry
     hartree contribution      =    2623.23648764 Ry
     xc contribution           =    -965.70324499 Ry
     ewald contribution        =   -3139.84009739 Ry
     smearing contrib. (-TS)   =      -0.00000000 Ry

     convergence has been achieved in  15 iterations

     Forces acting on atoms (cartesian axes, Ry/au):

     atom    1 type  1   force =    -0.00279460    0.00739527    0.00417628
     atom    2 type  1   force =     0.00279460   -0.00739527   -0.00417628
     atom    3 type  1   force =     0.00279460   -0.00739527    0.00417628
     atom    4 type  1   force =    -0.00279460    0.00739527   -0.00417628
     atom    5 type  1   force =     0.00279460    0.00739527   -0.00417628
     atom    6 type  1   force =    -0.00279460   -0.00739527    0.00417628
     atom    7 type  1   force =    -0.00279460   -0.00739527   -0.00417628
     atom    8 type  1   force =     0.00279460    0.00739527    0.00417628
     atom    9 type  2   force =     0.00158374   -0.04717044    0.00074864
     atom   10 type  2   force =    -0.00158374    0.04717044   -0.00074864
     atom   11 type  2   force =    -0.00158374    0.04717044    0.00074864
     atom   12 type  2   force =     0.00158374   -0.04717044   -0.00074864
     atom   13 type  2   force =    -0.00158374   -0.04717044   -0.00074864
     atom   14 type  2   force =     0.00158374    0.04717044    0.00074864
     atom   15 type  2   force =     0.00158374    0.04717044   -0.00074864
     atom   16 type  2   force =    -0.00158374   -0.04717044    0.00074864
     atom   17 type  2   force =    -0.00058051   -0.00278049   -0.00152887
     atom   18 type  2   force =     0.00058051    0.00278049    0.00152887
     atom   19 type  2   force =     0.00058051    0.00278049   -0.00152887
     atom   20 type  2   force =    -0.00058051   -0.00278049    0.00152887
     atom   21 type  2   force =     0.00058051   -0.00278049    0.00152887
     atom   22 type  2   force =    -0.00058051    0.00278049   -0.00152887
     atom   23 type  2   force =    -0.00058051    0.00278049    0.00152887
     atom   24 type  2   force =     0.00058051   -0.00278049   -0.00152887
     atom   25 type  2   force =    -0.00207499   -0.00017891    0.00382584
     atom   26 type  2   force =     0.00207499    0.00017891   -0.00382584
     atom   27 type  2   force =     0.00207499    0.00017891    0.00382584
     atom   28 type  2   force =    -0.00207499   -0.00017891   -0.00382584
     atom   29 type  2   force =     0.00207499   -0.00017891   -0.00382584
     atom   30 type  2   force =    -0.00207499    0.00017891    0.00382584
     atom   31 type  2   force =    -0.00207499    0.00017891   -0.00382584
     atom   32 type  2   force =     0.00207499   -0.00017891    0.00382584

     Total force =     0.000000     Total SCF correction =     0.000000

     Computing stress (Cartesian axis) and pressure

          total   stress  (Ry/bohr**3)                   (kbar)     P=    0.59
   0.00000595   0.00000000   0.00000000          0.88      0.00      0.00
   0.00000000   0.00000001   0.00000000          0.00      0.00      0.00
   0.00000000   0.00000000   0.00000604          0.00      0.00      0.89

     Writing output data file Landau_16.save/

     General routines

     Parallel routines

   This run was terminated on:   1: 2: 5  21Nov2019

   JOB DONE.