     Program PWSCF v.6.4.1 starts on 20Nov2019 at 23:58:41

     K-points division:     npool     =      64
     Reading input from rscf.in

     Current dimensions of program PWSCF are:
     Max number of different atomic species (ntypx) = 10
     Max number of k-points (npk) =  40000
     Max angular momentum in pseudopotentials (lmaxx) =  3

     Subspace diagonalization in iterative solution of the eigenvalue problem:
     a serial algorithm will be used

     Message from routine setup:
     using ibrav=0 with symmetry is DISCOURAGED, use correct ibrav instead

     bravais-lattice index     =            0
     lattice parameter (alat)  =      13.8397  a.u.
     unit-cell volume          =    2804.9816 (a.u.)^3
     number of atoms/cell      =           32
     number of atomic types    =            2
     number of electrons       =       368.00
     number of Kohn-Sham states=          221
     kinetic-energy cutoff     =     120.0000  Ry
     charge density cutoff     =     480.0000  Ry
     convergence threshold     =      1.0E-08
     mixing beta               =       0.7000
     number of iterations used =            8  plain     mixing
     Exchange-correlation      = SLA PW NOGX NOGC ( 1  4  0  0 0 0)
     nstep                     =           50

     celldm(1)=  13.839685  celldm(2)=   0.000000  celldm(3)=   0.000000
     celldm(4)=   0.000000  celldm(5)=   0.000000  celldm(6)=   0.000000

     crystal axes: (cart. coord. in units of alat)
               a(1) = (   1.000000   0.000000   0.000000 )
               a(2) = (   0.000000   1.058160   0.000000 )
               a(3) = (   0.000000   0.000000   1.000000 )

     reciprocal axes: (cart. coord. in units 2 pi/alat)
               b(1) = (  1.000000  0.000000  0.000000 )
               b(2) = (  0.000000  0.945037  0.000000 )
               b(3) = (  0.000000  0.000000  1.000000 )

     PseudoPot. # 1 for W  read from file:
     /cluster/scratch/mnoe/QE/pps/W_ONCV_LDA-4.0.upf
     MD5 check sum: ba0307d5d4cd419d6f1d13dc49d7c13a
     Pseudo is Norm-conserving + core correction, Zval = 28.0
     Generated using ONCVPSP code by D. R. Hamann
     Using radial grid of 1380 points,  8 beta functions with:
                l(1) =   0
                l(2) =   0
                l(3) =   1
                l(4) =   1
                l(5) =   2
                l(6) =   2
                l(7) =   3
                l(8) =   3

     PseudoPot. # 2 for O  read from file:
     /cluster/scratch/mnoe/QE/pps/O_ONCV_LDA-3.0.upf
     MD5 check sum: b55cdb4f45ae2203d24ad12cf8d61a31
     Pseudo is Norm-conserving + core correction, Zval =  6.0
     Generated using ONCVPSP code by D. R. Hamann
     Using radial grid of  926 points,  5 beta functions with:
                l(1) =   0
                l(2) =   0
                l(3) =   1
                l(4) =   1
                l(5) =   2

     atomic species   valence    mass     pseudopotential
        W             28.00   183.84000     W ( 1.00)
        O              6.00    15.99940     O ( 1.00)

      8 Sym. Ops., with inversion, found ( 6 have fractional translation)

   Cartesian axes

     site n.     atom                  positions (alat units)
         1           W   tau(   1) = (   0.2365900   0.3086742   0.0126700  )
         2           W   tau(   2) = (   0.7634100   0.7494859   0.9873300  )
         3           W   tau(   3) = (   0.2634100   0.2204059   0.5126700  )
         4           W   tau(   4) = (   0.7365900   0.8377542   0.4873300  )
         5           W   tau(   5) = (   0.7634100   0.3086742   0.4873300  )
         6           W   tau(   6) = (   0.2365900   0.7494859   0.5126700  )
         7           W   tau(   7) = (   0.7365900   0.2204059   0.9873300  )
         8           W   tau(   8) = (   0.2634100   0.8377542   0.0126700  )
         9           O   tau(   9) = (   0.2252600   0.0285231   0.0039400  )
        10           O   tau(  10) = (   0.7747400   1.0296370   0.9960600  )
        11           O   tau(  11) = (   0.2747400   0.5005569   0.5039400  )
        12           O   tau(  12) = (   0.7252600   0.5576032   0.4960600  )
        13           O   tau(  13) = (   0.7747400   0.0285231   0.4960600  )
        14           O   tau(  14) = (   0.2252600   1.0296370   0.5039400  )
        15           O   tau(  15) = (   0.7252600   0.5005569   0.9960600  )
        16           O   tau(  16) = (   0.2747400   0.5576032   0.0039400  )
        17           O   tau(  17) = (   0.5036700   0.2376839   0.5004437  )
        18           O   tau(  18) = (   0.4963300   0.8204762   0.4995563  )
        19           O   tau(  19) = (   0.9963300   0.2913962   1.0004437  )
        20           O   tau(  20) = (   0.0036700   0.7667639  -0.0004437  )
        21           O   tau(  21) = (   0.4963300   0.2376839  -0.0004437  )
        22           O   tau(  22) = (   0.5036700   0.8204762   1.0004437  )
        23           O   tau(  23) = (   0.0036700   0.2913962   0.4995563  )
        24           O   tau(  24) = (   0.9963300   0.7667639   0.5004437  )
        25           O   tau(  25) = (   0.7504438   0.2586778   0.7444400  )
        26           O   tau(  26) = (   0.2495563   0.7994823   0.2555600  )
        27           O   tau(  27) = (   0.7495563   0.2704022   0.2444401  )
        28           O   tau(  28) = (   0.2504438   0.7877578   0.7555600  )
        29           O   tau(  29) = (   0.2495563   0.2586778   0.7555600  )
        30           O   tau(  30) = (   0.7504438   0.7994823   0.2444401  )
        31           O   tau(  31) = (   0.2504438   0.2704022   0.2555600  )
        32           O   tau(  32) = (   0.7495563   0.7877578   0.7444400  )

     number of k points=    64  gaussian smearing, width (Ry)=  0.0007
                       cart. coord. in units 2pi/alat
        k(    1) = (   0.0000000   0.0000000   0.0000000), wk =   0.0092593
        k(    2) = (   0.0000000   0.0000000   0.1666667), wk =   0.0185185
        k(    3) = (   0.0000000   0.0000000   0.3333333), wk =   0.0185185
        k(    4) = (   0.0000000   0.0000000  -0.5000000), wk =   0.0092593
        k(    5) = (   0.0000000   0.1575061   0.0000000), wk =   0.0185185
        k(    6) = (   0.0000000   0.1575061   0.1666667), wk =   0.0370370
        k(    7) = (   0.0000000   0.1575061   0.3333333), wk =   0.0370370
        k(    8) = (   0.0000000   0.1575061  -0.5000000), wk =   0.0185185
        k(    9) = (   0.0000000   0.3150122   0.0000000), wk =   0.0185185
        k(   10) = (   0.0000000   0.3150122   0.1666667), wk =   0.0370370
        k(   11) = (   0.0000000   0.3150122   0.3333333), wk =   0.0370370
        k(   12) = (   0.0000000   0.3150122  -0.5000000), wk =   0.0185185
        k(   13) = (   0.0000000  -0.4725183   0.0000000), wk =   0.0092593
        k(   14) = (   0.0000000  -0.4725183   0.1666667), wk =   0.0185185
        k(   15) = (   0.0000000  -0.4725183   0.3333333), wk =   0.0185185
        k(   16) = (   0.0000000  -0.4725183  -0.5000000), wk =   0.0092593
        k(   17) = (   0.1666667   0.0000000   0.1666667), wk =   0.0370370
        k(   18) = (   0.1666667   0.0000000   0.3333333), wk =   0.0370370
        k(   19) = (   0.1666667   0.0000000  -0.5000000), wk =   0.0185185
        k(   20) = (   0.1666667   0.1575061   0.1666667), wk =   0.0740741
        k(   21) = (   0.1666667   0.1575061   0.3333333), wk =   0.0740741
        k(   22) = (   0.1666667   0.1575061  -0.5000000), wk =   0.0370370
        k(   23) = (   0.1666667   0.3150122   0.1666667), wk =   0.0740741
        k(   24) = (   0.1666667   0.3150122   0.3333333), wk =   0.0740741
        k(   25) = (   0.1666667   0.3150122  -0.5000000), wk =   0.0370370
        k(   26) = (   0.1666667  -0.4725183   0.1666667), wk =   0.0370370
        k(   27) = (   0.1666667  -0.4725183   0.3333333), wk =   0.0370370
        k(   28) = (   0.1666667  -0.4725183  -0.5000000), wk =   0.0185185
        k(   29) = (   0.3333333   0.0000000   0.3333333), wk =   0.0370370
        k(   30) = (   0.3333333   0.0000000  -0.5000000), wk =   0.0185185
        k(   31) = (   0.3333333   0.1575061   0.3333333), wk =   0.0740741
        k(   32) = (   0.3333333   0.1575061  -0.5000000), wk =   0.0370370
        k(   33) = (   0.3333333   0.3150122   0.3333333), wk =   0.0740741
        k(   34) = (   0.3333333   0.3150122  -0.5000000), wk =   0.0370370
        k(   35) = (   0.3333333  -0.4725183   0.3333333), wk =   0.0370370
        k(   36) = (   0.3333333  -0.4725183  -0.5000000), wk =   0.0185185
        k(   37) = (  -0.5000000   0.0000000  -0.5000000), wk =   0.0092593
        k(   38) = (  -0.5000000   0.1575061  -0.5000000), wk =   0.0185185
        k(   39) = (  -0.5000000   0.3150122  -0.5000000), wk =   0.0185185
        k(   40) = (  -0.5000000  -0.4725183  -0.5000000), wk =   0.0092593
        k(   41) = (   0.1666667   0.0000000   0.0000000), wk =   0.0185185
        k(   42) = (   0.3333333   0.0000000   0.0000000), wk =   0.0185185
        k(   43) = (  -0.5000000   0.0000000   0.0000000), wk =   0.0092593
        k(   44) = (   0.1666667  -0.1575061   0.0000000), wk =   0.0370370
        k(   45) = (   0.3333333  -0.1575061   0.0000000), wk =   0.0370370
        k(   46) = (  -0.5000000  -0.1575061   0.0000000), wk =   0.0185185
        k(   47) = (   0.1666667  -0.3150122   0.0000000), wk =   0.0370370
        k(   48) = (   0.3333333  -0.3150122   0.0000000), wk =   0.0370370
        k(   49) = (  -0.5000000  -0.3150122   0.0000000), wk =   0.0185185
        k(   50) = (   0.1666667   0.4725183   0.0000000), wk =   0.0185185
        k(   51) = (   0.3333333   0.4725183   0.0000000), wk =   0.0185185
        k(   52) = (  -0.5000000   0.4725183   0.0000000), wk =   0.0092593
        k(   53) = (   0.3333333   0.0000000   0.1666667), wk =   0.0370370
        k(   54) = (  -0.5000000   0.0000000   0.1666667), wk =   0.0185185
        k(   55) = (   0.3333333  -0.1575061   0.1666667), wk =   0.0740741
        k(   56) = (  -0.5000000  -0.1575061   0.1666667), wk =   0.0370370
        k(   57) = (   0.3333333  -0.3150122   0.1666667), wk =   0.0740741
        k(   58) = (  -0.5000000  -0.3150122   0.1666667), wk =   0.0370370
        k(   59) = (   0.3333333   0.4725183   0.1666667), wk =   0.0370370
        k(   60) = (  -0.5000000   0.4725183   0.1666667), wk =   0.0185185
        k(   61) = (  -0.5000000   0.0000000   0.3333333), wk =   0.0185185
        k(   62) = (  -0.5000000  -0.1575061   0.3333333), wk =   0.0370370
        k(   63) = (  -0.5000000  -0.3150122   0.3333333), wk =   0.0370370
        k(   64) = (  -0.5000000   0.4725183   0.3333333), wk =   0.0185185

     Initial potential from superposition of free atoms

     starting charge  367.99656, renormalised to  368.00000
     Starting wfcs are  232 randomized atomic wfcs

     Self-consistent Calculation

     iteration #  1     ecut=   120.00 Ry     beta= 0.70
     Davidson diagonalization with overlap
     ethr =  1.00E-02,  avg # of iterations =  5.2

     total energy              =   -6253.73998703 Ry
     Harris-Foulkes estimate   =   -6264.48643675 Ry
[...]
End final coordinates

     Writing output data file Landau_29.save/

     Final scf calculation at the relaxed structure.
     The G-vectors are recalculated for the final unit cell
     Results may differ from those at the preceding step.

     bravais-lattice index     =            0
     lattice parameter (alat)  =      13.8397  a.u.
     unit-cell volume          =    2830.8264 (a.u.)^3
     number of atoms/cell      =           32
     number of atomic types    =            2
     number of electrons       =       368.00
     number of Kohn-Sham states=          221
     kinetic-energy cutoff     =     120.0000  Ry
     charge density cutoff     =     480.0000  Ry
     convergence threshold     =      1.0E-10
     mixing beta               =       0.7000
     number of iterations used =            8  plain     mixing
     Exchange-correlation      = SLA PW NOGX NOGC ( 1  4  0  0 0 0)

     celldm(1)=  13.839685  celldm(2)=   0.000000  celldm(3)=   0.000000
     celldm(4)=   0.000000  celldm(5)=   0.000000  celldm(6)=   0.000000

     crystal axes: (cart. coord. in units of alat)
               a(1) = (   1.017655   0.000000   0.000000 )
               a(2) = (   0.000000   1.033594   0.000000 )
               a(3) = (   0.000000   0.000000   1.015276 )

     reciprocal axes: (cart. coord. in units 2 pi/alat)
               b(1) = (  0.982652  0.000000  0.000000 )
               b(2) = (  0.000000  0.967498  0.000000 )
               b(3) = (  0.000000  0.000000  0.984953 )

     PseudoPot. # 1 for W  read from file:
     /cluster/scratch/mnoe/QE/pps/W_ONCV_LDA-4.0.upf
     MD5 check sum: ba0307d5d4cd419d6f1d13dc49d7c13a
     Pseudo is Norm-conserving + core correction, Zval = 28.0
     Generated using ONCVPSP code by D. R. Hamann
     Using radial grid of 1380 points,  8 beta functions with:
                l(1) =   0
                l(2) =   0
                l(3) =   1
                l(4) =   1
                l(5) =   2
                l(6) =   2
                l(7) =   3
                l(8) =   3

     PseudoPot. # 2 for O  read from file:
     /cluster/scratch/mnoe/QE/pps/O_ONCV_LDA-3.0.upf
     MD5 check sum: b55cdb4f45ae2203d24ad12cf8d61a31
     Pseudo is Norm-conserving + core correction, Zval =  6.0
     Generated using ONCVPSP code by D. R. Hamann
     Using radial grid of  926 points,  5 beta functions with:
                l(1) =   0
                l(2) =   0
                l(3) =   1
                l(4) =   1
                l(5) =   2

     atomic species   valence    mass     pseudopotential
        W             28.00   183.84000     W ( 1.00)
        O              6.00    15.99940     O ( 1.00)

      8 Sym. Ops., with inversion, found ( 6 have fractional translation)

   Cartesian axes

     site n.     atom                  positions (alat units)
         1           W   tau(   1) = (   0.2407669   0.3015080   0.0128636  )
         2           W   tau(   2) = (   0.7768877   0.7320858   1.0024128  )
         3           W   tau(   3) = (   0.2680604   0.2152889   0.5205017  )
         4           W   tau(   4) = (   0.7495942   0.8183049   0.4947746  )
         5           W   tau(   5) = (   0.7768877   0.3015080   0.4947746  )
         6           W   tau(   6) = (   0.2407669   0.7320858   0.5205017  )
         7           W   tau(   7) = (   0.7495942   0.2152889   1.0024128  )
         8           W   tau(   8) = (   0.2680604   0.8183049   0.0128636  )
         9           O   tau(   9) = (   0.2292369   0.0278609   0.0040002  )
        10           O   tau(  10) = (   0.7884177   1.0057329   1.0112762  )
        11           O   tau(  11) = (   0.2795904   0.4889360   0.5116384  )
        12           O   tau(  12) = (   0.7380642   0.5446579   0.5036380  )
        13           O   tau(  13) = (   0.7884177   0.0278609   0.5036380  )
        14           O   tau(  14) = (   0.2292369   1.0057329   0.5116384  )
        15           O   tau(  15) = (   0.7380642   0.4889360   1.0112762  )
        16           O   tau(  16) = (   0.2795904   0.5446579   0.0040002  )
        17           O   tau(  17) = (   0.5125621   0.2321658   0.5080887  )
        18           O   tau(  18) = (   0.5050925   0.8014280   0.5071877  )
        19           O   tau(  19) = (   1.0139199   0.2846311   1.0157269  )
        20           O   tau(  20) = (   0.0037348   0.7489627  -0.0004505  )
        21           O   tau(  21) = (   0.5050925   0.2321658  -0.0004505  )
        22           O   tau(  22) = (   0.5125621   0.8014280   1.0157269  )
        23           O   tau(  23) = (   0.0037348   0.2846311   0.5071877  )
        24           O   tau(  24) = (   1.0139199   0.7489627   0.5080887  )
        25           O   tau(  25) = (   0.7636926   0.2526723   0.7558124  )
        26           O   tau(  26) = (   0.2539621   0.7809215   0.2594640  )
        27           O   tau(  27) = (   0.7627894   0.2641246   0.2481742  )
        28           O   tau(  28) = (   0.2548652   0.7694692   0.7671022  )
        29           O   tau(  29) = (   0.2539621   0.2526723   0.7671022  )
        30           O   tau(  30) = (   0.7636926   0.7809215   0.2481742  )
        31           O   tau(  31) = (   0.2548652   0.2641246   0.2594640  )
        32           O   tau(  32) = (   0.7627894   0.7694692   0.7558124  )

     number of k points=    64  gaussian smearing, width (Ry)=  0.0007
                       cart. coord. in units 2pi/alat
        k(    1) = (   0.0000000   0.0000000   0.0000000), wk =   0.0092593
        k(    2) = (   0.0000000   0.0000000   0.1641589), wk =   0.0185185
        k(    3) = (   0.0000000   0.0000000   0.3283178), wk =   0.0185185
        k(    4) = (   0.0000000   0.0000000  -0.4924767), wk =   0.0092593
        k(    5) = (   0.0000000   0.1612497   0.0000000), wk =   0.0185185
        k(    6) = (   0.0000000   0.1612497   0.1641589), wk =   0.0370370
        k(    7) = (   0.0000000   0.1612497   0.3283178), wk =   0.0370370
        k(    8) = (   0.0000000   0.1612497  -0.4924767), wk =   0.0185185
        k(    9) = (   0.0000000   0.3224993   0.0000000), wk =   0.0185185
        k(   10) = (   0.0000000   0.3224993   0.1641589), wk =   0.0370370
        k(   11) = (   0.0000000   0.3224993   0.3283178), wk =   0.0370370
        k(   12) = (   0.0000000   0.3224993  -0.4924767), wk =   0.0185185
        k(   13) = (   0.0000000  -0.4837490   0.0000000), wk =   0.0092593
        k(   14) = (   0.0000000  -0.4837490   0.1641589), wk =   0.0185185
        k(   15) = (   0.0000000  -0.4837490   0.3283178), wk =   0.0185185
        k(   16) = (   0.0000000  -0.4837490  -0.4924767), wk =   0.0092593
        k(   17) = (   0.1637753   0.0000000   0.1641589), wk =   0.0370370
        k(   18) = (   0.1637753   0.0000000   0.3283178), wk =   0.0370370
        k(   19) = (   0.1637753   0.0000000  -0.4924767), wk =   0.0185185
        k(   20) = (   0.1637753   0.1612497   0.1641589), wk =   0.0740741
        k(   21) = (   0.1637753   0.1612497   0.3283178), wk =   0.0740741
        k(   22) = (   0.1637753   0.1612497  -0.4924767), wk =   0.0370370
        k(   23) = (   0.1637753   0.3224993   0.1641589), wk =   0.0740741
        k(   24) = (   0.1637753   0.3224993   0.3283178), wk =   0.0740741
        k(   25) = (   0.1637753   0.3224993  -0.4924767), wk =   0.0370370
        k(   26) = (   0.1637753  -0.4837490   0.1641589), wk =   0.0370370
        k(   27) = (   0.1637753  -0.4837490   0.3283178), wk =   0.0370370
        k(   28) = (   0.1637753  -0.4837490  -0.4924767), wk =   0.0185185
        k(   29) = (   0.3275506   0.0000000   0.3283178), wk =   0.0370370
        k(   30) = (   0.3275506   0.0000000  -0.4924767), wk =   0.0185185
        k(   31) = (   0.3275506   0.1612497   0.3283178), wk =   0.0740741
        k(   32) = (   0.3275506   0.1612497  -0.4924767), wk =   0.0370370
        k(   33) = (   0.3275506   0.3224993   0.3283178), wk =   0.0740741
        k(   34) = (   0.3275506   0.3224993  -0.4924767), wk =   0.0370370
        k(   35) = (   0.3275506  -0.4837490   0.3283178), wk =   0.0370370
        k(   36) = (   0.3275506  -0.4837490  -0.4924767), wk =   0.0185185
        k(   37) = (  -0.4913258   0.0000000  -0.4924767), wk =   0.0092593
        k(   38) = (  -0.4913258   0.1612497  -0.4924767), wk =   0.0185185
        k(   39) = (  -0.4913258   0.3224993  -0.4924767), wk =   0.0185185
        k(   40) = (  -0.4913258  -0.4837490  -0.4924767), wk =   0.0092593
        k(   41) = (   0.1637753   0.0000000   0.0000000), wk =   0.0185185
        k(   42) = (   0.3275506   0.0000000   0.0000000), wk =   0.0185185
        k(   43) = (  -0.4913258   0.0000000   0.0000000), wk =   0.0092593
        k(   44) = (   0.1637753  -0.1612497   0.0000000), wk =   0.0370370
        k(   45) = (   0.3275506  -0.1612497   0.0000000), wk =   0.0370370
        k(   46) = (  -0.4913258  -0.1612497   0.0000000), wk =   0.0185185
        k(   47) = (   0.1637753  -0.3224993   0.0000000), wk =   0.0370370
        k(   48) = (   0.3275506  -0.3224993   0.0000000), wk =   0.0370370
        k(   49) = (  -0.4913258  -0.3224993   0.0000000), wk =   0.0185185
        k(   50) = (   0.1637753   0.4837490   0.0000000), wk =   0.0185185
        k(   51) = (   0.3275506   0.4837490   0.0000000), wk =   0.0185185
        k(   52) = (  -0.4913258   0.4837490   0.0000000), wk =   0.0092593
        k(   53) = (   0.3275506   0.0000000   0.1641589), wk =   0.0370370
        k(   54) = (  -0.4913258   0.0000000   0.1641589), wk =   0.0185185
        k(   55) = (   0.3275506  -0.1612497   0.1641589), wk =   0.0740741
        k(   56) = (  -0.4913258  -0.1612497   0.1641589), wk =   0.0370370
        k(   57) = (   0.3275506  -0.3224993   0.1641589), wk =   0.0740741
        k(   58) = (  -0.4913258  -0.3224993   0.1641589), wk =   0.0370370
        k(   59) = (   0.3275506   0.4837490   0.1641589), wk =   0.0370370
        k(   60) = (  -0.4913258   0.4837490   0.1641589), wk =   0.0185185
        k(   61) = (  -0.4913258   0.0000000   0.3283178), wk =   0.0185185
        k(   62) = (  -0.4913258  -0.1612497   0.3283178), wk =   0.0370370
        k(   63) = (  -0.4913258  -0.3224993   0.3283178), wk =   0.0370370
        k(   64) = (  -0.4913258   0.4837490   0.3283178), wk =   0.0185185

     Initial potential from superposition of free atoms

     starting charge  367.99656, renormalised to  368.00000
     Starting wfcs are  232 randomized atomic wfcs

     Self-consistent Calculation

[...]

     total energy              =   -6261.01623202 Ry
     Harris-Foulkes estimate   =   -6261.01623202 Ry
     estimated scf accuracy    <          4.0E-10 Ry

     iteration # 15     ecut=   120.00 Ry     beta= 0.70
     Davidson diagonalization with overlap
     ethr =  1.09E-13,  avg # of iterations =  2.0

     End of self-consistent calculation

[...]

          k = 0.3276 0.4837 0.1642 ( 62882 PWs)   bands (ev):

[...]

          k =-0.4913 0.4837 0.3283 ( 62820 PWs)   bands (ev):

   -66.3049 -66.3049 -66.3048 -66.3048 -66.3045 -66.3045 -66.3045 -66.3045
   -30.6471 -30.6471 -30.6463 -30.6463 -30.6434 -30.6434 -30.6422 -30.6422
   -30.6331 -30.6331 -30.6325 -30.6325 -30.6029 -30.6029 -30.6023 -30.6023
   -30.5845 -30.5845 -30.5829 -30.5829 -30.5758 -30.5758 -30.5748 -30.5748
   -20.4797 -20.4797 -20.4797 -20.4797 -20.4789 -20.4789 -20.4789 -20.4789
   -20.4686 -20.4686 -20.4686 -20.4686 -20.4682 -20.4682 -20.4682 -20.4682
   -20.4523 -20.4523 -20.4523 -20.4523 -20.4516 -20.4515 -20.4515 -20.4515
   -20.4431 -20.4431 -20.4431 -20.4430 -20.4429 -20.4429 -20.4428 -20.4428
   -20.4290 -20.4290 -20.4289 -20.4288 -20.4285 -20.4285 -20.4284 -20.4284
   -20.4271 -20.4271 -20.4269 -20.4269 -20.4262 -20.4262 -20.4261 -20.4261
   -20.4169 -20.4169 -20.4169 -20.4169 -20.4163 -20.4163 -20.4163 -20.4163
    -9.3388  -9.3388  -9.3187  -9.3187  -8.9904  -8.9903  -8.9417  -8.9416
    -8.6448  -8.6448  -8.6099  -8.6099  -8.4651  -8.4651  -8.4470  -8.4470
    -8.3988  -8.3988  -8.3848  -8.3848  -8.2260  -8.2260  -8.2235  -8.2235
     2.0668   2.0668   2.0799   2.0799   2.7665   2.7665   2.8017   2.8017
     2.8220   2.8220   2.8314   2.8314   3.0266   3.0266   3.0756   3.0757
     3.2079   3.2079   3.3103   3.3103   3.4049   3.4049   3.4288   3.4288
     3.6549   3.6549   3.7974   3.7974   4.2306   4.2306   4.2816   4.2816
     4.3020   4.3020   4.3450   4.3450   4.4374   4.4374   4.4606   4.4606
     4.6249   4.6249   4.7650   4.7650   4.9010   4.9010   4.9197   4.9197
     6.9784   6.9784   7.0104   7.0104   7.0335   7.0335   7.1093   7.1093
     7.1801   7.1801   7.2619   7.2619   7.3601   7.3601   7.4439   7.4439
     7.4811   7.4811   7.5439   7.5439   7.5935   7.5935   7.6437   7.6437
    11.3218  11.3218  11.3932  11.3932  11.5676  11.5676  11.6716  11.6716
    12.0170  12.0170  12.1485  12.1485  12.2627  12.2627  12.3035  12.3035
    12.4736  12.4736  12.5082  12.5082  12.7789  12.7789  12.7932  12.7932
    16.0696  16.0696  16.1207  16.1207  16.6523  16.6523  16.8072  16.8073
    17.0856  17.0856  17.1124  17.1124  17.3466

     the Fermi energy is     8.7050 ev

!    total energy              =   -6261.01623202 Ry
     Harris-Foulkes estimate   =   -6261.01623202 Ry
     estimated scf accuracy    <          1.1E-11 Ry

     The total energy is the sum of the following terms:

     one-electron contribution =   -4757.90545326 Ry
     hartree contribution      =    2614.07742107 Ry
     xc contribution           =    -965.71123788 Ry
     ewald contribution        =   -3151.47696194 Ry
     smearing contrib. (-TS)   =      -0.00000000 Ry

     convergence has been achieved in  15 iterations

     Forces acting on atoms (cartesian axes, Ry/au):

     atom    1 type  1   force =     0.00463909    0.01276409    0.00563908
     atom    2 type  1   force =    -0.00463909   -0.01276409   -0.00563908
     atom    3 type  1   force =    -0.00463909   -0.01276409    0.00563908
     atom    4 type  1   force =     0.00463909    0.01276409   -0.00563908
     atom    5 type  1   force =    -0.00463909    0.01276409   -0.00563908
     atom    6 type  1   force =     0.00463909   -0.01276409    0.00563908
     atom    7 type  1   force =     0.00463909   -0.01276409   -0.00563908
     atom    8 type  1   force =    -0.00463909    0.01276409    0.00563908
     atom    9 type  2   force =     0.00691038   -0.08639077    0.00256134
     atom   10 type  2   force =    -0.00691038    0.08639077   -0.00256134
     atom   11 type  2   force =    -0.00691038    0.08639077    0.00256134
     atom   12 type  2   force =     0.00691038   -0.08639077   -0.00256134
     atom   13 type  2   force =    -0.00691038   -0.08639077   -0.00256134
     atom   14 type  2   force =     0.00691038    0.08639077    0.00256134
     atom   15 type  2   force =     0.00691038    0.08639077   -0.00256134
     atom   16 type  2   force =    -0.00691038   -0.08639077    0.00256134
     atom   17 type  2   force =     0.00461441   -0.00745911    0.00011230
     atom   18 type  2   force =    -0.00461441    0.00745911   -0.00011230
     atom   19 type  2   force =    -0.00461441    0.00745911    0.00011230
     atom   20 type  2   force =     0.00461441   -0.00745911   -0.00011230
     atom   21 type  2   force =    -0.00461441   -0.00745911   -0.00011230
     atom   22 type  2   force =     0.00461441    0.00745911    0.00011230
     atom   23 type  2   force =     0.00461441    0.00745911   -0.00011230
     atom   24 type  2   force =    -0.00461441   -0.00745911    0.00011230
     atom   25 type  2   force =    -0.00155727    0.00326829    0.00923959
     atom   26 type  2   force =     0.00155727   -0.00326829   -0.00923959
     atom   27 type  2   force =     0.00155727   -0.00326829    0.00923959
     atom   28 type  2   force =    -0.00155727    0.00326829   -0.00923959
     atom   29 type  2   force =     0.00155727    0.00326829   -0.00923959
     atom   30 type  2   force =    -0.00155727   -0.00326829    0.00923959
     atom   31 type  2   force =    -0.00155727   -0.00326829   -0.00923959
     atom   32 type  2   force =     0.00155727    0.00326829    0.00923959

     Total force =     0.000000     Total SCF correction =     0.000000

     Computing stress (Cartesian axis) and pressure

          total   stress  (Ry/bohr**3)                   (kbar)     P=    0.73
   0.00000840   0.00000000   0.00000000          1.24      0.00      0.00
   0.00000000  -0.00000081   0.00000000          0.00     -0.12      0.00
   0.00000000   0.00000000   0.00000727          0.00      0.00      1.07

     Writing output data file Landau_29.save/

     General routines

     Parallel routines

   This run was terminated on:   2:13:11  21Nov2019

   JOB DONE.