     Program PWSCF v.6.4.1 starts on 20Nov2019 at 23: 7:37

     K-points division:     npool     =      64
     Reading input from rscf.in

     Current dimensions of program PWSCF are:
     Max number of different atomic species (ntypx) = 10
     Max number of k-points (npk) =  40000
     Max angular momentum in pseudopotentials (lmaxx) =  3

     Subspace diagonalization in iterative solution of the eigenvalue problem:
     a serial algorithm will be used

     Message from routine setup:
     using ibrav=0 with symmetry is DISCOURAGED, use correct ibrav instead

     bravais-lattice index     =            0
     lattice parameter (alat)  =      13.8397  a.u.
     unit-cell volume          =    2804.9816 (a.u.)^3
     number of atoms/cell      =           32
     number of atomic types    =            2
     number of electrons       =       368.00
     number of Kohn-Sham states=          221
     kinetic-energy cutoff     =     120.0000  Ry
     charge density cutoff     =     480.0000  Ry
     convergence threshold     =      1.0E-08
     mixing beta               =       0.7000
     number of iterations used =            8  plain     mixing
     Exchange-correlation      = SLA PW NOGX NOGC ( 1  4  0  0 0 0)
     nstep                     =           50

     celldm(1)=  13.839685  celldm(2)=   0.000000  celldm(3)=   0.000000
     celldm(4)=   0.000000  celldm(5)=   0.000000  celldm(6)=   0.000000

     crystal axes: (cart. coord. in units of alat)
               a(1) = (   1.000000   0.000000   0.000000 )
               a(2) = (   0.000000   1.058160   0.000000 )
               a(3) = (   0.000000   0.000000   1.000000 )

     reciprocal axes: (cart. coord. in units 2 pi/alat)
               b(1) = (  1.000000  0.000000  0.000000 )
               b(2) = (  0.000000  0.945037  0.000000 )
               b(3) = (  0.000000  0.000000  1.000000 )

     PseudoPot. # 1 for W  read from file:
     /cluster/scratch/mnoe/QE/pps/W_ONCV_LDA-4.0.upf
     MD5 check sum: ba0307d5d4cd419d6f1d13dc49d7c13a
     Pseudo is Norm-conserving + core correction, Zval = 28.0
     Generated using ONCVPSP code by D. R. Hamann
     Using radial grid of 1380 points,  8 beta functions with:
                l(1) =   0
                l(2) =   0
                l(3) =   1
                l(4) =   1
                l(5) =   2
                l(6) =   2
                l(7) =   3
                l(8) =   3

     PseudoPot. # 2 for O  read from file:
     /cluster/scratch/mnoe/QE/pps/O_ONCV_LDA-3.0.upf
     MD5 check sum: b55cdb4f45ae2203d24ad12cf8d61a31
     Pseudo is Norm-conserving + core correction, Zval =  6.0
     Generated using ONCVPSP code by D. R. Hamann
     Using radial grid of  926 points,  5 beta functions with:
                l(1) =   0
                l(2) =   0
                l(3) =   1
                l(4) =   1
                l(5) =   2

     atomic species   valence    mass     pseudopotential
        W             28.00   183.84000     W ( 1.00)
        O              6.00    15.99940     O ( 1.00)

      8 Sym. Ops., with inversion, found ( 6 have fractional translation)

   Cartesian axes

     site n.     atom                  positions (alat units)
         1           W   tau(   1) = (   0.2476900   0.3000498   0.0021800  )
         2           W   tau(   2) = (   0.7523100   0.7581103   0.9978200  )
         3           W   tau(   3) = (   0.2523100   0.2290303   0.5021800  )
         4           W   tau(   4) = (   0.7476900   0.8291298   0.4978200  )
         5           W   tau(   5) = (   0.7523100   0.3000498   0.4978200  )
         6           W   tau(   6) = (   0.2476900   0.7581103   0.5021800  )
         7           W   tau(   7) = (   0.7476900   0.2290303   0.9978200  )
         8           W   tau(   8) = (   0.2523100   0.8291298   0.0021800  )
         9           O   tau(   9) = (   0.2457300   0.0122038   0.0006800  )
        10           O   tau(  10) = (   0.7542700   1.0459563   0.9993200  )
        11           O   tau(  11) = (   0.2542700   0.5168763   0.5006800  )
        12           O   tau(  12) = (   0.7457300   0.5412838   0.4993200  )
        13           O   tau(  13) = (   0.7542700   0.0122038   0.4993200  )
        14           O   tau(  14) = (   0.2457300   1.0459563   0.5006800  )
        15           O   tau(  15) = (   0.7457300   0.5168763   0.9993200  )
        16           O   tau(  16) = (   0.2542700   0.5412838   0.0006800  )
        17           O   tau(  17) = (   0.5006300   0.2599053   0.4583165  )
        18           O   tau(  18) = (   0.4993700   0.7982548   0.5416835  )
        19           O   tau(  19) = (   0.9993700   0.2691747   0.9583165  )
        20           O   tau(  20) = (   0.0006300   0.7889853   0.0416835  )
        21           O   tau(  21) = (   0.4993700   0.2599053   0.0416835  )
        22           O   tau(  22) = (   0.5006300   0.7982548   0.9583165  )
        23           O   tau(  23) = (   0.0006300   0.2691747   0.5416835  )
        24           O   tau(  24) = (   0.9993700   0.7889853   0.4583165  )
        25           O   tau(  25) = (   0.7083165   0.2635242   0.7490400  )
        26           O   tau(  26) = (   0.2916835   0.7946359   0.2509600  )
        27           O   tau(  27) = (   0.7916835   0.2655559   0.2490400  )
        28           O   tau(  28) = (   0.2083165   0.7926042   0.7509600  )
        29           O   tau(  29) = (   0.2916835   0.2635242   0.7509600  )
        30           O   tau(  30) = (   0.7083165   0.7946359   0.2490400  )
        31           O   tau(  31) = (   0.2083165   0.2655559   0.2509600  )
        32           O   tau(  32) = (   0.7916835   0.7926042   0.7490400  )

     number of k points=    64  gaussian smearing, width (Ry)=  0.0007
                       cart. coord. in units 2pi/alat
        k(    1) = (   0.0000000   0.0000000   0.0000000), wk =   0.0092593
        k(    2) = (   0.0000000   0.0000000   0.1666667), wk =   0.0185185
        k(    3) = (   0.0000000   0.0000000   0.3333333), wk =   0.0185185
        k(    4) = (   0.0000000   0.0000000  -0.5000000), wk =   0.0092593
        k(    5) = (   0.0000000   0.1575061   0.0000000), wk =   0.0185185
        k(    6) = (   0.0000000   0.1575061   0.1666667), wk =   0.0370370
        k(    7) = (   0.0000000   0.1575061   0.3333333), wk =   0.0370370
        k(    8) = (   0.0000000   0.1575061  -0.5000000), wk =   0.0185185
        k(    9) = (   0.0000000   0.3150122   0.0000000), wk =   0.0185185
        k(   10) = (   0.0000000   0.3150122   0.1666667), wk =   0.0370370
        k(   11) = (   0.0000000   0.3150122   0.3333333), wk =   0.0370370
        k(   12) = (   0.0000000   0.3150122  -0.5000000), wk =   0.0185185
        k(   13) = (   0.0000000  -0.4725183   0.0000000), wk =   0.0092593
        k(   14) = (   0.0000000  -0.4725183   0.1666667), wk =   0.0185185
        k(   15) = (   0.0000000  -0.4725183   0.3333333), wk =   0.0185185
        k(   16) = (   0.0000000  -0.4725183  -0.5000000), wk =   0.0092593
        k(   17) = (   0.1666667   0.0000000   0.1666667), wk =   0.0370370
        k(   18) = (   0.1666667   0.0000000   0.3333333), wk =   0.0370370
        k(   19) = (   0.1666667   0.0000000  -0.5000000), wk =   0.0185185
        k(   20) = (   0.1666667   0.1575061   0.1666667), wk =   0.0740741
        k(   21) = (   0.1666667   0.1575061   0.3333333), wk =   0.0740741
        k(   22) = (   0.1666667   0.1575061  -0.5000000), wk =   0.0370370
        k(   23) = (   0.1666667   0.3150122   0.1666667), wk =   0.0740741
        k(   24) = (   0.1666667   0.3150122   0.3333333), wk =   0.0740741
        k(   25) = (   0.1666667   0.3150122  -0.5000000), wk =   0.0370370
        k(   26) = (   0.1666667  -0.4725183   0.1666667), wk =   0.0370370
        k(   27) = (   0.1666667  -0.4725183   0.3333333), wk =   0.0370370
        k(   28) = (   0.1666667  -0.4725183  -0.5000000), wk =   0.0185185
        k(   29) = (   0.3333333   0.0000000   0.3333333), wk =   0.0370370
        k(   30) = (   0.3333333   0.0000000  -0.5000000), wk =   0.0185185
        k(   31) = (   0.3333333   0.1575061   0.3333333), wk =   0.0740741
        k(   32) = (   0.3333333   0.1575061  -0.5000000), wk =   0.0370370
        k(   33) = (   0.3333333   0.3150122   0.3333333), wk =   0.0740741
        k(   34) = (   0.3333333   0.3150122  -0.5000000), wk =   0.0370370
        k(   35) = (   0.3333333  -0.4725183   0.3333333), wk =   0.0370370
        k(   36) = (   0.3333333  -0.4725183  -0.5000000), wk =   0.0185185
        k(   37) = (  -0.5000000   0.0000000  -0.5000000), wk =   0.0092593
        k(   38) = (  -0.5000000   0.1575061  -0.5000000), wk =   0.0185185
        k(   39) = (  -0.5000000   0.3150122  -0.5000000), wk =   0.0185185
        k(   40) = (  -0.5000000  -0.4725183  -0.5000000), wk =   0.0092593
        k(   41) = (   0.1666667   0.0000000   0.0000000), wk =   0.0185185
        k(   42) = (   0.3333333   0.0000000   0.0000000), wk =   0.0185185
        k(   43) = (  -0.5000000   0.0000000   0.0000000), wk =   0.0092593
        k(   44) = (   0.1666667  -0.1575061   0.0000000), wk =   0.0370370
        k(   45) = (   0.3333333  -0.1575061   0.0000000), wk =   0.0370370
        k(   46) = (  -0.5000000  -0.1575061   0.0000000), wk =   0.0185185
        k(   47) = (   0.1666667  -0.3150122   0.0000000), wk =   0.0370370
        k(   48) = (   0.3333333  -0.3150122   0.0000000), wk =   0.0370370
        k(   49) = (  -0.5000000  -0.3150122   0.0000000), wk =   0.0185185
        k(   50) = (   0.1666667   0.4725183   0.0000000), wk =   0.0185185
        k(   51) = (   0.3333333   0.4725183   0.0000000), wk =   0.0185185
        k(   52) = (  -0.5000000   0.4725183   0.0000000), wk =   0.0092593
        k(   53) = (   0.3333333   0.0000000   0.1666667), wk =   0.0370370
        k(   54) = (  -0.5000000   0.0000000   0.1666667), wk =   0.0185185
        k(   55) = (   0.3333333  -0.1575061   0.1666667), wk =   0.0740741
        k(   56) = (  -0.5000000  -0.1575061   0.1666667), wk =   0.0370370
        k(   57) = (   0.3333333  -0.3150122   0.1666667), wk =   0.0740741
        k(   58) = (  -0.5000000  -0.3150122   0.1666667), wk =   0.0370370
        k(   59) = (   0.3333333   0.4725183   0.1666667), wk =   0.0370370
        k(   60) = (  -0.5000000   0.4725183   0.1666667), wk =   0.0185185
        k(   61) = (  -0.5000000   0.0000000   0.3333333), wk =   0.0185185
        k(   62) = (  -0.5000000  -0.1575061   0.3333333), wk =   0.0370370
        k(   63) = (  -0.5000000  -0.3150122   0.3333333), wk =   0.0370370
        k(   64) = (  -0.5000000   0.4725183   0.3333333), wk =   0.0185185

     Initial potential from superposition of free atoms

     starting charge  367.99656, renormalised to  368.00000
     Starting wfcs are  232 randomized atomic wfcs

     Self-consistent Calculation

     iteration #  1     ecut=   120.00 Ry     beta= 0.70
     Davidson diagonalization with overlap
     ethr =  1.00E-02,  avg # of iterations =  5.1

     total energy              =   -6254.00900961 Ry
     Harris-Foulkes estimate   =   -6264.58589840 Ry
[...]
     Results may differ from those at the preceding step.

     bravais-lattice index     =            0
     lattice parameter (alat)  =      13.8397  a.u.
     unit-cell volume          =    2823.6409 (a.u.)^3
     number of atoms/cell      =           32
     number of atomic types    =            2
     number of electrons       =       368.00
     number of Kohn-Sham states=          221
     kinetic-energy cutoff     =     120.0000  Ry
     charge density cutoff     =     480.0000  Ry
     convergence threshold     =      1.0E-10
     mixing beta               =       0.7000
     number of iterations used =            8  plain     mixing
     Exchange-correlation      = SLA PW NOGX NOGC ( 1  4  0  0 0 0)

     celldm(1)=  13.839685  celldm(2)=   0.000000  celldm(3)=   0.000000
     celldm(4)=   0.000000  celldm(5)=   0.000000  celldm(6)=   0.000000

     crystal axes: (cart. coord. in units of alat)
               a(1) = (   1.004957   0.000000   0.000000 )
               a(2) = (   0.000000   1.054618   0.000000 )
               a(3) = (   0.000000   0.000000   1.005051 )

     reciprocal axes: (cart. coord. in units 2 pi/alat)
               b(1) = (  0.995067  0.000000  0.000000 )
               b(2) = (  0.000000  0.948210  0.000000 )
               b(3) = (  0.000000  0.000000  0.994975 )

     PseudoPot. # 1 for W  read from file:
     /cluster/scratch/mnoe/QE/pps/W_ONCV_LDA-4.0.upf
     MD5 check sum: ba0307d5d4cd419d6f1d13dc49d7c13a
     Pseudo is Norm-conserving + core correction, Zval = 28.0
     Generated using ONCVPSP code by D. R. Hamann
     Using radial grid of 1380 points,  8 beta functions with:
                l(1) =   0
                l(2) =   0
                l(3) =   1
                l(4) =   1
                l(5) =   2
                l(6) =   2
                l(7) =   3
                l(8) =   3

     PseudoPot. # 2 for O  read from file:
     /cluster/scratch/mnoe/QE/pps/O_ONCV_LDA-3.0.upf
     MD5 check sum: b55cdb4f45ae2203d24ad12cf8d61a31
     Pseudo is Norm-conserving + core correction, Zval =  6.0
     Generated using ONCVPSP code by D. R. Hamann
     Using radial grid of  926 points,  5 beta functions with:
                l(1) =   0
                l(2) =   0
                l(3) =   1
                l(4) =   1
                l(5) =   2

     atomic species   valence    mass     pseudopotential
        W             28.00   183.84000     W ( 1.00)
        O              6.00    15.99940     O ( 1.00)

      8 Sym. Ops., with inversion, found ( 6 have fractional translation)

   Cartesian axes

     site n.     atom                  positions (alat units)
         1           W   tau(   1) = (   0.2489179   0.2990454   0.0021910  )
         2           W   tau(   2) = (   0.7560395   0.7555728   1.0028595  )
         3           W   tau(   3) = (   0.2535608   0.2282637   0.5047162  )
         4           W   tau(   4) = (   0.7513966   0.8263545   0.5003342  )
         5           W   tau(   5) = (   0.7560395   0.2990454   0.5003342  )
         6           W   tau(   6) = (   0.2489179   0.7555728   0.5047162  )
         7           W   tau(   7) = (   0.7513966   0.2282637   1.0028595  )
         8           W   tau(   8) = (   0.2535608   0.8263545   0.0021910  )
         9           O   tau(   9) = (   0.2469482   0.0121629   0.0006834  )
        10           O   tau(  10) = (   0.7580093   1.0424553   1.0043671  )
        11           O   tau(  11) = (   0.2555305   0.5151462   0.5032087  )
        12           O   tau(  12) = (   0.7494268   0.5394720   0.5018418  )
        13           O   tau(  13) = (   0.7580093   0.0121629   0.5018418  )
        14           O   tau(  14) = (   0.2469482   1.0424553   0.5032087  )
        15           O   tau(  15) = (   0.7494268   0.5151462   1.0043671  )
        16           O   tau(  16) = (   0.2555305   0.5394720   0.0006834  )
        17           O   tau(  17) = (   0.5031119   0.2590353   0.4606312  )
        18           O   tau(  18) = (   0.5018456   0.7955829   0.5444193  )
        19           O   tau(  19) = (   1.0043243   0.2682738   0.9631565  )
        20           O   tau(  20) = (   0.0006331   0.7863444   0.0418940  )
        21           O   tau(  21) = (   0.5018456   0.2590353   0.0418940  )
        22           O   tau(  22) = (   0.5031119   0.7955829   0.9631565  )
        23           O   tau(  23) = (   0.0006331   0.2682738   0.5444193  )
        24           O   tau(  24) = (   1.0043243   0.7863444   0.4606312  )
        25           O   tau(  25) = (   0.7118280   0.2626421   0.7528230  )
        26           O   tau(  26) = (   0.2931295   0.7919761   0.2522275  )
        27           O   tau(  27) = (   0.7956082   0.2646670   0.2502978  )
        28           O   tau(  28) = (   0.2093492   0.7899512   0.7547527  )
        29           O   tau(  29) = (   0.2931295   0.2626421   0.7547527  )
        30           O   tau(  30) = (   0.7118280   0.7919761   0.2502978  )
        31           O   tau(  31) = (   0.2093492   0.2646670   0.2522275  )
        32           O   tau(  32) = (   0.7956082   0.7899512   0.7528230  )

     number of k points=    64  gaussian smearing, width (Ry)=  0.0007
                       cart. coord. in units 2pi/alat
        k(    1) = (   0.0000000   0.0000000   0.0000000), wk =   0.0092593
        k(    2) = (   0.0000000   0.0000000   0.1658291), wk =   0.0185185
        k(    3) = (   0.0000000   0.0000000   0.3316583), wk =   0.0185185
        k(    4) = (   0.0000000   0.0000000  -0.4974874), wk =   0.0092593
        k(    5) = (   0.0000000   0.1580351   0.0000000), wk =   0.0185185
        k(    6) = (   0.0000000   0.1580351   0.1658291), wk =   0.0370370
        k(    7) = (   0.0000000   0.1580351   0.3316583), wk =   0.0370370
        k(    8) = (   0.0000000   0.1580351  -0.4974874), wk =   0.0185185
        k(    9) = (   0.0000000   0.3160702   0.0000000), wk =   0.0185185
        k(   10) = (   0.0000000   0.3160702   0.1658291), wk =   0.0370370
        k(   11) = (   0.0000000   0.3160702   0.3316583), wk =   0.0370370
        k(   12) = (   0.0000000   0.3160702  -0.4974874), wk =   0.0185185
        k(   13) = (   0.0000000  -0.4741052   0.0000000), wk =   0.0092593
        k(   14) = (   0.0000000  -0.4741052   0.1658291), wk =   0.0185185
        k(   15) = (   0.0000000  -0.4741052   0.3316583), wk =   0.0185185
        k(   16) = (   0.0000000  -0.4741052  -0.4974874), wk =   0.0092593
        k(   17) = (   0.1658445   0.0000000   0.1658291), wk =   0.0370370
        k(   18) = (   0.1658445   0.0000000   0.3316583), wk =   0.0370370
        k(   19) = (   0.1658445   0.0000000  -0.4974874), wk =   0.0185185
        k(   20) = (   0.1658445   0.1580351   0.1658291), wk =   0.0740741
        k(   21) = (   0.1658445   0.1580351   0.3316583), wk =   0.0740741
        k(   22) = (   0.1658445   0.1580351  -0.4974874), wk =   0.0370370
        k(   23) = (   0.1658445   0.3160702   0.1658291), wk =   0.0740741
        k(   24) = (   0.1658445   0.3160702   0.3316583), wk =   0.0740741
        k(   25) = (   0.1658445   0.3160702  -0.4974874), wk =   0.0370370
        k(   26) = (   0.1658445  -0.4741052   0.1658291), wk =   0.0370370
        k(   27) = (   0.1658445  -0.4741052   0.3316583), wk =   0.0370370
        k(   28) = (   0.1658445  -0.4741052  -0.4974874), wk =   0.0185185
        k(   29) = (   0.3316890   0.0000000   0.3316583), wk =   0.0370370
        k(   30) = (   0.3316890   0.0000000  -0.4974874), wk =   0.0185185
        k(   31) = (   0.3316890   0.1580351   0.3316583), wk =   0.0740741
        k(   32) = (   0.3316890   0.1580351  -0.4974874), wk =   0.0370370
        k(   33) = (   0.3316890   0.3160702   0.3316583), wk =   0.0740741
        k(   34) = (   0.3316890   0.3160702  -0.4974874), wk =   0.0370370
        k(   35) = (   0.3316890  -0.4741052   0.3316583), wk =   0.0370370
        k(   36) = (   0.3316890  -0.4741052  -0.4974874), wk =   0.0185185
        k(   37) = (  -0.4975335   0.0000000  -0.4974874), wk =   0.0092593
        k(   38) = (  -0.4975335   0.1580351  -0.4974874), wk =   0.0185185
        k(   39) = (  -0.4975335   0.3160702  -0.4974874), wk =   0.0185185
        k(   40) = (  -0.4975335  -0.4741052  -0.4974874), wk =   0.0092593
        k(   41) = (   0.1658445   0.0000000   0.0000000), wk =   0.0185185
        k(   42) = (   0.3316890   0.0000000   0.0000000), wk =   0.0185185
        k(   43) = (  -0.4975335   0.0000000   0.0000000), wk =   0.0092593
        k(   44) = (   0.1658445  -0.1580351   0.0000000), wk =   0.0370370
        k(   45) = (   0.3316890  -0.1580351   0.0000000), wk =   0.0370370
        k(   46) = (  -0.4975335  -0.1580351   0.0000000), wk =   0.0185185
        k(   47) = (   0.1658445  -0.3160702   0.0000000), wk =   0.0370370
        k(   48) = (   0.3316890  -0.3160702   0.0000000), wk =   0.0370370
        k(   49) = (  -0.4975335  -0.3160702   0.0000000), wk =   0.0185185
        k(   50) = (   0.1658445   0.4741052   0.0000000), wk =   0.0185185
        k(   51) = (   0.3316890   0.4741052   0.0000000), wk =   0.0185185
        k(   52) = (  -0.4975335   0.4741052   0.0000000), wk =   0.0092593
        k(   53) = (   0.3316890   0.0000000   0.1658291), wk =   0.0370370
        k(   54) = (  -0.4975335   0.0000000   0.1658291), wk =   0.0185185
        k(   55) = (   0.3316890  -0.1580351   0.1658291), wk =   0.0740741
        k(   56) = (  -0.4975335  -0.1580351   0.1658291), wk =   0.0370370
        k(   57) = (   0.3316890  -0.3160702   0.1658291), wk =   0.0740741
        k(   58) = (  -0.4975335  -0.3160702   0.1658291), wk =   0.0370370
        k(   59) = (   0.3316890   0.4741052   0.1658291), wk =   0.0370370
        k(   60) = (  -0.4975335   0.4741052   0.1658291), wk =   0.0185185
        k(   61) = (  -0.4975335   0.0000000   0.3316583), wk =   0.0185185
        k(   62) = (  -0.4975335  -0.1580351   0.3316583), wk =   0.0370370
        k(   63) = (  -0.4975335  -0.3160702   0.3316583), wk =   0.0370370
        k(   64) = (  -0.4975335   0.4741052   0.3316583), wk =   0.0185185

     Initial potential from superposition of free atoms

     starting charge  367.99656, renormalised to  368.00000
     Starting wfcs are  232 randomized atomic wfcs

     Self-consistent Calculation

     iteration #  1     ecut=   120.00 Ry     beta= 0.70
     Davidson diagonalization with overlap
     c_bands:  1 eigenvalues not converged
     ethr =  1.00E-06,  avg # of iterations = 14.7

[...]

     total energy              =   -6261.10564640 Ry
     Harris-Foulkes estimate   =   -6261.10564640 Ry
     estimated scf accuracy    <          1.0E-10 Ry

     iteration # 15     ecut=   120.00 Ry     beta= 0.70
     Davidson diagonalization with overlap
     ethr =  1.00E-13,  avg # of iterations =  2.0

     End of self-consistent calculation

[...]

          k = 0.3317 0.4741 0.1658 ( 62638 PWs)   bands (ev):

[...]

          k =-0.4975 0.4741 0.3317 ( 62648 PWs)   bands (ev):

   -66.2867 -66.2867 -66.2867 -66.2867 -66.2863 -66.2863 -66.2863 -66.2862
   -30.6390 -30.6390 -30.6388 -30.6388 -30.6370 -30.6370 -30.6368 -30.6368
   -30.6031 -30.6031 -30.6031 -30.6031 -30.5807 -30.5807 -30.5805 -30.5805
   -30.5785 -30.5785 -30.5782 -30.5782 -30.5564 -30.5564 -30.5564 -30.5564
   -20.4490 -20.4490 -20.4490 -20.4490 -20.4489 -20.4489 -20.4489 -20.4489
   -20.4278 -20.4278 -20.4278 -20.4278 -20.4272 -20.4272 -20.4272 -20.4272
   -20.4267 -20.4267 -20.4267 -20.4267 -20.4264 -20.4264 -20.4264 -20.4264
   -20.4254 -20.4254 -20.4253 -20.4253 -20.4253 -20.4253 -20.4253 -20.4253
   -20.4172 -20.4172 -20.4172 -20.4172 -20.4166 -20.4165 -20.4165 -20.4165
   -20.4142 -20.4142 -20.4142 -20.4142 -20.4131 -20.4131 -20.4131 -20.4131
   -20.4126 -20.4126 -20.4126 -20.4126 -20.4112 -20.4112 -20.4111 -20.4111
    -9.2885  -9.2885  -9.2861  -9.2861  -8.8980  -8.8980  -8.8916  -8.8916
    -8.6477  -8.6477  -8.6417  -8.6417  -8.4804  -8.4804  -8.4709  -8.4709
    -8.4447  -8.4447  -8.4365  -8.4365  -8.2117  -8.2117  -8.2107  -8.2107
     2.1366   2.1366   2.1402   2.1402   2.8807   2.8807   2.8983   2.8983
     2.9899   2.9899   2.9959   2.9959   3.1411   3.1411   3.1661   3.1661
     3.2566   3.2566   3.2833   3.2833   3.5148   3.5148   3.5293   3.5293
     3.6566   3.6566   3.7020   3.7020   4.1828   4.1828   4.2050   4.2050
     4.2504   4.2504   4.3027   4.3027   4.3696   4.3696   4.4690   4.4690
     4.5675   4.5675   4.7090   4.7090   4.9393   4.9393   4.9525   4.9525
     6.9479   6.9479   6.9830   6.9831   7.0816   7.0816   7.0902   7.0902
     7.1936   7.1936   7.2228   7.2228   7.2474   7.2474   7.3000   7.3000
     7.3956   7.3956   7.4471   7.4471   7.5413   7.5413   7.5631   7.5631
    11.2875  11.2875  11.3165  11.3165  11.6356  11.6356  11.6994  11.6994
    12.0818  12.0818  12.1396  12.1397  12.2187  12.2187  12.2375  12.2375
    12.3787  12.3787  12.4849  12.4849  12.8708  12.8708  12.9446  12.9446
    16.3174  16.3174  16.3662  16.3662  16.9305  16.9305  16.9482  16.9482
    17.2329  17.2334  17.3089  17.3090  17.3168

     the Fermi energy is     8.8460 ev

!    total energy              =   -6261.10564640 Ry
     Harris-Foulkes estimate   =   -6261.10564640 Ry
     estimated scf accuracy    <          1.3E-11 Ry

     The total energy is the sum of the following terms:

     one-electron contribution =   -4748.86084486 Ry
     hartree contribution      =    2609.68784858 Ry
     xc contribution           =    -965.67979719 Ry
     ewald contribution        =   -3156.25285294 Ry
     smearing contrib. (-TS)   =      -0.00000000 Ry

     convergence has been achieved in  15 iterations

     Forces acting on atoms (cartesian axes, Ry/au):

     atom    1 type  1   force =    -0.00115564    0.00242975    0.00096658
     atom    2 type  1   force =     0.00115564   -0.00242975   -0.00096658
     atom    3 type  1   force =     0.00115564   -0.00242975    0.00096658
     atom    4 type  1   force =    -0.00115564    0.00242975   -0.00096658
     atom    5 type  1   force =     0.00115564    0.00242975   -0.00096658
     atom    6 type  1   force =    -0.00115564   -0.00242975    0.00096658
     atom    7 type  1   force =    -0.00115564   -0.00242975   -0.00096658
     atom    8 type  1   force =     0.00115564    0.00242975    0.00096658
     atom    9 type  2   force =     0.00001117   -0.01442911    0.00013106
     atom   10 type  2   force =    -0.00001117    0.01442911   -0.00013106
     atom   11 type  2   force =    -0.00001117    0.01442911    0.00013106
     atom   12 type  2   force =     0.00001117   -0.01442911   -0.00013106
     atom   13 type  2   force =    -0.00001117   -0.01442911   -0.00013106
     atom   14 type  2   force =     0.00001117    0.01442911    0.00013106
     atom   15 type  2   force =     0.00001117    0.01442911   -0.00013106
     atom   16 type  2   force =    -0.00001117   -0.01442911    0.00013106
     atom   17 type  2   force =    -0.00045509   -0.00026599   -0.00143701
     atom   18 type  2   force =     0.00045509    0.00026599    0.00143701
     atom   19 type  2   force =     0.00045509    0.00026599   -0.00143701
     atom   20 type  2   force =    -0.00045509   -0.00026599    0.00143701
     atom   21 type  2   force =     0.00045509   -0.00026599    0.00143701
     atom   22 type  2   force =    -0.00045509    0.00026599   -0.00143701
     atom   23 type  2   force =    -0.00045509    0.00026599    0.00143701
     atom   24 type  2   force =     0.00045509   -0.00026599   -0.00143701
     atom   25 type  2   force =    -0.00150459   -0.00035296    0.00064063
     atom   26 type  2   force =     0.00150459    0.00035296   -0.00064063
     atom   27 type  2   force =     0.00150459    0.00035296    0.00064063
     atom   28 type  2   force =    -0.00150459   -0.00035296   -0.00064063
     atom   29 type  2   force =     0.00150459   -0.00035296   -0.00064063
     atom   30 type  2   force =    -0.00150459    0.00035296    0.00064063
     atom   31 type  2   force =    -0.00150459    0.00035296   -0.00064063
     atom   32 type  2   force =     0.00150459   -0.00035296    0.00064063

     Total force =     0.000000     Total SCF correction =     0.000000

     Computing stress (Cartesian axis) and pressure

          total   stress  (Ry/bohr**3)                   (kbar)     P=    0.17
   0.00000172   0.00000000   0.00000000          0.25      0.00      0.00
   0.00000000   0.00000000   0.00000000          0.00      0.00      0.00
   0.00000000   0.00000000   0.00000174          0.00      0.00      0.26

     Writing output data file Landau_5.save/

     General routines

     Parallel routines

   This run was terminated on:   0:50: 8  21Nov2019

   JOB DONE.