     Program PWSCF v.6.4.1 starts on 20Nov2019 at 23: 7:38

     K-points division:     npool     =      64
     Reading input from rscf.in

     Current dimensions of program PWSCF are:
     Max number of different atomic species (ntypx) = 10
     Max number of k-points (npk) =  40000
     Max angular momentum in pseudopotentials (lmaxx) =  3

     Subspace diagonalization in iterative solution of the eigenvalue problem:
     a serial algorithm will be used

     Message from routine setup:
     using ibrav=0 with symmetry is DISCOURAGED, use correct ibrav instead

     bravais-lattice index     =            0
     lattice parameter (alat)  =      13.8397  a.u.
     unit-cell volume          =    2804.9816 (a.u.)^3
     number of atoms/cell      =           32
     number of atomic types    =            2
     number of electrons       =       368.00
     number of Kohn-Sham states=          221
     kinetic-energy cutoff     =     120.0000  Ry
     charge density cutoff     =     480.0000  Ry
     convergence threshold     =      1.0E-08
     mixing beta               =       0.7000
     number of iterations used =            8  plain     mixing
     Exchange-correlation      = SLA PW NOGX NOGC ( 1  4  0  0 0 0)
     nstep                     =           50

     celldm(1)=  13.839685  celldm(2)=   0.000000  celldm(3)=   0.000000
     celldm(4)=   0.000000  celldm(5)=   0.000000  celldm(6)=   0.000000

     crystal axes: (cart. coord. in units of alat)
               a(1) = (   1.000000   0.000000   0.000000 )
               a(2) = (   0.000000   1.058160   0.000000 )
               a(3) = (   0.000000   0.000000   1.000000 )

     reciprocal axes: (cart. coord. in units 2 pi/alat)
               b(1) = (  1.000000  0.000000  0.000000 )
               b(2) = (  0.000000  0.945037  0.000000 )
               b(3) = (  0.000000  0.000000  1.000000 )

     PseudoPot. # 1 for W  read from file:
     /cluster/scratch/mnoe/QE/pps/W_ONCV_LDA-4.0.upf
     MD5 check sum: ba0307d5d4cd419d6f1d13dc49d7c13a
     Pseudo is Norm-conserving + core correction, Zval = 28.0
     Generated using ONCVPSP code by D. R. Hamann
     Using radial grid of 1380 points,  8 beta functions with:
                l(1) =   0
                l(2) =   0
                l(3) =   1
                l(4) =   1
                l(5) =   2
                l(6) =   2
                l(7) =   3
                l(8) =   3

     PseudoPot. # 2 for O  read from file:
     /cluster/scratch/mnoe/QE/pps/O_ONCV_LDA-3.0.upf
     MD5 check sum: b55cdb4f45ae2203d24ad12cf8d61a31
     Pseudo is Norm-conserving + core correction, Zval =  6.0
     Generated using ONCVPSP code by D. R. Hamann
     Using radial grid of  926 points,  5 beta functions with:
                l(1) =   0
                l(2) =   0
                l(3) =   1
                l(4) =   1
                l(5) =   2

     atomic species   valence    mass     pseudopotential
        W             28.00   183.84000     W ( 1.00)
        O              6.00    15.99940     O ( 1.00)

      8 Sym. Ops., with inversion, found ( 6 have fractional translation)

   Cartesian axes

     site n.     atom                  positions (alat units)
         1           W   tau(   1) = (   0.2495400   0.2986124   0.0004400  )
         2           W   tau(   2) = (   0.7504600   0.7595477   0.9995600  )
         3           W   tau(   3) = (   0.2504600   0.2304677   0.5004400  )
         4           W   tau(   4) = (   0.7495400   0.8276924   0.4995600  )
         5           W   tau(   5) = (   0.7504600   0.2986124   0.4995600  )
         6           W   tau(   6) = (   0.2495400   0.7595477   0.5004400  )
         7           W   tau(   7) = (   0.7495400   0.2304677   0.9995600  )
         8           W   tau(   8) = (   0.2504600   0.8276924   0.0004400  )
         9           O   tau(   9) = (   0.2491500   0.0094839   0.0001400  )
        10           O   tau(  10) = (   0.7508500   1.0486762   0.9998600  )
        11           O   tau(  11) = (   0.2508500   0.5195962   0.5001400  )
        12           O   tau(  12) = (   0.7491500   0.5385639   0.4998600  )
        13           O   tau(  13) = (   0.7508500   0.0094839   0.4998600  )
        14           O   tau(  14) = (   0.2491500   1.0486762   0.5001400  )
        15           O   tau(  15) = (   0.7491500   0.5195962   0.9998600  )
        16           O   tau(  16) = (   0.2508500   0.5385639   0.0001400  )
        17           O   tau(  17) = (   0.5001300   0.2636088   0.4512953  )
        18           O   tau(  18) = (   0.4998700   0.7945513   0.5487047  )
        19           O   tau(  19) = (   0.9998700   0.2654712   0.9512953  )
        20           O   tau(  20) = (   0.0001299   0.7926889   0.0487047  )
        21           O   tau(  21) = (   0.4998700   0.2636088   0.0487047  )
        22           O   tau(  22) = (   0.5001300   0.7945513   0.9512953  )
        23           O   tau(  23) = (   0.0001299   0.2654712   0.5487047  )
        24           O   tau(  24) = (   0.9998700   0.7926889   0.4512953  )
        25           O   tau(  25) = (   0.7012953   0.2643390   0.7498100  )
        26           O   tau(  26) = (   0.2987047   0.7938211   0.2501900  )
        27           O   tau(  27) = (   0.7987047   0.2647411   0.2498100  )
        28           O   tau(  28) = (   0.2012953   0.7934190   0.7501900  )
        29           O   tau(  29) = (   0.2987047   0.2643390   0.7501900  )
        30           O   tau(  30) = (   0.7012953   0.7938211   0.2498100  )
        31           O   tau(  31) = (   0.2012953   0.2647411   0.2501900  )
        32           O   tau(  32) = (   0.7987047   0.7934190   0.7498100  )

     number of k points=    64  gaussian smearing, width (Ry)=  0.0007
                       cart. coord. in units 2pi/alat
        k(    1) = (   0.0000000   0.0000000   0.0000000), wk =   0.0092593
        k(    2) = (   0.0000000   0.0000000   0.1666667), wk =   0.0185185
        k(    3) = (   0.0000000   0.0000000   0.3333333), wk =   0.0185185
        k(    4) = (   0.0000000   0.0000000  -0.5000000), wk =   0.0092593
        k(    5) = (   0.0000000   0.1575061   0.0000000), wk =   0.0185185
        k(    6) = (   0.0000000   0.1575061   0.1666667), wk =   0.0370370
        k(    7) = (   0.0000000   0.1575061   0.3333333), wk =   0.0370370
        k(    8) = (   0.0000000   0.1575061  -0.5000000), wk =   0.0185185
        k(    9) = (   0.0000000   0.3150122   0.0000000), wk =   0.0185185
        k(   10) = (   0.0000000   0.3150122   0.1666667), wk =   0.0370370
        k(   11) = (   0.0000000   0.3150122   0.3333333), wk =   0.0370370
        k(   12) = (   0.0000000   0.3150122  -0.5000000), wk =   0.0185185
        k(   13) = (   0.0000000  -0.4725183   0.0000000), wk =   0.0092593
        k(   14) = (   0.0000000  -0.4725183   0.1666667), wk =   0.0185185
        k(   15) = (   0.0000000  -0.4725183   0.3333333), wk =   0.0185185
        k(   16) = (   0.0000000  -0.4725183  -0.5000000), wk =   0.0092593
        k(   17) = (   0.1666667   0.0000000   0.1666667), wk =   0.0370370
        k(   18) = (   0.1666667   0.0000000   0.3333333), wk =   0.0370370
        k(   19) = (   0.1666667   0.0000000  -0.5000000), wk =   0.0185185
        k(   20) = (   0.1666667   0.1575061   0.1666667), wk =   0.0740741
        k(   21) = (   0.1666667   0.1575061   0.3333333), wk =   0.0740741
        k(   22) = (   0.1666667   0.1575061  -0.5000000), wk =   0.0370370
        k(   23) = (   0.1666667   0.3150122   0.1666667), wk =   0.0740741
        k(   24) = (   0.1666667   0.3150122   0.3333333), wk =   0.0740741
        k(   25) = (   0.1666667   0.3150122  -0.5000000), wk =   0.0370370
        k(   26) = (   0.1666667  -0.4725183   0.1666667), wk =   0.0370370
        k(   27) = (   0.1666667  -0.4725183   0.3333333), wk =   0.0370370
        k(   28) = (   0.1666667  -0.4725183  -0.5000000), wk =   0.0185185
        k(   29) = (   0.3333333   0.0000000   0.3333333), wk =   0.0370370
        k(   30) = (   0.3333333   0.0000000  -0.5000000), wk =   0.0185185
        k(   31) = (   0.3333333   0.1575061   0.3333333), wk =   0.0740741
        k(   32) = (   0.3333333   0.1575061  -0.5000000), wk =   0.0370370
        k(   33) = (   0.3333333   0.3150122   0.3333333), wk =   0.0740741
        k(   34) = (   0.3333333   0.3150122  -0.5000000), wk =   0.0370370
        k(   35) = (   0.3333333  -0.4725183   0.3333333), wk =   0.0370370
        k(   36) = (   0.3333333  -0.4725183  -0.5000000), wk =   0.0185185
        k(   37) = (  -0.5000000   0.0000000  -0.5000000), wk =   0.0092593
        k(   38) = (  -0.5000000   0.1575061  -0.5000000), wk =   0.0185185
        k(   39) = (  -0.5000000   0.3150122  -0.5000000), wk =   0.0185185
        k(   40) = (  -0.5000000  -0.4725183  -0.5000000), wk =   0.0092593
        k(   41) = (   0.1666667   0.0000000   0.0000000), wk =   0.0185185
        k(   42) = (   0.3333333   0.0000000   0.0000000), wk =   0.0185185
        k(   43) = (  -0.5000000   0.0000000   0.0000000), wk =   0.0092593
        k(   44) = (   0.1666667  -0.1575061   0.0000000), wk =   0.0370370
        k(   45) = (   0.3333333  -0.1575061   0.0000000), wk =   0.0370370
        k(   46) = (  -0.5000000  -0.1575061   0.0000000), wk =   0.0185185
        k(   47) = (   0.1666667  -0.3150122   0.0000000), wk =   0.0370370
        k(   48) = (   0.3333333  -0.3150122   0.0000000), wk =   0.0370370
        k(   49) = (  -0.5000000  -0.3150122   0.0000000), wk =   0.0185185
        k(   50) = (   0.1666667   0.4725183   0.0000000), wk =   0.0185185
        k(   51) = (   0.3333333   0.4725183   0.0000000), wk =   0.0185185
        k(   52) = (  -0.5000000   0.4725183   0.0000000), wk =   0.0092593
        k(   53) = (   0.3333333   0.0000000   0.1666667), wk =   0.0370370
        k(   54) = (  -0.5000000   0.0000000   0.1666667), wk =   0.0185185
        k(   55) = (   0.3333333  -0.1575061   0.1666667), wk =   0.0740741
        k(   56) = (  -0.5000000  -0.1575061   0.1666667), wk =   0.0370370
        k(   57) = (   0.3333333  -0.3150122   0.1666667), wk =   0.0740741
        k(   58) = (  -0.5000000  -0.3150122   0.1666667), wk =   0.0370370
        k(   59) = (   0.3333333   0.4725183   0.1666667), wk =   0.0370370
        k(   60) = (  -0.5000000   0.4725183   0.1666667), wk =   0.0185185
        k(   61) = (  -0.5000000   0.0000000   0.3333333), wk =   0.0185185
        k(   62) = (  -0.5000000  -0.1575061   0.3333333), wk =   0.0370370
        k(   63) = (  -0.5000000  -0.3150122   0.3333333), wk =   0.0370370
        k(   64) = (  -0.5000000   0.4725183   0.3333333), wk =   0.0185185

     Initial potential from superposition of free atoms

     starting charge  367.99656, renormalised to  368.00000
     Starting wfcs are  232 randomized atomic wfcs

     Self-consistent Calculation

     iteration #  1     ecut=   120.00 Ry     beta= 0.70
     Davidson diagonalization with overlap
     ethr =  1.00E-02,  avg # of iterations =  5.0

     total energy              =   -6253.98838979 Ry
     Harris-Foulkes estimate   =   -6264.58764725 Ry
[...]
End final coordinates

     Writing output data file Landau_1.save/

     Final scf calculation at the relaxed structure.
     The G-vectors are recalculated for the final unit cell
     Results may differ from those at the preceding step.

     bravais-lattice index     =            0
     lattice parameter (alat)  =      13.8397  a.u.
     unit-cell volume          =    2809.0039 (a.u.)^3
     number of atoms/cell      =           32
     number of atomic types    =            2
     number of electrons       =       368.00
     number of Kohn-Sham states=          221
     kinetic-energy cutoff     =     120.0000  Ry
     charge density cutoff     =     480.0000  Ry
     convergence threshold     =      1.0E-10
     mixing beta               =       0.7000
     number of iterations used =            8  plain     mixing
     Exchange-correlation      = SLA PW NOGX NOGC ( 1  4  0  0 0 0)

     celldm(1)=  13.839685  celldm(2)=   0.000000  celldm(3)=   0.000000
     celldm(4)=   0.000000  celldm(5)=   0.000000  celldm(6)=   0.000000

     crystal axes: (cart. coord. in units of alat)
               a(1) = (   1.001045   0.000000   0.000000 )
               a(2) = (   0.000000   1.057461   0.000000 )
               a(3) = (   0.000000   0.000000   1.001050 )

     reciprocal axes: (cart. coord. in units 2 pi/alat)
               b(1) = (  0.998956  0.000000  0.000000 )
               b(2) = (  0.000000  0.945662  0.000000 )
               b(3) = (  0.000000  0.000000  0.998951 )

     PseudoPot. # 1 for W  read from file:
     /cluster/scratch/mnoe/QE/pps/W_ONCV_LDA-4.0.upf
     MD5 check sum: ba0307d5d4cd419d6f1d13dc49d7c13a
     Pseudo is Norm-conserving + core correction, Zval = 28.0
     Generated using ONCVPSP code by D. R. Hamann
     Using radial grid of 1380 points,  8 beta functions with:
                l(1) =   0
                l(2) =   0
                l(3) =   1
                l(4) =   1
                l(5) =   2
                l(6) =   2
                l(7) =   3
                l(8) =   3

     PseudoPot. # 2 for O  read from file:
     /cluster/scratch/mnoe/QE/pps/O_ONCV_LDA-3.0.upf
     MD5 check sum: b55cdb4f45ae2203d24ad12cf8d61a31
     Pseudo is Norm-conserving + core correction, Zval =  6.0
     Generated using ONCVPSP code by D. R. Hamann
     Using radial grid of  926 points,  5 beta functions with:
                l(1) =   0
                l(2) =   0
                l(3) =   1
                l(4) =   1
                l(5) =   2

     atomic species   valence    mass     pseudopotential
        W             28.00   183.84000     W ( 1.00)
        O              6.00    15.99940     O ( 1.00)

      8 Sym. Ops., with inversion, found ( 6 have fractional translation)

   Cartesian axes

     site n.     atom                  positions (alat units)
         1           W   tau(   1) = (   0.2498008   0.2984150   0.0004405  )
         2           W   tau(   2) = (   0.7512442   0.7590457   1.0006097  )
         3           W   tau(   3) = (   0.2507217   0.2303154   0.5009655  )
         4           W   tau(   4) = (   0.7503232   0.8271453   0.5000846  )
         5           W   tau(   5) = (   0.7512442   0.2984150   0.5000846  )
         6           W   tau(   6) = (   0.2498008   0.7590457   0.5009655  )
         7           W   tau(   7) = (   0.7503232   0.2303154   1.0006097  )
         8           W   tau(   8) = (   0.2507217   0.8271453   0.0004405  )
         9           O   tau(   9) = (   0.2494104   0.0094776   0.0001401  )
        10           O   tau(  10) = (   0.7516347   1.0479832   1.0009100  )
        11           O   tau(  11) = (   0.2511122   0.5192528   0.5006652  )
        12           O   tau(  12) = (   0.7499328   0.5382079   0.5003849  )
        13           O   tau(  13) = (   0.7516347   0.0094776   0.5003849  )
        14           O   tau(  14) = (   0.2494104   1.0479832   0.5006652  )
        15           O   tau(  15) = (   0.7499328   0.5192528   1.0009100  )
        16           O   tau(  16) = (   0.2511122   0.5382079   0.0001401  )
        17           O   tau(  17) = (   0.5006526   0.2634346   0.4517692  )
        18           O   tau(  18) = (   0.5003924   0.7940261   0.5492809  )
        19           O   tau(  19) = (   1.0009148   0.2652958   0.9522943  )
        20           O   tau(  20) = (   0.0001301   0.7921650   0.0487559  )
        21           O   tau(  21) = (   0.5003924   0.2634346   0.0487559  )
        22           O   tau(  22) = (   0.5006526   0.7940261   0.9522943  )
        23           O   tau(  23) = (   0.0001301   0.2652958   0.5492809  )
        24           O   tau(  24) = (   1.0009148   0.7921650   0.4517692  )
        25           O   tau(  25) = (   0.7020282   0.2641643   0.7505974  )
        26           O   tau(  26) = (   0.2990168   0.7932965   0.2504528  )
        27           O   tau(  27) = (   0.7995393   0.2645661   0.2500723  )
        28           O   tau(  28) = (   0.2015057   0.7928946   0.7509778  )
        29           O   tau(  29) = (   0.2990168   0.2641643   0.7509778  )
        30           O   tau(  30) = (   0.7020282   0.7932965   0.2500723  )
        31           O   tau(  31) = (   0.2015057   0.2645661   0.2504528  )
        32           O   tau(  32) = (   0.7995393   0.7928946   0.7505974  )

     number of k points=    64  gaussian smearing, width (Ry)=  0.0007
                       cart. coord. in units 2pi/alat
        k(    1) = (   0.0000000   0.0000000   0.0000000), wk =   0.0092593
        k(    2) = (   0.0000000   0.0000000   0.1664918), wk =   0.0185185
        k(    3) = (   0.0000000   0.0000000   0.3329836), wk =   0.0185185
        k(    4) = (   0.0000000   0.0000000  -0.4994755), wk =   0.0092593
        k(    5) = (   0.0000000   0.1576103   0.0000000), wk =   0.0185185
        k(    6) = (   0.0000000   0.1576103   0.1664918), wk =   0.0370370
        k(    7) = (   0.0000000   0.1576103   0.3329836), wk =   0.0370370
        k(    8) = (   0.0000000   0.1576103  -0.4994755), wk =   0.0185185
        k(    9) = (   0.0000000   0.3152205   0.0000000), wk =   0.0185185
        k(   10) = (   0.0000000   0.3152205   0.1664918), wk =   0.0370370
        k(   11) = (   0.0000000   0.3152205   0.3329836), wk =   0.0370370
        k(   12) = (   0.0000000   0.3152205  -0.4994755), wk =   0.0185185
        k(   13) = (   0.0000000  -0.4728308   0.0000000), wk =   0.0092593
        k(   14) = (   0.0000000  -0.4728308   0.1664918), wk =   0.0185185
        k(   15) = (   0.0000000  -0.4728308   0.3329836), wk =   0.0185185
        k(   16) = (   0.0000000  -0.4728308  -0.4994755), wk =   0.0092593
        k(   17) = (   0.1664927   0.0000000   0.1664918), wk =   0.0370370
        k(   18) = (   0.1664927   0.0000000   0.3329836), wk =   0.0370370
        k(   19) = (   0.1664927   0.0000000  -0.4994755), wk =   0.0185185
        k(   20) = (   0.1664927   0.1576103   0.1664918), wk =   0.0740741
        k(   21) = (   0.1664927   0.1576103   0.3329836), wk =   0.0740741
        k(   22) = (   0.1664927   0.1576103  -0.4994755), wk =   0.0370370
        k(   23) = (   0.1664927   0.3152205   0.1664918), wk =   0.0740741
        k(   24) = (   0.1664927   0.3152205   0.3329836), wk =   0.0740741
        k(   25) = (   0.1664927   0.3152205  -0.4994755), wk =   0.0370370
        k(   26) = (   0.1664927  -0.4728308   0.1664918), wk =   0.0370370
        k(   27) = (   0.1664927  -0.4728308   0.3329836), wk =   0.0370370
        k(   28) = (   0.1664927  -0.4728308  -0.4994755), wk =   0.0185185
        k(   29) = (   0.3329854   0.0000000   0.3329836), wk =   0.0370370
        k(   30) = (   0.3329854   0.0000000  -0.4994755), wk =   0.0185185
        k(   31) = (   0.3329854   0.1576103   0.3329836), wk =   0.0740741
        k(   32) = (   0.3329854   0.1576103  -0.4994755), wk =   0.0370370
        k(   33) = (   0.3329854   0.3152205   0.3329836), wk =   0.0740741
        k(   34) = (   0.3329854   0.3152205  -0.4994755), wk =   0.0370370
        k(   35) = (   0.3329854  -0.4728308   0.3329836), wk =   0.0370370
        k(   36) = (   0.3329854  -0.4728308  -0.4994755), wk =   0.0185185
        k(   37) = (  -0.4994781   0.0000000  -0.4994755), wk =   0.0092593
        k(   38) = (  -0.4994781   0.1576103  -0.4994755), wk =   0.0185185
        k(   39) = (  -0.4994781   0.3152205  -0.4994755), wk =   0.0185185
        k(   40) = (  -0.4994781  -0.4728308  -0.4994755), wk =   0.0092593
        k(   41) = (   0.1664927   0.0000000   0.0000000), wk =   0.0185185
        k(   42) = (   0.3329854   0.0000000   0.0000000), wk =   0.0185185
        k(   43) = (  -0.4994781   0.0000000   0.0000000), wk =   0.0092593
        k(   44) = (   0.1664927  -0.1576103   0.0000000), wk =   0.0370370
        k(   45) = (   0.3329854  -0.1576103   0.0000000), wk =   0.0370370
        k(   46) = (  -0.4994781  -0.1576103   0.0000000), wk =   0.0185185
        k(   47) = (   0.1664927  -0.3152205   0.0000000), wk =   0.0370370
        k(   48) = (   0.3329854  -0.3152205   0.0000000), wk =   0.0370370
        k(   49) = (  -0.4994781  -0.3152205   0.0000000), wk =   0.0185185
        k(   50) = (   0.1664927   0.4728308   0.0000000), wk =   0.0185185
        k(   51) = (   0.3329854   0.4728308   0.0000000), wk =   0.0185185
        k(   52) = (  -0.4994781   0.4728308   0.0000000), wk =   0.0092593
        k(   53) = (   0.3329854   0.0000000   0.1664918), wk =   0.0370370
        k(   54) = (  -0.4994781   0.0000000   0.1664918), wk =   0.0185185
        k(   55) = (   0.3329854  -0.1576103   0.1664918), wk =   0.0740741
        k(   56) = (  -0.4994781  -0.1576103   0.1664918), wk =   0.0370370
        k(   57) = (   0.3329854  -0.3152205   0.1664918), wk =   0.0740741
        k(   58) = (  -0.4994781  -0.3152205   0.1664918), wk =   0.0370370
        k(   59) = (   0.3329854   0.4728308   0.1664918), wk =   0.0370370
        k(   60) = (  -0.4994781   0.4728308   0.1664918), wk =   0.0185185
        k(   61) = (  -0.4994781   0.0000000   0.3329836), wk =   0.0185185
        k(   62) = (  -0.4994781  -0.1576103   0.3329836), wk =   0.0370370
        k(   63) = (  -0.4994781  -0.3152205   0.3329836), wk =   0.0370370
        k(   64) = (  -0.4994781   0.4728308   0.3329836), wk =   0.0185185

     Initial potential from superposition of free atoms

     starting charge  367.99656, renormalised to  368.00000
     Starting wfcs are  232 randomized atomic wfcs

     Self-consistent Calculation

[...]

     total energy              =   -6261.10921828 Ry
     Harris-Foulkes estimate   =   -6261.10921828 Ry
     estimated scf accuracy    <          7.3E-10 Ry

     iteration # 14     ecut=   120.00 Ry     beta= 0.70
     Davidson diagonalization with overlap
     ethr =  1.98E-13,  avg # of iterations =  3.0

     End of self-consistent calculation

[...]

          k = 0.3330 0.4728 0.1665 ( 62332 PWs)   bands (ev):

[...]

          k =-0.4995 0.4728 0.3330 ( 62308 PWs)   bands (ev):

   -66.1993 -66.1993 -66.1993 -66.1993 -66.1988 -66.1988 -66.1988 -66.1988
   -30.5615 -30.5615 -30.5614 -30.5614 -30.5597 -30.5597 -30.5596 -30.5596
   -30.5152 -30.5152 -30.5151 -30.5151 -30.4918 -30.4918 -30.4917 -30.4917
   -30.4894 -30.4894 -30.4894 -30.4894 -30.4662 -30.4661 -30.4661 -30.4661
   -20.3606 -20.3605 -20.3605 -20.3605 -20.3605 -20.3605 -20.3605 -20.3605
   -20.3397 -20.3397 -20.3397 -20.3397 -20.3396 -20.3396 -20.3396 -20.3395
   -20.3371 -20.3371 -20.3371 -20.3371 -20.3369 -20.3368 -20.3368 -20.3368
   -20.3366 -20.3366 -20.3366 -20.3365 -20.3363 -20.3363 -20.3363 -20.3363
   -20.3284 -20.3284 -20.3284 -20.3284 -20.3279 -20.3278 -20.3278 -20.3278
   -20.3258 -20.3258 -20.3258 -20.3258 -20.3241 -20.3241 -20.3241 -20.3240
   -20.3237 -20.3237 -20.3237 -20.3237 -20.3222 -20.3222 -20.3221 -20.3221
    -9.2073  -9.2073  -9.2068  -9.2068  -8.8074  -8.8074  -8.8058  -8.8057
    -8.5714  -8.5714  -8.5679  -8.5679  -8.4073  -8.4073  -8.4014  -8.4014
    -8.3622  -8.3621  -8.3572  -8.3572  -8.1308  -8.1308  -8.1295  -8.1295
     2.2344   2.2344   2.2370   2.2370   2.9714   2.9714   2.9785   2.9785
     3.0940   3.0940   3.1029   3.1029   3.2382   3.2382   3.2681   3.2681
     3.3439   3.3439   3.3719   3.3719   3.6190   3.6190   3.6230   3.6230
     3.7473   3.7473   3.7848   3.7848   4.2356   4.2356   4.2660   4.2660
     4.3193   4.3193   4.3746   4.3747   4.4399   4.4399   4.5477   4.5477
     4.6338   4.6338   4.7872   4.7872   5.0395   5.0395   5.0523   5.0523
     7.0200   7.0200   7.0418   7.0418   7.1667   7.1667   7.1710   7.1710
     7.2555   7.2555   7.2982   7.2982   7.3089   7.3089   7.3792   7.3792
     7.4639   7.4639   7.5227   7.5227   7.5933   7.5933   7.6123   7.6123
    11.3794  11.3794  11.4084  11.4084  11.7252  11.7252  11.7901  11.7901
    12.1517  12.1517  12.1952  12.1952  12.3103  12.3103  12.3143  12.3143
    12.4678  12.4678  12.5649  12.5649  12.9559  12.9559  13.0308  13.0308
    16.4324  16.4324  16.4788  16.4788  17.0554  17.0554  17.0601  17.0602
    17.3034  17.3036  17.3486  17.3487  17.3651

     the Fermi energy is     8.5348 ev

!    total energy              =   -6261.10921828 Ry
     Harris-Foulkes estimate   =   -6261.10921828 Ry
     estimated scf accuracy    <          6.4E-11 Ry

     The total energy is the sum of the following terms:

     one-electron contribution =   -4727.68160200 Ry
     hartree contribution      =    2600.22182020 Ry
     xc contribution           =    -965.67143660 Ry
     ewald contribution        =   -3167.97799988 Ry
     smearing contrib. (-TS)   =      -0.00000000 Ry

     convergence has been achieved in  14 iterations

     Forces acting on atoms (cartesian axes, Ry/au):

     atom    1 type  1   force =    -0.00021284    0.00053991    0.00013939
     atom    2 type  1   force =     0.00021284   -0.00053991   -0.00013939
     atom    3 type  1   force =     0.00021284   -0.00053991    0.00013939
     atom    4 type  1   force =    -0.00021284    0.00053991   -0.00013939
     atom    5 type  1   force =     0.00021284    0.00053991   -0.00013939
     atom    6 type  1   force =    -0.00021284   -0.00053991    0.00013939
     atom    7 type  1   force =    -0.00021284   -0.00053991   -0.00013939
     atom    8 type  1   force =     0.00021284    0.00053991    0.00013939
     atom    9 type  2   force =    -0.00003955   -0.00286627    0.00001224
     atom   10 type  2   force =     0.00003955    0.00286627   -0.00001224
     atom   11 type  2   force =     0.00003955    0.00286627    0.00001224
     atom   12 type  2   force =    -0.00003955   -0.00286627   -0.00001224
     atom   13 type  2   force =     0.00003955   -0.00286627   -0.00001224
     atom   14 type  2   force =    -0.00003955    0.00286627    0.00001224
     atom   15 type  2   force =    -0.00003955    0.00286627   -0.00001224
     atom   16 type  2   force =     0.00003955   -0.00286627    0.00001224
     atom   17 type  2   force =    -0.00011851    0.00000838   -0.00041869
     atom   18 type  2   force =     0.00011851   -0.00000838    0.00041869
     atom   19 type  2   force =     0.00011851   -0.00000838   -0.00041869
     atom   20 type  2   force =    -0.00011851    0.00000838    0.00041869
     atom   21 type  2   force =     0.00011851    0.00000838    0.00041869
     atom   22 type  2   force =    -0.00011851   -0.00000838   -0.00041869
     atom   23 type  2   force =    -0.00011851   -0.00000838    0.00041869
     atom   24 type  2   force =     0.00011851    0.00000838   -0.00041869
     atom   25 type  2   force =    -0.00042184   -0.00008389    0.00006047
     atom   26 type  2   force =     0.00042184    0.00008389   -0.00006047
     atom   27 type  2   force =     0.00042184    0.00008389    0.00006047
     atom   28 type  2   force =    -0.00042184   -0.00008389   -0.00006047
     atom   29 type  2   force =     0.00042184   -0.00008389   -0.00006047
     atom   30 type  2   force =    -0.00042184    0.00008389    0.00006047
     atom   31 type  2   force =    -0.00042184    0.00008389   -0.00006047
     atom   32 type  2   force =     0.00042184   -0.00008389    0.00006047

     Total force =     0.000000     Total SCF correction =     0.000000

     Computing stress (Cartesian axis) and pressure

          total   stress  (Ry/bohr**3)                   (kbar)     P=    0.01
   0.00000024   0.00000000   0.00000000          0.04      0.00      0.00
   0.00000000  -0.00000019   0.00000000          0.00     -0.03      0.00
   0.00000000   0.00000000   0.00000024          0.00      0.00      0.04

     Writing output data file Landau_1.save/

     General routines

     Parallel routines

   This run was terminated on:   0:51: 4  21Nov2019

   JOB DONE.