     Program PWSCF v.6.2 (svn rev. 14038) starts on 30Apr2019 at 21: 5: 8

     K-points division:     npool     =      32
     Reading input from rscf.in

     Current dimensions of program PWSCF are:
     Max number of different atomic species (ntypx) = 10
     Max number of k-points (npk) =  40000
     Max angular momentum in pseudopotentials (lmaxx) =  3

     Subspace diagonalization in iterative solution of the eigenvalue problem:
     a serial algorithm will be used

     bravais-lattice index     =            0
     lattice parameter (alat)  =      13.8397  a.u.
     unit-cell volume          =    2804.9816 (a.u.)^3
     number of atoms/cell      =           32
     number of atomic types    =            2
     number of electrons       =       368.00
     number of Kohn-Sham states=          221
     kinetic-energy cutoff     =     120.0000  Ry
     charge density cutoff     =     480.0000  Ry
     convergence threshold     =      1.0E-08
     mixing beta               =       0.7000
     number of iterations used =            8  plain     mixing
     Exchange-correlation      = SLA PW NOGX NOGC ( 1  4  0  0 0 0)
     nstep                     =           50

     celldm(1)=  13.839685  celldm(2)=   0.000000  celldm(3)=   0.000000
     celldm(4)=   0.000000  celldm(5)=   0.000000  celldm(6)=   0.000000

     crystal axes: (cart. coord. in units of alat)
               a(1) = (   1.000000   0.000000   0.000000 )
               a(2) = (   0.000000   1.058160   0.000000 )
               a(3) = (   0.000000   0.000000   1.000000 )

     reciprocal axes: (cart. coord. in units 2 pi/alat)
               b(1) = (  1.000000  0.000000  0.000000 )
               b(2) = (  0.000000  0.945037  0.000000 )
               b(3) = (  0.000000  0.000000  1.000000 )

     PseudoPot. # 1 for W  read from file:
     /cluster/scratch/mnoe/QE/pps/W_ONCV_LDA-4.0.upf
     MD5 check sum: ba0307d5d4cd419d6f1d13dc49d7c13a
     Pseudo is Norm-conserving + core correction, Zval = 28.0
     Generated using ONCVPSP code by D. R. Hamann
     Using radial grid of 1380 points,  8 beta functions with:
                l(1) =   0
                l(2) =   0
                l(3) =   1
                l(4) =   1
                l(5) =   2
                l(6) =   2
                l(7) =   3
                l(8) =   3

     PseudoPot. # 2 for O  read from file:
     /cluster/scratch/mnoe/QE/pps/O_ONCV_LDA-3.0.upf
     MD5 check sum: a1bd6164e7280c17a38c229939bfbd54
     Pseudo is Norm-conserving + core correction, Zval =  6.0
     Generated using ONCVPSP code by D. R. Hamann
     Using radial grid of  926 points,  5 beta functions with:
                l(1) =   0
                l(2) =   0
                l(3) =   1
                l(4) =   1
                l(5) =   2

     atomic species   valence    mass     pseudopotential
        W             28.00   183.84000     W ( 1.00)
        O              6.00    15.99940     O ( 1.00)

      8 Sym. Ops. (no inversion) found ( 4 have fractional translation)

   Cartesian axes

     site n.     atom                  positions (alat units)
         1           W   tau(   1) = (   0.2536000   0.2982530   0.2501000  )
         2           W   tau(   2) = (  -0.2501000   0.7599071  -0.7464000  )
         3           W   tau(   3) = (   0.2464000   0.2308271   0.7501000  )
         4           W   tau(   4) = (   0.7501000   0.8273330   0.7536000  )
         5           W   tau(   5) = (   0.7464000   0.2982530   0.7499000  )
         6           W   tau(   6) = (   0.2501000   0.7599071   0.7464000  )
         7           W   tau(   7) = (  -0.2464000   0.2308271  -0.7501000  )
         8           W   tau(   8) = (   0.2499000   0.8273330   0.2464000  )
         9           O   tau(   9) = (   0.2539500   0.0088039   0.2528700  )
        10           O   tau(  10) = (  -0.2528699   1.0493562  -0.7460500  )
        11           O   tau(  11) = (   0.2460500   0.5202761   0.7528700  )
        12           O   tau(  12) = (   0.7528700   0.5378839   0.7539499  )
        13           O   tau(  13) = (   0.7460500   0.0088039   0.7471300  )
        14           O   tau(  14) = (   0.2528700   1.0493562   0.7460500  )
        15           O   tau(  15) = (  -0.2460500   0.5202761  -0.7528699  )
        16           O   tau(  16) = (   0.2471300   0.5378839   0.2460500  )
        17           O   tau(  17) = (   0.4987201   0.2690478   0.6995400  )
        18           O   tau(  18) = (   0.4997400   0.7907206   0.8004600  )
        19           O   tau(  19) = (  -0.9987201   0.2600322   1.1995400  )
        20           O   tau(  20) = (   0.0002600   0.7965193   0.3004600  )
        21           O   tau(  21) = (   0.5012799   0.2690478   0.3004600  )
        22           O   tau(  22) = (   0.5002600   0.7907206   1.1995400  )
        23           O   tau(  23) = (  -0.0012800   0.2600322   0.8004600  )
        24           O   tau(  24) = (  -1.0002600   0.7965193   0.6995400  )
        25           O   tau(  25) = (   0.6995400   0.2616407   2.0002600  )
        26           O   tau(  26) = (   0.3004600   0.7891122   0.4987200  )
        27           O   tau(  27) = (   0.8004600   0.2674394   0.5002600  )
        28           O   tau(  28) = (   0.1995400   0.7981278   1.9987201  )
        29           O   tau(  29) = (   0.3004600   0.2616407   0.9997400  )
        30           O   tau(  30) = (   0.6995400   0.7891122   0.5012800  )
        31           O   tau(  31) = (   0.1995400   0.2674394   0.4997400  )
        32           O   tau(  32) = (   0.8004600   0.7981278   1.0012799  )

     number of k points=    40  gaussian smearing, width (Ry)=  0.0007
                       cart. coord. in units 2pi/alat
        k(    1) = (   0.0000000   0.0000000   0.0000000), wk =   0.0092593
        k(    2) = (   0.0000000   0.0000000   0.1666667), wk =   0.0370370
        k(    3) = (   0.0000000   0.0000000   0.3333333), wk =   0.0370370
        k(    4) = (   0.0000000   0.0000000  -0.5000000), wk =   0.0185185
        k(    5) = (   0.0000000   0.1575061   0.0000000), wk =   0.0185185
        k(    6) = (   0.0000000   0.1575061   0.1666667), wk =   0.0740741
        k(    7) = (   0.0000000   0.1575061   0.3333333), wk =   0.0740741
        k(    8) = (   0.0000000   0.1575061  -0.5000000), wk =   0.0370370
        k(    9) = (   0.0000000   0.3150122   0.0000000), wk =   0.0185185
        k(   10) = (   0.0000000   0.3150122   0.1666667), wk =   0.0740741
        k(   11) = (   0.0000000   0.3150122   0.3333333), wk =   0.0740741
        k(   12) = (   0.0000000   0.3150122  -0.5000000), wk =   0.0370370
        k(   13) = (   0.0000000  -0.4725183   0.0000000), wk =   0.0092593
        k(   14) = (   0.0000000  -0.4725183   0.1666667), wk =   0.0370370
        k(   15) = (   0.0000000  -0.4725183   0.3333333), wk =   0.0370370
        k(   16) = (   0.0000000  -0.4725183  -0.5000000), wk =   0.0185185
        k(   17) = (   0.1666667   0.0000000   0.1666667), wk =   0.0370370
        k(   18) = (   0.1666667   0.0000000   0.3333333), wk =   0.0740741
        k(   19) = (   0.1666667   0.0000000  -0.5000000), wk =   0.0370370
        k(   20) = (   0.1666667   0.1575061   0.1666667), wk =   0.0740741
        k(   21) = (   0.1666667   0.1575061   0.3333333), wk =   0.1481481
        k(   22) = (   0.1666667   0.1575061  -0.5000000), wk =   0.0740741
        k(   23) = (   0.1666667   0.3150122   0.1666667), wk =   0.0740741
        k(   24) = (   0.1666667   0.3150122   0.3333333), wk =   0.1481481
        k(   25) = (   0.1666667   0.3150122  -0.5000000), wk =   0.0740741
        k(   26) = (   0.1666667  -0.4725183   0.1666667), wk =   0.0370370
        k(   27) = (   0.1666667  -0.4725183   0.3333333), wk =   0.0740741
        k(   28) = (   0.1666667  -0.4725183  -0.5000000), wk =   0.0370370
        k(   29) = (   0.3333333   0.0000000   0.3333333), wk =   0.0370370
        k(   30) = (   0.3333333   0.0000000  -0.5000000), wk =   0.0370370
        k(   31) = (   0.3333333   0.1575061   0.3333333), wk =   0.0740741
        k(   32) = (   0.3333333   0.1575061  -0.5000000), wk =   0.0740741
        k(   33) = (   0.3333333   0.3150122   0.3333333), wk =   0.0740741
        k(   34) = (   0.3333333   0.3150122  -0.5000000), wk =   0.0740741
        k(   35) = (   0.3333333  -0.4725183   0.3333333), wk =   0.0370370
        k(   36) = (   0.3333333  -0.4725183  -0.5000000), wk =   0.0370370
        k(   37) = (  -0.5000000   0.0000000  -0.5000000), wk =   0.0092593
        k(   38) = (  -0.5000000   0.1575061  -0.5000000), wk =   0.0185185
        k(   39) = (  -0.5000000   0.3150122  -0.5000000), wk =   0.0185185
        k(   40) = (  -0.5000000  -0.4725183  -0.5000000), wk =   0.0092593

     Initial potential from superposition of free atoms

     starting charge  367.99656, renormalised to  368.00000
     Starting wfc are  232 randomized atomic wfcs

     Self-consistent Calculation

     iteration #  1     ecut=   120.00 Ry     beta= 0.70
     Davidson diagonalization with overlap
     ethr =  1.00E-02,  avg # of iterations =  5.0

     total energy              =   -6253.97837950 Ry
     Harris-Foulkes estimate   =   -6264.58622761 Ry
     estimated scf accuracy    <      13.43135963 Ry

[...]

     End of self-consistent calculation

          k = 0.0000 0.0000 0.0000 ( 62239 PWs)   bands (ev):

   -66.1755 -66.1751 -66.1745 -66.1745 -66.1741 -66.1741 -66.1735 -66.1731
   -30.5676 -30.5641 -30.5641 -30.5608 -30.5228 -30.5214 -30.5180 -30.5170
   -30.5169 -30.5164 -30.5122 -30.5122 -30.5057 -30.5040 -30.5040 -30.5031
   -30.4207 -30.4207 -30.4169 -30.4169 -30.4169 -30.4159 -30.4130 -30.4121
   -20.3360 -20.3359 -20.3359 -20.3358 -20.3358 -20.3358 -20.3358 -20.3357
   -20.3180 -20.3178 -20.3178 -20.3175 -20.3136 -20.3133 -20.3131 -20.3130
   -20.3130 -20.3129 -20.3126 -20.3126 -20.3122 -20.3121 -20.3121 -20.3120
   -20.3118 -20.3117 -20.3117 -20.3116 -20.3109 -20.3109 -20.3108 -20.3104
   -20.3040 -20.3039 -20.3036 -20.3036 -20.3035 -20.3031 -20.3030 -20.3030
   -20.3012 -20.3012 -20.3012 -20.3011 -20.3010 -20.3008 -20.3008 -20.3008
   -20.2958 -20.2958 -20.2954 -20.2952 -20.2951 -20.2951 -20.2947 -20.2945
    -9.9507  -9.6768  -9.5071  -9.5071  -9.2443  -9.2443  -9.0661  -9.0555
    -9.0434  -8.8719  -8.8467  -8.8467  -7.8540  -7.7927  -7.7927  -7.7849
    -7.7842  -7.7608  -7.7576  -7.7404  -7.6301  -7.6301  -7.6083  -7.6083
     1.1844   1.1846   1.2680   1.2680   1.2852   1.2852   1.3731   1.6358
     1.6358   1.6364   1.6428   1.8574   2.3843   2.4576   2.5810   2.5844
     2.7309   2.7309   4.1328   4.1328   4.3526   4.3529   4.8341   4.8390
     4.8390   4.8438   4.8654   4.8654   5.0404   5.0404   5.0728   5.4449
     5.4449   5.5162   5.5162   5.5284   5.5284   5.5866   5.5866   5.8133
     5.8133   5.8787   5.8794   5.9367   5.9619   6.0291   6.0318   6.1033
     6.1036   6.2438   6.2442   6.5732   6.5732   6.8071   6.8071   6.8338
     6.8344   6.8778   7.0146   7.0171   7.0843   7.0844   7.3844   7.3844
     7.4303   7.4303   7.7757   7.7894   8.0735   8.0735   8.1406   8.1457
     9.2370   9.2432   9.9895   9.9908  10.0289  10.0289  12.2234  12.2234
[...]
W        0.246400012   0.218140012   0.750100028    0   0   0
W        0.750100024   0.781859972   0.753599988    0   0   0
W        0.746399976   0.281860003   0.749899988    0   0   0
W        0.250100012   0.718139997   0.746400028    0   0   0
W       -0.246399963   0.218140012  -0.750100011    0   0   0
W        0.249899972   0.781859972   0.246399976    0   0   0
O        0.253949965   0.008320000   0.252869975    0   0   0
O       -0.252869937   0.991680023  -0.746049987    0   0   0
O        0.246050019   0.491679992   0.752869969    0   0   0
O        0.752869975   0.508319977   0.753949948    0   0   0
O        0.746050025   0.008320000   0.747129981    0   0   0
O        0.252869986   0.991680023   0.746050002    0   0   0
O       -0.246049987   0.491679992  -0.752869937    0   0   0
O        0.247129998   0.508319977   0.246050025    0   0   0
O        0.498720063   0.254259994   0.699540004    0   0   0
O        0.499740041   0.747259949   0.800459963    0   0   0
O       -0.998720063   0.245739991   1.199540037    0   0   0
O        0.000260004   0.752739899   0.300460012    0   0   0
O        0.501279937   0.254259994   0.300460012    0   0   0
O        0.500259959   0.747259949   1.199540037    0   0   0
O       -0.001279958   0.245739991   0.800459963    0   0   0
O       -1.000260025   0.752739899   0.699540004    0   0   0
O        0.699540037   0.247260010   2.000259992    0   0   0
O        0.300459996   0.745739914   0.498720030    0   0   0
O        0.800459963   0.252739975   0.500259992    0   0   0
O        0.199540020   0.754259934   1.998720096    0   0   0
O        0.300459996   0.247260010   0.999740029    0   0   0
O        0.699540037   0.745739914   0.501279970    0   0   0
O        0.199540020   0.252739975   0.499740008    0   0   0
O        0.800459963   0.754259934   1.001279925    0   0   0
End final coordinates

     A final scf calculation at the relaxed structure.
     The G-vectors are recalculated for the final unit cell
     Results may differ from those at the preceding step.

     bravais-lattice index     =            0
     lattice parameter (alat)  =      13.8397  a.u.
     unit-cell volume          =    2803.9675 (a.u.)^3
     number of atoms/cell      =           32
     number of atomic types    =            2
     number of electrons       =       368.00
     number of Kohn-Sham states=          221
     kinetic-energy cutoff     =     120.0000  Ry
     charge density cutoff     =     480.0000  Ry
     convergence threshold     =      1.0E-10
     mixing beta               =       0.7000
     number of iterations used =            8  plain     mixing
     Exchange-correlation      = SLA PW NOGX NOGC ( 1  4  0  0 0 0)

     celldm(1)=  13.839685  celldm(2)=   0.000000  celldm(3)=   0.000000
     celldm(4)=   0.000000  celldm(5)=   0.000000  celldm(6)=   0.000000

     crystal axes: (cart. coord. in units of alat)
               a(1) = (   1.000027   0.000000   0.000000 )
               a(2) = (   0.000000   1.057721   0.000000 )
               a(3) = (   0.000000   0.000000   1.000027 )

     reciprocal axes: (cart. coord. in units 2 pi/alat)
               b(1) = (  0.999973  0.000000  0.000000 )
               b(2) = (  0.000000  0.945429  0.000000 )
               b(3) = (  0.000000  0.000000  0.999973 )

     PseudoPot. # 1 for W  read from file:
     /cluster/scratch/mnoe/QE/pps/W_ONCV_LDA-4.0.upf
     MD5 check sum: ba0307d5d4cd419d6f1d13dc49d7c13a
     Pseudo is Norm-conserving + core correction, Zval = 28.0
     Generated using ONCVPSP code by D. R. Hamann
     Using radial grid of 1380 points,  8 beta functions with:
                l(1) =   0
                l(2) =   0
                l(3) =   1
                l(4) =   1
                l(5) =   2
                l(6) =   2
                l(7) =   3
                l(8) =   3

     PseudoPot. # 2 for O  read from file:
     /cluster/scratch/mnoe/QE/pps/O_ONCV_LDA-3.0.upf
     MD5 check sum: a1bd6164e7280c17a38c229939bfbd54
     Pseudo is Norm-conserving + core correction, Zval =  6.0
     Generated using ONCVPSP code by D. R. Hamann
     Using radial grid of  926 points,  5 beta functions with:
                l(1) =   0
                l(2) =   0
                l(3) =   1
                l(4) =   1
                l(5) =   2

     atomic species   valence    mass     pseudopotential
        W             28.00   183.84000     W ( 1.00)
        O              6.00    15.99940     O ( 1.00)

      8 Sym. Ops. (no inversion) found ( 4 have fractional translation)

   Cartesian axes

     site n.     atom                  positions (alat units)
         1           W   tau(   1) = (   0.2536068   0.2981291   0.2501068  )
         2           W   tau(   2) = (  -0.2501067   0.7595915  -0.7464200  )
         3           W   tau(   3) = (   0.2464066   0.2307312   0.7501202  )
         4           W   tau(   4) = (   0.7501202   0.8269894   0.7536203  )
         5           W   tau(   5) = (   0.7464201   0.2981291   0.7499202  )
         6           W   tau(   6) = (   0.2501067   0.7595915   0.7464201  )
         7           W   tau(   7) = (  -0.2464066   0.2307312  -0.7501202  )
         8           W   tau(   8) = (   0.2499067   0.8269894   0.2464066  )
         9           O   tau(   9) = (   0.2539568   0.0088002   0.2528768  )
        10           O   tau(  10) = (  -0.2528767   1.0489204  -0.7460701  )
        11           O   tau(  11) = (   0.2460566   0.5200601   0.7528902  )
        12           O   tau(  12) = (   0.7528902   0.5376605   0.7539702  )
        13           O   tau(  13) = (   0.7460701   0.0088002   0.7471501  )
        14           O   tau(  14) = (   0.2528768   1.0489204   0.7460701  )
        15           O   tau(  15) = (  -0.2460566   0.5200601  -0.7528902  )
        16           O   tau(  16) = (   0.2471366   0.5376605   0.2460566  )
        17           O   tau(  17) = (   0.4987335   0.2689360   0.6995588  )
        18           O   tau(  18) = (   0.4997535   0.7903923   0.8004815  )
        19           O   tau(  19) = (  -0.9987469   0.2599243   1.1995723  )
        20           O   tau(  20) = (   0.0002600   0.7961885   0.3004681  )
        21           O   tau(  21) = (   0.5012934   0.2689360   0.3004681  )
        22           O   tau(  22) = (   0.5002734   0.7903923   1.1995723  )
        23           O   tau(  23) = (  -0.0012800   0.2599243   0.8004815  )
        24           O   tau(  24) = (  -1.0002869   0.7961885   0.6995588  )
        25           O   tau(  25) = (   0.6995589   0.2615320   2.0003138  )
        26           O   tau(  26) = (   0.3004681   0.7887845   0.4987334  )
        27           O   tau(  27) = (   0.8004815   0.2673283   0.5002734  )
        28           O   tau(  28) = (   0.1995454   0.7977963   1.9987739  )
        29           O   tau(  29) = (   0.3004681   0.2615320   0.9997669  )
        30           O   tau(  30) = (   0.6995589   0.7887845   0.5012935  )
        31           O   tau(  31) = (   0.1995454   0.2673283   0.4997534  )
        32           O   tau(  32) = (   0.8004815   0.7977963   1.0013069  )

     number of k points=    40  gaussian smearing, width (Ry)=  0.0007
                       cart. coord. in units 2pi/alat
        k(    1) = (   0.0000000   0.0000000   0.0000000), wk =   0.0092593
        k(    2) = (   0.0000000   0.0000000   0.1666622), wk =   0.0370370
        k(    3) = (   0.0000000   0.0000000   0.3333244), wk =   0.0370370
        k(    4) = (   0.0000000   0.0000000  -0.4999866), wk =   0.0185185
        k(    5) = (   0.0000000   0.1575715   0.0000000), wk =   0.0185185
        k(    6) = (   0.0000000   0.1575715   0.1666622), wk =   0.0740741
        k(    7) = (   0.0000000   0.1575715   0.3333244), wk =   0.0740741
        k(    8) = (   0.0000000   0.1575715  -0.4999866), wk =   0.0370370
        k(    9) = (   0.0000000   0.3151431   0.0000000), wk =   0.0185185
        k(   10) = (   0.0000000   0.3151431   0.1666622), wk =   0.0740741
        k(   11) = (   0.0000000   0.3151431   0.3333244), wk =   0.0740741
        k(   12) = (   0.0000000   0.3151431  -0.4999866), wk =   0.0370370
        k(   13) = (   0.0000000  -0.4727146   0.0000000), wk =   0.0092593
        k(   14) = (   0.0000000  -0.4727146   0.1666622), wk =   0.0370370
        k(   15) = (   0.0000000  -0.4727146   0.3333244), wk =   0.0370370
        k(   16) = (   0.0000000  -0.4727146  -0.4999866), wk =   0.0185185
        k(   17) = (   0.1666622   0.0000000   0.1666622), wk =   0.0370370
        k(   18) = (   0.1666622   0.0000000   0.3333244), wk =   0.0740741
        k(   19) = (   0.1666622   0.0000000  -0.4999866), wk =   0.0370370
        k(   20) = (   0.1666622   0.1575715   0.1666622), wk =   0.0740741
        k(   21) = (   0.1666622   0.1575715   0.3333244), wk =   0.1481481
        k(   22) = (   0.1666622   0.1575715  -0.4999866), wk =   0.0740741
        k(   23) = (   0.1666622   0.3151431   0.1666622), wk =   0.0740741
        k(   24) = (   0.1666622   0.3151431   0.3333244), wk =   0.1481481
        k(   25) = (   0.1666622   0.3151431  -0.4999866), wk =   0.0740741
        k(   26) = (   0.1666622  -0.4727146   0.1666622), wk =   0.0370370
        k(   27) = (   0.1666622  -0.4727146   0.3333244), wk =   0.0740741
        k(   28) = (   0.1666622  -0.4727146  -0.4999866), wk =   0.0370370
        k(   29) = (   0.3333244   0.0000000   0.3333244), wk =   0.0370370
        k(   30) = (   0.3333244   0.0000000  -0.4999866), wk =   0.0370370
        k(   31) = (   0.3333244   0.1575715   0.3333244), wk =   0.0740741
        k(   32) = (   0.3333244   0.1575715  -0.4999866), wk =   0.0740741
        k(   33) = (   0.3333244   0.3151431   0.3333244), wk =   0.0740741
        k(   34) = (   0.3333244   0.3151431  -0.4999866), wk =   0.0740741
        k(   35) = (   0.3333244  -0.4727146   0.3333244), wk =   0.0370370
        k(   36) = (   0.3333244  -0.4727146  -0.4999866), wk =   0.0370370
        k(   37) = (  -0.4999866   0.0000000  -0.4999866), wk =   0.0092593
        k(   38) = (  -0.4999866   0.1575715  -0.4999866), wk =   0.0185185
        k(   39) = (  -0.4999866   0.3151431  -0.4999866), wk =   0.0185185
        k(   40) = (  -0.4999866  -0.4727146  -0.4999866), wk =   0.0092593

     Initial potential from superposition of free atoms

     starting charge  367.99656, renormalised to  368.00000
     Starting wfc are  232 randomized atomic wfcs

     Writing output data file Landau_4.save

     Self-consistent Calculation

[...]

     total energy              =   -6261.10964195 Ry
     Harris-Foulkes estimate   =   -6261.10964195 Ry
     estimated scf accuracy    <          5.3E-10 Ry

     iteration # 14     ecut=   120.00 Ry     beta= 0.70
     Davidson diagonalization with overlap
     ethr =  1.43E-13,  avg # of iterations =  2.0

     End of self-consistent calculation

[...]

          k = 0.3333-0.4727-0.5000 ( 62180 PWs)   bands (ev):

[...]

          k =-0.5000-0.4727-0.5000 ( 62224 PWs)   bands (ev):

   -66.1673 -66.1673 -66.1673 -66.1673 -66.1673 -66.1673 -66.1673 -66.1673
   -30.5317 -30.5317 -30.5315 -30.5315 -30.5315 -30.5315 -30.5314 -30.5314
   -30.4612 -30.4612 -30.4612 -30.4612 -30.4610 -30.4610 -30.4608 -30.4608
   -30.4572 -30.4572 -30.4571 -30.4571 -30.4570 -30.4570 -30.4570 -30.4569
   -20.3285 -20.3285 -20.3285 -20.3285 -20.3285 -20.3285 -20.3285 -20.3285
   -20.3080 -20.3080 -20.3080 -20.3080 -20.3080 -20.3080 -20.3080 -20.3080
   -20.3051 -20.3051 -20.3051 -20.3050 -20.3050 -20.3050 -20.3050 -20.3050
   -20.3042 -20.3042 -20.3042 -20.3042 -20.3042 -20.3042 -20.3042 -20.3042
   -20.2953 -20.2953 -20.2953 -20.2953 -20.2953 -20.2953 -20.2953 -20.2953
   -20.2920 -20.2920 -20.2920 -20.2920 -20.2920 -20.2920 -20.2920 -20.2920
   -20.2906 -20.2906 -20.2906 -20.2906 -20.2906 -20.2906 -20.2906 -20.2905
    -8.9339  -8.9339  -8.9291  -8.9291  -8.9291  -8.9291  -8.9271  -8.9270
    -8.4178  -8.4177  -8.4120  -8.4120  -8.4119  -8.4119  -8.4092  -8.4092
    -8.3349  -8.3349  -8.3337  -8.3337  -8.3337  -8.3337  -8.3266  -8.3266
     2.9909   2.9909   2.9955   2.9956   2.9956   2.9956   3.0022   3.0022
     3.1395   3.1395   3.1473   3.1474   3.1474   3.1474   3.1571   3.1571
     3.4204   3.4205   3.4538   3.4538   3.4539   3.4539   3.4803   3.4804
     4.1504   4.1504   4.1574   4.1574   4.1574   4.1574   4.1612   4.1612
     4.3823   4.3823   4.3823   4.3823   4.3857   4.3858   4.3869   4.3869
     4.4640   4.4640   4.4745   4.4745   4.4745   4.4745   4.4788   4.4788
     7.1753   7.1754   7.2101   7.2101   7.2102   7.2102   7.2494   7.2495
     7.3375   7.3375   7.3418   7.3418   7.3418   7.3418   7.3442   7.3443
     7.5994   7.5994   7.6082   7.6082   7.6082   7.6082   7.6189   7.6189
    11.8004  11.8004  11.8020  11.8020  11.8020  11.8020  11.8050  11.8050
    12.2573  12.2573  12.2879  12.2879  12.2879  12.2879  12.3236  12.3237
    12.5242  12.5242  12.5401  12.5401  12.5401  12.5401  12.5522  12.5522
    17.1567  17.1567  17.1700  17.1700  17.1701  17.1701  17.1811  17.1812
    17.3705  17.3705  17.3705  17.3705  17.3780

     the Fermi energy is     9.1391 ev

!    total energy              =   -6261.10964195 Ry
     Harris-Foulkes estimate   =   -6261.10964195 Ry
     estimated scf accuracy    <          7.4E-11 Ry

     The total energy is the sum of the following terms:

     one-electron contribution =   -4720.05270511 Ry
     hartree contribution      =    2596.81067667 Ry
     xc contribution           =    -965.66922604 Ry
     ewald contribution        =   -3172.19838748 Ry
     smearing contrib. (-TS)   =      -0.00000000 Ry

     convergence has been achieved in  14 iterations

     Forces acting on atoms (cartesian axes, Ry/au):

     atom    1 type  1   force =     0.00110730   -0.00019789    0.00023488
     atom    2 type  1   force =    -0.00023488    0.00019789    0.00110730
     atom    3 type  1   force =    -0.00110730    0.00019789    0.00023488
     atom    4 type  1   force =     0.00023488   -0.00019789    0.00110730
     atom    5 type  1   force =    -0.00110730   -0.00019789   -0.00023488
     atom    6 type  1   force =     0.00023488    0.00019789   -0.00110730
     atom    7 type  1   force =     0.00110730    0.00019789   -0.00023488
     atom    8 type  1   force =    -0.00023488   -0.00019789   -0.00110730
     atom    9 type  2   force =     0.00023043    0.00013698    0.00003125
     atom   10 type  2   force =    -0.00003125   -0.00013698    0.00023043
     atom   11 type  2   force =    -0.00023043   -0.00013698    0.00003125
     atom   12 type  2   force =     0.00003125    0.00013698    0.00023043
     atom   13 type  2   force =    -0.00023043    0.00013698   -0.00003125
     atom   14 type  2   force =     0.00003125   -0.00013698   -0.00023043
     atom   15 type  2   force =     0.00023043   -0.00013698   -0.00003125
     atom   16 type  2   force =    -0.00003125    0.00013698   -0.00023043
     atom   17 type  2   force =     0.00056789    0.00031310    0.00000973
     atom   18 type  2   force =    -0.00011065    0.00039752   -0.00005943
     atom   19 type  2   force =    -0.00056789   -0.00031310    0.00000973
     atom   20 type  2   force =     0.00011065   -0.00039752   -0.00005943
     atom   21 type  2   force =    -0.00056789    0.00031310   -0.00000973
     atom   22 type  2   force =     0.00011065    0.00039752    0.00005943
     atom   23 type  2   force =     0.00056789   -0.00031310   -0.00000973
     atom   24 type  2   force =    -0.00011065   -0.00039752    0.00005943
     atom   25 type  2   force =     0.00005943    0.00039752    0.00011065
     atom   26 type  2   force =    -0.00000973   -0.00031310    0.00056789
     atom   27 type  2   force =    -0.00005943   -0.00039752    0.00011065
     atom   28 type  2   force =     0.00000973    0.00031310    0.00056789
     atom   29 type  2   force =    -0.00005943    0.00039752   -0.00011065
     atom   30 type  2   force =     0.00000973   -0.00031310   -0.00056789
     atom   31 type  2   force =     0.00005943   -0.00039752   -0.00011065
     atom   32 type  2   force =    -0.00000973    0.00031310   -0.00056789

     Total force =     0.000000     Total SCF correction =     0.000000

     Computing stress (Cartesian axis) and pressure

          total   stress  (Ry/bohr**3)                   (kbar)     P=   -0.02
  -0.00000013   0.00000000   0.00000000         -0.02      0.00      0.00
   0.00000000  -0.00000022   0.00000000          0.00     -0.03      0.00
   0.00000000   0.00000000  -0.00000013          0.00      0.00     -0.02

     Writing output data file Landau_4.save

     General routines

     Parallel routines

   This run was terminated on:  23:14:58  30Apr2019

   JOB DONE.