     Program PWSCF v.6.4.1 starts on 20Nov2019 at 23:14: 8

     K-points division:     npool     =      64
     Reading input from rscf.in

     Current dimensions of program PWSCF are:
     Max number of different atomic species (ntypx) = 10
     Max number of k-points (npk) =  40000
     Max angular momentum in pseudopotentials (lmaxx) =  3

     Subspace diagonalization in iterative solution of the eigenvalue problem:
     a serial algorithm will be used

     Message from routine setup:
     using ibrav=0 with symmetry is DISCOURAGED, use correct ibrav instead

     bravais-lattice index     =            0
     lattice parameter (alat)  =      13.8397  a.u.
     unit-cell volume          =    2804.9816 (a.u.)^3
     number of atoms/cell      =           32
     number of atomic types    =            2
     number of electrons       =       368.00
     number of Kohn-Sham states=          221
     kinetic-energy cutoff     =     120.0000  Ry
     charge density cutoff     =     480.0000  Ry
     convergence threshold     =      1.0E-08
     mixing beta               =       0.7000
     number of iterations used =            8  plain     mixing
     Exchange-correlation      = SLA PW NOGX NOGC ( 1  4  0  0 0 0)
     nstep                     =           50

     celldm(1)=  13.839685  celldm(2)=   0.000000  celldm(3)=   0.000000
     celldm(4)=   0.000000  celldm(5)=   0.000000  celldm(6)=   0.000000

     crystal axes: (cart. coord. in units of alat)
               a(1) = (   1.000000   0.000000   0.000000 )
               a(2) = (   0.000000   1.058160   0.000000 )
               a(3) = (   0.000000   0.000000   1.000000 )

     reciprocal axes: (cart. coord. in units 2 pi/alat)
               b(1) = (  1.000000  0.000000  0.000000 )
               b(2) = (  0.000000  0.945037  0.000000 )
               b(3) = (  0.000000  0.000000  1.000000 )

     PseudoPot. # 1 for W  read from file:
     /cluster/scratch/mnoe/QE/pps/W_ONCV_LDA-4.0.upf
     MD5 check sum: ba0307d5d4cd419d6f1d13dc49d7c13a
     Pseudo is Norm-conserving + core correction, Zval = 28.0
     Generated using ONCVPSP code by D. R. Hamann
     Using radial grid of 1380 points,  8 beta functions with:
                l(1) =   0
                l(2) =   0
                l(3) =   1
                l(4) =   1
                l(5) =   2
                l(6) =   2
                l(7) =   3
                l(8) =   3

     PseudoPot. # 2 for O  read from file:
     /cluster/scratch/mnoe/QE/pps/O_ONCV_LDA-3.0.upf
     MD5 check sum: b55cdb4f45ae2203d24ad12cf8d61a31
     Pseudo is Norm-conserving + core correction, Zval =  6.0
     Generated using ONCVPSP code by D. R. Hamann
     Using radial grid of  926 points,  5 beta functions with:
                l(1) =   0
                l(2) =   0
                l(3) =   1
                l(4) =   1
                l(5) =   2

     atomic species   valence    mass     pseudopotential
        W             28.00   183.84000     W ( 1.00)
        O              6.00    15.99940     O ( 1.00)

      8 Sym. Ops., with inversion, found ( 6 have fractional translation)

   Cartesian axes

     site n.     atom                  positions (alat units)
         1           W   tau(   1) = (   0.2416800   0.3047213   0.0078600  )
         2           W   tau(   2) = (   0.7583200   0.7534388   0.9921400  )
         3           W   tau(   3) = (   0.2583200   0.2243587   0.5078600  )
         4           W   tau(   4) = (   0.7416800   0.8338013   0.4921400  )
         5           W   tau(   5) = (   0.7583200   0.3047213   0.4921400  )
         6           W   tau(   6) = (   0.2416800   0.7534388   0.5078600  )
         7           W   tau(   7) = (   0.7416800   0.2243587   0.9921400  )
         8           W   tau(   8) = (   0.2583200   0.8338013   0.0078600  )
         9           O   tau(   9) = (   0.2346400   0.0210434   0.0024500  )
        10           O   tau(  10) = (   0.7653600   1.0371167   0.9975500  )
        11           O   tau(  11) = (   0.2653600   0.5080366   0.5024500  )
        12           O   tau(  12) = (   0.7346400   0.5501235   0.4975500  )
        13           O   tau(  13) = (   0.7653600   0.0210434   0.4975500  )
        14           O   tau(  14) = (   0.2346400   1.0371167   0.5024500  )
        15           O   tau(  15) = (   0.7346400   0.5080366   0.9975500  )
        16           O   tau(  16) = (   0.2653600   0.5501235   0.0024500  )
        17           O   tau(  17) = (   0.5022800   0.2478740   0.4811354  )
        18           O   tau(  18) = (   0.4977200   0.8102861   0.5188646  )
        19           O   tau(  19) = (   0.9977200   0.2812060   0.9811354  )
        20           O   tau(  20) = (   0.0022800   0.7769541   0.0188646  )
        21           O   tau(  21) = (   0.4977200   0.2478740   0.0188646  )
        22           O   tau(  22) = (   0.5022800   0.8102861   0.9811354  )
        23           O   tau(  23) = (   0.0022800   0.2812060   0.5188646  )
        24           O   tau(  24) = (   0.9977200   0.7769541   0.4811354  )
        25           O   tau(  25) = (   0.7311355   0.2609000   0.7465500  )
        26           O   tau(  26) = (   0.2688646   0.7972601   0.2534500  )
        27           O   tau(  27) = (   0.7688646   0.2681801   0.2465501  )
        28           O   tau(  28) = (   0.2311354   0.7899799   0.7534500  )
        29           O   tau(  29) = (   0.2688646   0.2609000   0.7534500  )
        30           O   tau(  30) = (   0.7311355   0.7972601   0.2465501  )
        31           O   tau(  31) = (   0.2311354   0.2681801   0.2534500  )
        32           O   tau(  32) = (   0.7688646   0.7899799   0.7465500  )

     number of k points=    64  gaussian smearing, width (Ry)=  0.0007
                       cart. coord. in units 2pi/alat
        k(    1) = (   0.0000000   0.0000000   0.0000000), wk =   0.0092593
        k(    2) = (   0.0000000   0.0000000   0.1666667), wk =   0.0185185
        k(    3) = (   0.0000000   0.0000000   0.3333333), wk =   0.0185185
        k(    4) = (   0.0000000   0.0000000  -0.5000000), wk =   0.0092593
        k(    5) = (   0.0000000   0.1575061   0.0000000), wk =   0.0185185
        k(    6) = (   0.0000000   0.1575061   0.1666667), wk =   0.0370370
        k(    7) = (   0.0000000   0.1575061   0.3333333), wk =   0.0370370
        k(    8) = (   0.0000000   0.1575061  -0.5000000), wk =   0.0185185
        k(    9) = (   0.0000000   0.3150122   0.0000000), wk =   0.0185185
        k(   10) = (   0.0000000   0.3150122   0.1666667), wk =   0.0370370
        k(   11) = (   0.0000000   0.3150122   0.3333333), wk =   0.0370370
        k(   12) = (   0.0000000   0.3150122  -0.5000000), wk =   0.0185185
        k(   13) = (   0.0000000  -0.4725183   0.0000000), wk =   0.0092593
        k(   14) = (   0.0000000  -0.4725183   0.1666667), wk =   0.0185185
        k(   15) = (   0.0000000  -0.4725183   0.3333333), wk =   0.0185185
        k(   16) = (   0.0000000  -0.4725183  -0.5000000), wk =   0.0092593
        k(   17) = (   0.1666667   0.0000000   0.1666667), wk =   0.0370370
        k(   18) = (   0.1666667   0.0000000   0.3333333), wk =   0.0370370
        k(   19) = (   0.1666667   0.0000000  -0.5000000), wk =   0.0185185
        k(   20) = (   0.1666667   0.1575061   0.1666667), wk =   0.0740741
        k(   21) = (   0.1666667   0.1575061   0.3333333), wk =   0.0740741
        k(   22) = (   0.1666667   0.1575061  -0.5000000), wk =   0.0370370
        k(   23) = (   0.1666667   0.3150122   0.1666667), wk =   0.0740741
        k(   24) = (   0.1666667   0.3150122   0.3333333), wk =   0.0740741
        k(   25) = (   0.1666667   0.3150122  -0.5000000), wk =   0.0370370
        k(   26) = (   0.1666667  -0.4725183   0.1666667), wk =   0.0370370
        k(   27) = (   0.1666667  -0.4725183   0.3333333), wk =   0.0370370
        k(   28) = (   0.1666667  -0.4725183  -0.5000000), wk =   0.0185185
        k(   29) = (   0.3333333   0.0000000   0.3333333), wk =   0.0370370
        k(   30) = (   0.3333333   0.0000000  -0.5000000), wk =   0.0185185
        k(   31) = (   0.3333333   0.1575061   0.3333333), wk =   0.0740741
        k(   32) = (   0.3333333   0.1575061  -0.5000000), wk =   0.0370370
        k(   33) = (   0.3333333   0.3150122   0.3333333), wk =   0.0740741
        k(   34) = (   0.3333333   0.3150122  -0.5000000), wk =   0.0370370
        k(   35) = (   0.3333333  -0.4725183   0.3333333), wk =   0.0370370
        k(   36) = (   0.3333333  -0.4725183  -0.5000000), wk =   0.0185185
        k(   37) = (  -0.5000000   0.0000000  -0.5000000), wk =   0.0092593
        k(   38) = (  -0.5000000   0.1575061  -0.5000000), wk =   0.0185185
        k(   39) = (  -0.5000000   0.3150122  -0.5000000), wk =   0.0185185
        k(   40) = (  -0.5000000  -0.4725183  -0.5000000), wk =   0.0092593
        k(   41) = (   0.1666667   0.0000000   0.0000000), wk =   0.0185185
        k(   42) = (   0.3333333   0.0000000   0.0000000), wk =   0.0185185
        k(   43) = (  -0.5000000   0.0000000   0.0000000), wk =   0.0092593
        k(   44) = (   0.1666667  -0.1575061   0.0000000), wk =   0.0370370
        k(   45) = (   0.3333333  -0.1575061   0.0000000), wk =   0.0370370
        k(   46) = (  -0.5000000  -0.1575061   0.0000000), wk =   0.0185185
        k(   47) = (   0.1666667  -0.3150122   0.0000000), wk =   0.0370370
        k(   48) = (   0.3333333  -0.3150122   0.0000000), wk =   0.0370370
        k(   49) = (  -0.5000000  -0.3150122   0.0000000), wk =   0.0185185
        k(   50) = (   0.1666667   0.4725183   0.0000000), wk =   0.0185185
        k(   51) = (   0.3333333   0.4725183   0.0000000), wk =   0.0185185
        k(   52) = (  -0.5000000   0.4725183   0.0000000), wk =   0.0092593
        k(   53) = (   0.3333333   0.0000000   0.1666667), wk =   0.0370370
        k(   54) = (  -0.5000000   0.0000000   0.1666667), wk =   0.0185185
        k(   55) = (   0.3333333  -0.1575061   0.1666667), wk =   0.0740741
        k(   56) = (  -0.5000000  -0.1575061   0.1666667), wk =   0.0370370
        k(   57) = (   0.3333333  -0.3150122   0.1666667), wk =   0.0740741
        k(   58) = (  -0.5000000  -0.3150122   0.1666667), wk =   0.0370370
        k(   59) = (   0.3333333   0.4725183   0.1666667), wk =   0.0370370
        k(   60) = (  -0.5000000   0.4725183   0.1666667), wk =   0.0185185
        k(   61) = (  -0.5000000   0.0000000   0.3333333), wk =   0.0185185
        k(   62) = (  -0.5000000  -0.1575061   0.3333333), wk =   0.0370370
        k(   63) = (  -0.5000000  -0.3150122   0.3333333), wk =   0.0370370
        k(   64) = (  -0.5000000   0.4725183   0.3333333), wk =   0.0185185

     Initial potential from superposition of free atoms

     starting charge  367.99656, renormalised to  368.00000
     Starting wfcs are  232 randomized atomic wfcs

     Self-consistent Calculation

     iteration #  1     ecut=   120.00 Ry     beta= 0.70
     Davidson diagonalization with overlap
     ethr =  1.00E-02,  avg # of iterations =  5.2

     total energy              =   -6253.93284900 Ry
     Harris-Foulkes estimate   =   -6264.54566255 Ry
[...]
End final coordinates

     Writing output data file Landau_18.save/

     Final scf calculation at the relaxed structure.
     The G-vectors are recalculated for the final unit cell
     Results may differ from those at the preceding step.

     bravais-lattice index     =            0
     lattice parameter (alat)  =      13.8397  a.u.
     unit-cell volume          =    2844.4893 (a.u.)^3
     number of atoms/cell      =           32
     number of atomic types    =            2
     number of electrons       =       368.00
     number of Kohn-Sham states=          221
     kinetic-energy cutoff     =     120.0000  Ry
     charge density cutoff     =     480.0000  Ry
     convergence threshold     =      1.0E-10
     mixing beta               =       0.7000
     number of iterations used =            8  plain     mixing
     Exchange-correlation      = SLA PW NOGX NOGC ( 1  4  0  0 0 0)

     celldm(1)=  13.839685  celldm(2)=   0.000000  celldm(3)=   0.000000
     celldm(4)=   0.000000  celldm(5)=   0.000000  celldm(6)=   0.000000

     crystal axes: (cart. coord. in units of alat)
               a(1) = (   1.013843   0.000000   0.000000 )
               a(2) = (   0.000000   1.043880   0.000000 )
               a(3) = (   0.000000   0.000000   1.013922 )

     reciprocal axes: (cart. coord. in units 2 pi/alat)
               b(1) = (  0.986346  0.000000  0.000000 )
               b(2) = (  0.000000  0.957965  0.000000 )
               b(3) = (  0.000000  0.000000  0.986269 )

     PseudoPot. # 1 for W  read from file:
     /cluster/scratch/mnoe/QE/pps/W_ONCV_LDA-4.0.upf
     MD5 check sum: ba0307d5d4cd419d6f1d13dc49d7c13a
     Pseudo is Norm-conserving + core correction, Zval = 28.0
     Generated using ONCVPSP code by D. R. Hamann
     Using radial grid of 1380 points,  8 beta functions with:
                l(1) =   0
                l(2) =   0
                l(3) =   1
                l(4) =   1
                l(5) =   2
                l(6) =   2
                l(7) =   3
                l(8) =   3

     PseudoPot. # 2 for O  read from file:
     /cluster/scratch/mnoe/QE/pps/O_ONCV_LDA-3.0.upf
     MD5 check sum: b55cdb4f45ae2203d24ad12cf8d61a31
     Pseudo is Norm-conserving + core correction, Zval =  6.0
     Generated using ONCVPSP code by D. R. Hamann
     Using radial grid of  926 points,  5 beta functions with:
                l(1) =   0
                l(2) =   0
                l(3) =   1
                l(4) =   1
                l(5) =   2

     atomic species   valence    mass     pseudopotential
        W             28.00   183.84000     W ( 1.00)
        O              6.00    15.99940     O ( 1.00)

      8 Sym. Ops., with inversion, found ( 6 have fractional translation)

   Cartesian axes

     site n.     atom                  positions (alat units)
         1           W   tau(   1) = (   0.2450256   0.3006090   0.0079694  )
         2           W   tau(   2) = (   0.7688175   0.7432708   1.0059523  )
         3           W   tau(   3) = (   0.2618959   0.2213309   0.5149303  )
         4           W   tau(   4) = (   0.7519471   0.8225488   0.4989914  )
         5           W   tau(   5) = (   0.7688175   0.3006090   0.4989914  )
         6           W   tau(   6) = (   0.2450256   0.7432708   0.5149303  )
         7           W   tau(   7) = (   0.7519471   0.2213309   1.0059523  )
         8           W   tau(   8) = (   0.2618959   0.8225488   0.0079694  )
         9           O   tau(   9) = (   0.2378881   0.0207594   0.0024841  )
        10           O   tau(  10) = (   0.7759550   1.0231203   1.0114377  )
        11           O   tau(  11) = (   0.2690334   0.5011804   0.5094450  )
        12           O   tau(  12) = (   0.7448097   0.5426993   0.5044768  )
        13           O   tau(  13) = (   0.7759550   0.0207594   0.5044768  )
        14           O   tau(  14) = (   0.2378881   1.0231203   0.5094450  )
        15           O   tau(  15) = (   0.7448097   0.5011804   1.0114377  )
        16           O   tau(  16) = (   0.2690334   0.5426993   0.0024841  )
        17           O   tau(  17) = (   0.5092331   0.2445288   0.4878337  )
        18           O   tau(  18) = (   0.5046100   0.7993509   0.5260881  )
        19           O   tau(  19) = (   1.0115315   0.2774110   0.9947946  )
        20           O   tau(  20) = (   0.0023116   0.7664687   0.0191272  )
        21           O   tau(  21) = (   0.5046100   0.2445288   0.0191272  )
        22           O   tau(  22) = (   0.5092331   0.7993509   0.9947946  )
        23           O   tau(  23) = (   0.0023116   0.2774110   0.5260881  )
        24           O   tau(  24) = (   1.0115315   0.7664687   0.4878337  )
        25           O   tau(  25) = (   0.7412567   0.2573790   0.7569433  )
        26           O   tau(  26) = (   0.2725865   0.7865008   0.2569784  )
        27           O   tau(  27) = (   0.7795080   0.2645609   0.2499825  )
        28           O   tau(  28) = (   0.2343351   0.7793188   0.7639393  )
        29           O   tau(  29) = (   0.2725865   0.2573790   0.7639393  )
        30           O   tau(  30) = (   0.7412567   0.7865008   0.2499825  )
        31           O   tau(  31) = (   0.2343351   0.2645609   0.2569784  )
        32           O   tau(  32) = (   0.7795080   0.7793188   0.7569433  )

     number of k points=    64  gaussian smearing, width (Ry)=  0.0007
                       cart. coord. in units 2pi/alat
        k(    1) = (   0.0000000   0.0000000   0.0000000), wk =   0.0092593
        k(    2) = (   0.0000000   0.0000000   0.1643782), wk =   0.0185185
        k(    3) = (   0.0000000   0.0000000   0.3287565), wk =   0.0185185
        k(    4) = (   0.0000000   0.0000000  -0.4931347), wk =   0.0092593
        k(    5) = (   0.0000000   0.1596608   0.0000000), wk =   0.0185185
        k(    6) = (   0.0000000   0.1596608   0.1643782), wk =   0.0370370
        k(    7) = (   0.0000000   0.1596608   0.3287565), wk =   0.0370370
        k(    8) = (   0.0000000   0.1596608  -0.4931347), wk =   0.0185185
        k(    9) = (   0.0000000   0.3193216   0.0000000), wk =   0.0185185
        k(   10) = (   0.0000000   0.3193216   0.1643782), wk =   0.0370370
        k(   11) = (   0.0000000   0.3193216   0.3287565), wk =   0.0370370
        k(   12) = (   0.0000000   0.3193216  -0.4931347), wk =   0.0185185
        k(   13) = (   0.0000000  -0.4789824   0.0000000), wk =   0.0092593
        k(   14) = (   0.0000000  -0.4789824   0.1643782), wk =   0.0185185
        k(   15) = (   0.0000000  -0.4789824   0.3287565), wk =   0.0185185
        k(   16) = (   0.0000000  -0.4789824  -0.4931347), wk =   0.0092593
        k(   17) = (   0.1643910   0.0000000   0.1643782), wk =   0.0370370
        k(   18) = (   0.1643910   0.0000000   0.3287565), wk =   0.0370370
        k(   19) = (   0.1643910   0.0000000  -0.4931347), wk =   0.0185185
        k(   20) = (   0.1643910   0.1596608   0.1643782), wk =   0.0740741
        k(   21) = (   0.1643910   0.1596608   0.3287565), wk =   0.0740741
        k(   22) = (   0.1643910   0.1596608  -0.4931347), wk =   0.0370370
        k(   23) = (   0.1643910   0.3193216   0.1643782), wk =   0.0740741
        k(   24) = (   0.1643910   0.3193216   0.3287565), wk =   0.0740741
        k(   25) = (   0.1643910   0.3193216  -0.4931347), wk =   0.0370370
        k(   26) = (   0.1643910  -0.4789824   0.1643782), wk =   0.0370370
        k(   27) = (   0.1643910  -0.4789824   0.3287565), wk =   0.0370370
        k(   28) = (   0.1643910  -0.4789824  -0.4931347), wk =   0.0185185
        k(   29) = (   0.3287820   0.0000000   0.3287565), wk =   0.0370370
        k(   30) = (   0.3287820   0.0000000  -0.4931347), wk =   0.0185185
        k(   31) = (   0.3287820   0.1596608   0.3287565), wk =   0.0740741
        k(   32) = (   0.3287820   0.1596608  -0.4931347), wk =   0.0370370
        k(   33) = (   0.3287820   0.3193216   0.3287565), wk =   0.0740741
        k(   34) = (   0.3287820   0.3193216  -0.4931347), wk =   0.0370370
        k(   35) = (   0.3287820  -0.4789824   0.3287565), wk =   0.0370370
        k(   36) = (   0.3287820  -0.4789824  -0.4931347), wk =   0.0185185
        k(   37) = (  -0.4931730   0.0000000  -0.4931347), wk =   0.0092593
        k(   38) = (  -0.4931730   0.1596608  -0.4931347), wk =   0.0185185
        k(   39) = (  -0.4931730   0.3193216  -0.4931347), wk =   0.0185185
        k(   40) = (  -0.4931730  -0.4789824  -0.4931347), wk =   0.0092593
        k(   41) = (   0.1643910   0.0000000   0.0000000), wk =   0.0185185
        k(   42) = (   0.3287820   0.0000000   0.0000000), wk =   0.0185185
        k(   43) = (  -0.4931730   0.0000000   0.0000000), wk =   0.0092593
        k(   44) = (   0.1643910  -0.1596608   0.0000000), wk =   0.0370370
        k(   45) = (   0.3287820  -0.1596608   0.0000000), wk =   0.0370370
        k(   46) = (  -0.4931730  -0.1596608   0.0000000), wk =   0.0185185
        k(   47) = (   0.1643910  -0.3193216   0.0000000), wk =   0.0370370
        k(   48) = (   0.3287820  -0.3193216   0.0000000), wk =   0.0370370
        k(   49) = (  -0.4931730  -0.3193216   0.0000000), wk =   0.0185185
        k(   50) = (   0.1643910   0.4789824   0.0000000), wk =   0.0185185
        k(   51) = (   0.3287820   0.4789824   0.0000000), wk =   0.0185185
        k(   52) = (  -0.4931730   0.4789824   0.0000000), wk =   0.0092593
        k(   53) = (   0.3287820   0.0000000   0.1643782), wk =   0.0370370
        k(   54) = (  -0.4931730   0.0000000   0.1643782), wk =   0.0185185
        k(   55) = (   0.3287820  -0.1596608   0.1643782), wk =   0.0740741
        k(   56) = (  -0.4931730  -0.1596608   0.1643782), wk =   0.0370370
        k(   57) = (   0.3287820  -0.3193216   0.1643782), wk =   0.0740741
        k(   58) = (  -0.4931730  -0.3193216   0.1643782), wk =   0.0370370
        k(   59) = (   0.3287820   0.4789824   0.1643782), wk =   0.0370370
        k(   60) = (  -0.4931730   0.4789824   0.1643782), wk =   0.0185185
        k(   61) = (  -0.4931730   0.0000000   0.3287565), wk =   0.0185185
        k(   62) = (  -0.4931730  -0.1596608   0.3287565), wk =   0.0370370
        k(   63) = (  -0.4931730  -0.3193216   0.3287565), wk =   0.0370370
        k(   64) = (  -0.4931730   0.4789824   0.3287565), wk =   0.0185185

     Initial potential from superposition of free atoms

     starting charge  367.99656, renormalised to  368.00000
     Starting wfcs are  232 randomized atomic wfcs

     Self-consistent Calculation

[...]

     total energy              =   -6261.07055678 Ry
     Harris-Foulkes estimate   =   -6261.07055678 Ry
     estimated scf accuracy    <          5.3E-10 Ry

     iteration # 15     ecut=   120.00 Ry     beta= 0.70
     Davidson diagonalization with overlap
     ethr =  1.45E-13,  avg # of iterations =  2.0

     End of self-consistent calculation

[...]

          k = 0.3288 0.4790 0.1644 ( 63154 PWs)   bands (ev):

[...]

          k =-0.4932 0.4790 0.3288 ( 63116 PWs)   bands (ev):

   -66.3987 -66.3987 -66.3987 -66.3987 -66.3984 -66.3984 -66.3984 -66.3984
   -30.7305 -30.7305 -30.7298 -30.7298 -30.7254 -30.7254 -30.7235 -30.7235
   -30.7193 -30.7193 -30.7186 -30.7186 -30.6999 -30.6999 -30.6984 -30.6984
   -30.6943 -30.6943 -30.6925 -30.6925 -30.6751 -30.6751 -30.6748 -30.6748
   -20.5662 -20.5662 -20.5662 -20.5662 -20.5658 -20.5658 -20.5658 -20.5657
   -20.5524 -20.5524 -20.5524 -20.5523 -20.5518 -20.5518 -20.5518 -20.5517
   -20.5463 -20.5462 -20.5462 -20.5462 -20.5451 -20.5451 -20.5451 -20.5451
   -20.5337 -20.5337 -20.5336 -20.5336 -20.5333 -20.5333 -20.5332 -20.5332
   -20.5309 -20.5309 -20.5308 -20.5308 -20.5305 -20.5305 -20.5305 -20.5304
   -20.5258 -20.5258 -20.5257 -20.5257 -20.5249 -20.5249 -20.5248 -20.5248
   -20.5200 -20.5200 -20.5200 -20.5200 -20.5193 -20.5193 -20.5192 -20.5192
    -9.4061  -9.4061  -9.3957  -9.3957  -9.0417  -9.0417  -9.0151  -9.0150
    -8.7400  -8.7400  -8.7190  -8.7190  -8.5642  -8.5642  -8.5517  -8.5517
    -8.5217  -8.5217  -8.5147  -8.5147  -8.3170  -8.3170  -8.3160  -8.3160
     1.9921   1.9921   2.0015   2.0015   2.7266   2.7266   2.7662   2.7662
     2.7877   2.7877   2.8076   2.8076   2.9729   2.9729   3.0053   3.0053
     3.1256   3.1256   3.2010   3.2010   3.3536   3.3536   3.3619   3.3619
     3.5527   3.5527   3.6445   3.6445   4.1432   4.1432   4.1482   4.1482
     4.1928   4.1928   4.2227   4.2227   4.3098   4.3098   4.3727   4.3727
     4.5229   4.5229   4.6185   4.6185   4.8112   4.8112   4.8176   4.8176
     6.8636   6.8636   6.9412   6.9412   6.9764   6.9764   6.9798   6.9798
     7.0862   7.0862   7.1603   7.1603   7.2182   7.2182   7.2734   7.2734
     7.3247   7.3247   7.3989   7.3989   7.4910   7.4910   7.5303   7.5303
    11.2065  11.2065  11.2344  11.2344  11.5006  11.5006  11.5671  11.5671
    11.9748  11.9748  12.0681  12.0681  12.1348  12.1348  12.1801  12.1801
    12.2815  12.2815  12.4021  12.4021  12.7265  12.7265  12.7795  12.7795
    16.0936  16.0936  16.1411  16.1411  16.6880  16.6880  16.7685  16.7685
    17.0917  17.0917  17.1692  17.1693  17.2744

     the Fermi energy is     8.6727 ev

!    total energy              =   -6261.07055678 Ry
     Harris-Foulkes estimate   =   -6261.07055678 Ry
     estimated scf accuracy    <          2.1E-11 Ry

     The total energy is the sum of the following terms:

     one-electron contribution =   -4779.53242197 Ry
     hartree contribution      =    2623.61636081 Ry
     xc contribution           =    -965.70645814 Ry
     ewald contribution        =   -3139.44803749 Ry
     smearing contrib. (-TS)   =      -0.00000000 Ry

     convergence has been achieved in  15 iterations

     Forces acting on atoms (cartesian axes, Ry/au):

     atom    1 type  1   force =    -0.00253416    0.00828606    0.00468857
     atom    2 type  1   force =     0.00253416   -0.00828606   -0.00468857
     atom    3 type  1   force =     0.00253416   -0.00828606    0.00468857
     atom    4 type  1   force =    -0.00253416    0.00828606   -0.00468857
     atom    5 type  1   force =     0.00253416    0.00828606   -0.00468857
     atom    6 type  1   force =    -0.00253416   -0.00828606    0.00468857
     atom    7 type  1   force =    -0.00253416   -0.00828606   -0.00468857
     atom    8 type  1   force =     0.00253416    0.00828606    0.00468857
     atom    9 type  2   force =     0.00214046   -0.05322139    0.00091313
     atom   10 type  2   force =    -0.00214046    0.05322139   -0.00091313
     atom   11 type  2   force =    -0.00214046    0.05322139    0.00091313
     atom   12 type  2   force =     0.00214046   -0.05322139   -0.00091313
     atom   13 type  2   force =    -0.00214046   -0.05322139   -0.00091313
     atom   14 type  2   force =     0.00214046    0.05322139    0.00091313
     atom   15 type  2   force =     0.00214046    0.05322139   -0.00091313
     atom   16 type  2   force =    -0.00214046   -0.05322139    0.00091313
     atom   17 type  2   force =    -0.00031814   -0.00344872   -0.00132486
     atom   18 type  2   force =     0.00031814    0.00344872    0.00132486
     atom   19 type  2   force =     0.00031814    0.00344872   -0.00132486
     atom   20 type  2   force =    -0.00031814   -0.00344872    0.00132486
     atom   21 type  2   force =     0.00031814   -0.00344872    0.00132486
     atom   22 type  2   force =    -0.00031814    0.00344872   -0.00132486
     atom   23 type  2   force =    -0.00031814    0.00344872    0.00132486
     atom   24 type  2   force =     0.00031814   -0.00344872   -0.00132486
     atom   25 type  2   force =    -0.00198966    0.00008038    0.00455779
     atom   26 type  2   force =     0.00198966   -0.00008038   -0.00455779
     atom   27 type  2   force =     0.00198966   -0.00008038    0.00455779
     atom   28 type  2   force =    -0.00198966    0.00008038   -0.00455779
     atom   29 type  2   force =     0.00198966    0.00008038   -0.00455779
     atom   30 type  2   force =    -0.00198966   -0.00008038    0.00455779
     atom   31 type  2   force =    -0.00198966   -0.00008038   -0.00455779
     atom   32 type  2   force =     0.00198966    0.00008038    0.00455779

     Total force =     0.000000     Total SCF correction =     0.000000

     Computing stress (Cartesian axis) and pressure

          total   stress  (Ry/bohr**3)                   (kbar)     P=    0.63
   0.00000651   0.00000000   0.00000000          0.96      0.00      0.00
   0.00000000  -0.00000011   0.00000000          0.00     -0.02      0.00
   0.00000000   0.00000000   0.00000655          0.00      0.00      0.96

     Writing output data file Landau_18.save/

     General routines

     Parallel routines

   This run was terminated on:   1:35: 2  21Nov2019

   JOB DONE.