     Program PWSCF v.6.4.1 starts on 22Nov2019 at  0:18:10

     K-points division:     npool     =      40
     Reading input from scf.in

     Current dimensions of program PWSCF are:
     Max number of different atomic species (ntypx) = 10
     Max number of k-points (npk) =  40000
     Max angular momentum in pseudopotentials (lmaxx) =  3

     Subspace diagonalization in iterative solution of the eigenvalue problem:
     a serial algorithm will be used

     Message from routine setup:
     using ibrav=0 with symmetry is DISCOURAGED, use correct ibrav instead

     bravais-lattice index     =            0
     lattice parameter (alat)  =      13.8955  a.u.
     unit-cell volume          =    2820.3317 (a.u.)^3
     number of atoms/cell      =           32
     number of atomic types    =            2
     number of electrons       =       368.20
     number of Kohn-Sham states=          221
     kinetic-energy cutoff     =     120.0000  Ry
     charge density cutoff     =     480.0000  Ry
     convergence threshold     =      1.0E-08
     mixing beta               =       0.7000
     number of iterations used =            8  plain     mixing
     Exchange-correlation      = SLA PW NOGX NOGC ( 1  4  0  0 0 0)

     celldm(1)=  13.895501  celldm(2)=   0.000000  celldm(3)=   0.000000
     celldm(4)=   0.000000  celldm(5)=   0.000000  celldm(6)=   0.000000

     crystal axes: (cart. coord. in units of alat)
               a(1) = (   1.000000   0.000000   0.000000 )
               a(2) = (   0.000000   1.051113   0.000000 )
               a(3) = (   0.000000   0.000000   1.000065 )

     reciprocal axes: (cart. coord. in units 2 pi/alat)
               b(1) = (  1.000000  0.000000  0.000000 )
               b(2) = (  0.000000  0.951372  0.000000 )
               b(3) = (  0.000000  0.000000  0.999935 )

     PseudoPot. # 1 for W  read from file:
     /cluster/scratch/mnoe/QE/pps/W_ONCV_LDA-4.0.upf
     MD5 check sum: ba0307d5d4cd419d6f1d13dc49d7c13a
     Pseudo is Norm-conserving + core correction, Zval = 28.0
     Generated using ONCVPSP code by D. R. Hamann
     Using radial grid of 1380 points,  8 beta functions with:
                l(1) =   0
                l(2) =   0
                l(3) =   1
                l(4) =   1
                l(5) =   2
                l(6) =   2
                l(7) =   3
                l(8) =   3

     PseudoPot. # 2 for O  read from file:
     /cluster/scratch/mnoe/QE/pps/O_ONCV_LDA-3.0.upf
     MD5 check sum: b55cdb4f45ae2203d24ad12cf8d61a31
     Pseudo is Norm-conserving + core correction, Zval =  6.0
     Generated using ONCVPSP code by D. R. Hamann
     Using radial grid of  926 points,  5 beta functions with:
                l(1) =   0
                l(2) =   0
                l(3) =   1
                l(4) =   1
                l(5) =   2

     atomic species   valence    mass     pseudopotential
        W             28.00   183.84000     W ( 1.00)
        O              6.00    15.99940     O ( 1.00)

      8 Sym. Ops., with inversion, found ( 6 have fractional translation)

   Cartesian axes

     site n.     atom                  positions (alat units)
         1           W   tau(   1) = (   0.2481500   0.2976946   0.0017501  )
         2           W   tau(   2) = (   0.7518500   0.7534186   0.9983145  )
         3           W   tau(   3) = (   0.2518500   0.2278620   0.5017824  )
         4           W   tau(   4) = (   0.7481500   0.8232512   0.4982822  )
         5           W   tau(   5) = (   0.7518500   0.2976946   0.4982822  )
         6           W   tau(   6) = (   0.2481500   0.7534186   0.5017824  )
         7           W   tau(   7) = (   0.7481500   0.2278620   0.9983145  )
         8           W   tau(   8) = (   0.2518500   0.8232512   0.0017501  )
         9           O   tau(   9) = (   0.2465900   0.0114470   0.0005400  )
        10           O   tau(  10) = (   0.7534100   1.0396662   0.9995245  )
        11           O   tau(  11) = (   0.2534100   0.5141096   0.5005723  )
        12           O   tau(  12) = (   0.7465900   0.5370036   0.4994923  )
        13           O   tau(  13) = (   0.7534100   0.0114470   0.4994923  )
        14           O   tau(  14) = (   0.2465900   1.0396662   0.5005723  )
        15           O   tau(  15) = (   0.7465900   0.5141096   0.9995245  )
        16           O   tau(  16) = (   0.2534100   0.5370036   0.0005400  )
        17           O   tau(  17) = (   0.5005100   0.2590994   0.4565907  )
        18           O   tau(  18) = (   0.4994900   0.7920138   0.5434739  )
        19           O   tau(  19) = (   0.9994900   0.2664572   0.9566230  )
        20           O   tau(  20) = (   0.0005100   0.7846560   0.0434416  )
        21           O   tau(  21) = (   0.4994900   0.2590994   0.0434416  )
        22           O   tau(  22) = (   0.5005100   0.7920138   0.9566230  )
        23           O   tau(  23) = (   0.0005100   0.2664572   0.5434739  )
        24           O   tau(  24) = (   0.9994900   0.7846560   0.4565907  )
        25           O   tau(  25) = (   0.7065612   0.2619795   0.7492784  )
        26           O   tau(  26) = (   0.2934388   0.7891338   0.2507862  )
        27           O   tau(  27) = (   0.7934388   0.2635772   0.2492461  )
        28           O   tau(  28) = (   0.2065612   0.7875361   0.7508184  )
        29           O   tau(  29) = (   0.2934388   0.2619795   0.7508184  )
        30           O   tau(  30) = (   0.7065612   0.7891338   0.2492461  )
        31           O   tau(  31) = (   0.2065612   0.2635772   0.2507862  )
        32           O   tau(  32) = (   0.7934388   0.7875361   0.7492784  )

     number of k points=    64  gaussian smearing, width (Ry)=  0.0007
                       cart. coord. in units 2pi/alat
        k(    1) = (   0.0000000   0.0000000   0.0000000), wk =   0.0092593
        k(    2) = (   0.0000000   0.0000000   0.1666559), wk =   0.0185185
        k(    3) = (   0.0000000   0.0000000   0.3333118), wk =   0.0185185
        k(    4) = (   0.0000000   0.0000000  -0.4999677), wk =   0.0092593
        k(    5) = (   0.0000000   0.1585620   0.0000000), wk =   0.0185185
        k(    6) = (   0.0000000   0.1585620   0.1666559), wk =   0.0370370
        k(    7) = (   0.0000000   0.1585620   0.3333118), wk =   0.0370370
        k(    8) = (   0.0000000   0.1585620  -0.4999677), wk =   0.0185185
        k(    9) = (   0.0000000   0.3171241   0.0000000), wk =   0.0185185
        k(   10) = (   0.0000000   0.3171241   0.1666559), wk =   0.0370370
        k(   11) = (   0.0000000   0.3171241   0.3333118), wk =   0.0370370
        k(   12) = (   0.0000000   0.3171241  -0.4999677), wk =   0.0185185
        k(   13) = (   0.0000000  -0.4756861   0.0000000), wk =   0.0092593
        k(   14) = (   0.0000000  -0.4756861   0.1666559), wk =   0.0185185
        k(   15) = (   0.0000000  -0.4756861   0.3333118), wk =   0.0185185
        k(   16) = (   0.0000000  -0.4756861  -0.4999677), wk =   0.0092593
        k(   17) = (   0.1666667   0.0000000   0.0000000), wk =   0.0185185
        k(   18) = (   0.1666667   0.0000000   0.1666559), wk =   0.0370370
        k(   19) = (   0.1666667   0.0000000   0.3333118), wk =   0.0370370
        k(   20) = (   0.1666667   0.0000000  -0.4999677), wk =   0.0185185
        k(   21) = (   0.1666667   0.1585620   0.0000000), wk =   0.0370370
        k(   22) = (   0.1666667   0.1585620   0.1666559), wk =   0.0740741
        k(   23) = (   0.1666667   0.1585620   0.3333118), wk =   0.0740741
        k(   24) = (   0.1666667   0.1585620  -0.4999677), wk =   0.0370370
        k(   25) = (   0.1666667   0.3171241   0.0000000), wk =   0.0370370
        k(   26) = (   0.1666667   0.3171241   0.1666559), wk =   0.0740741
        k(   27) = (   0.1666667   0.3171241   0.3333118), wk =   0.0740741
        k(   28) = (   0.1666667   0.3171241  -0.4999677), wk =   0.0370370
        k(   29) = (   0.1666667  -0.4756861   0.0000000), wk =   0.0185185
        k(   30) = (   0.1666667  -0.4756861   0.1666559), wk =   0.0370370
        k(   31) = (   0.1666667  -0.4756861   0.3333118), wk =   0.0370370
        k(   32) = (   0.1666667  -0.4756861  -0.4999677), wk =   0.0185185
        k(   33) = (   0.3333333   0.0000000   0.0000000), wk =   0.0185185
        k(   34) = (   0.3333333   0.0000000   0.1666559), wk =   0.0370370
        k(   35) = (   0.3333333   0.0000000   0.3333118), wk =   0.0370370
        k(   36) = (   0.3333333   0.0000000  -0.4999677), wk =   0.0185185
        k(   37) = (   0.3333333   0.1585620   0.0000000), wk =   0.0370370
        k(   38) = (   0.3333333   0.1585620   0.1666559), wk =   0.0740741
        k(   39) = (   0.3333333   0.1585620   0.3333118), wk =   0.0740741
        k(   40) = (   0.3333333   0.1585620  -0.4999677), wk =   0.0370370
        k(   41) = (   0.3333333   0.3171241   0.0000000), wk =   0.0370370
        k(   42) = (   0.3333333   0.3171241   0.1666559), wk =   0.0740741
        k(   43) = (   0.3333333   0.3171241   0.3333118), wk =   0.0740741
        k(   44) = (   0.3333333   0.3171241  -0.4999677), wk =   0.0370370
        k(   45) = (   0.3333333  -0.4756861   0.0000000), wk =   0.0185185
        k(   46) = (   0.3333333  -0.4756861   0.1666559), wk =   0.0370370
        k(   47) = (   0.3333333  -0.4756861   0.3333118), wk =   0.0370370
        k(   48) = (   0.3333333  -0.4756861  -0.4999677), wk =   0.0185185
        k(   49) = (  -0.5000000   0.0000000   0.0000000), wk =   0.0092593
        k(   50) = (  -0.5000000   0.0000000   0.1666559), wk =   0.0185185
        k(   51) = (  -0.5000000   0.0000000   0.3333118), wk =   0.0185185
        k(   52) = (  -0.5000000   0.0000000  -0.4999677), wk =   0.0092593
        k(   53) = (  -0.5000000   0.1585620   0.0000000), wk =   0.0185185
        k(   54) = (  -0.5000000   0.1585620   0.1666559), wk =   0.0370370
        k(   55) = (  -0.5000000   0.1585620   0.3333118), wk =   0.0370370
        k(   56) = (  -0.5000000   0.1585620  -0.4999677), wk =   0.0185185
        k(   57) = (  -0.5000000   0.3171241   0.0000000), wk =   0.0185185
        k(   58) = (  -0.5000000   0.3171241   0.1666559), wk =   0.0370370
        k(   59) = (  -0.5000000   0.3171241   0.3333118), wk =   0.0370370
        k(   60) = (  -0.5000000   0.3171241  -0.4999677), wk =   0.0185185
        k(   61) = (  -0.5000000  -0.4756861   0.0000000), wk =   0.0092593
        k(   62) = (  -0.5000000  -0.4756861   0.1666559), wk =   0.0185185
        k(   63) = (  -0.5000000  -0.4756861   0.3333118), wk =   0.0185185
        k(   64) = (  -0.5000000  -0.4756861  -0.4999677), wk =   0.0092593

     Initial potential from superposition of free atoms

     starting charge  367.99656, renormalised to  368.20000
     Starting wfcs are  232 randomized atomic wfcs

     Self-consistent Calculation

     iteration #  1     ecut=   120.00 Ry     beta= 0.70
     Davidson diagonalization with overlap
     ethr =  1.00E-02,  avg # of iterations =  5.0

     total energy              =   -6253.78652624 Ry
     Harris-Foulkes estimate   =   -6264.49222069 Ry
     estimated scf accuracy    <      13.53200732 Ry

[...]

     total energy              =   -6260.97078714 Ry
     Harris-Foulkes estimate   =   -6260.97078718 Ry
     estimated scf accuracy    <       0.00000009 Ry

     iteration # 12     ecut=   120.00 Ry     beta= 0.70
     Davidson diagonalization with overlap
     ethr =  2.39E-11,  avg # of iterations =  2.0

     End of self-consistent calculation

          k = 0.0000 0.0000 0.0000 ( 62635 PWs)   bands (ev):

   -66.2201 -66.2196 -66.2192 -66.2191 -66.2187 -66.2187 -66.2182 -66.2178
   -30.6216 -30.6185 -30.6184 -30.6154 -30.5645 -30.5624 -30.5616 -30.5598
   -30.5596 -30.5591 -30.5573 -30.5554 -30.5552 -30.5552 -30.5540 -30.5519
   -30.4658 -30.4657 -30.4630 -30.4628 -30.4615 -30.4614 -30.4588 -30.4585
   -20.3771 -20.3770 -20.3770 -20.3770 -20.3769 -20.3769 -20.3769 -20.3769
   -20.3648 -20.3646 -20.3646 -20.3644 -20.3591 -20.3589 -20.3589 -20.3586
   -20.3557 -20.3555 -20.3552 -20.3552 -20.3551 -20.3550 -20.3546 -20.3544
   -20.3542 -20.3540 -20.3538 -20.3534 -20.3534 -20.3533 -20.3531 -20.3528
   -20.3484 -20.3482 -20.3481 -20.3480 -20.3477 -20.3475 -20.3474 -20.3472
   -20.3445 -20.3444 -20.3441 -20.3440 -20.3434 -20.3434 -20.3430 -20.3430
   -20.3372 -20.3371 -20.3369 -20.3369 -20.3362 -20.3361 -20.3359 -20.3359
   -10.0218  -9.7237  -9.6037  -9.6037  -9.3181  -9.3175  -9.1770  -9.1026
    -9.0880  -8.9513  -8.9315  -8.9314  -7.9234  -7.8636  -7.8630  -7.8378
    -7.8370  -7.8115  -7.8115  -7.8114  -7.7153  -7.7149  -7.6931  -7.6931
     1.1025   1.1026   1.1927   1.1935   1.2145   1.2158   1.2613   1.5125
     1.5134   1.5184   1.5242   1.7228   2.3654   2.4470   2.4892   2.4898
     2.6152   2.6162   4.0677   4.0693   4.2831   4.2859   4.7237   4.7244
     4.7546   4.7577   4.7577   4.7591   4.9153   4.9154   4.9947   5.3892
     5.3911   5.4607   5.4692   5.4812   5.4821   5.4982   5.5056   5.7435
     5.7458   5.8088   5.8089   5.8786   5.9018   6.0171   6.0181   6.0402
     6.0406   6.2230   6.2254   6.4787   6.4792   6.6978   6.7003   6.7277
     6.7291   6.8099   6.9813   6.9824   7.0309   7.0319   7.2708   7.2724
     7.3060   7.3075   7.8755   7.8867   8.0355   8.0383   8.0953   8.0982
     9.1222   9.1260   9.8837   9.8843   9.8844   9.8852  12.2312  12.2387
    12.2632  12.2739  12.2977  12.3003  12.4313  12.4333  12.9564  12.9696
    13.1933  13.2021  13.3289  13.3318  13.6714  14.0786  14.1112  14.1120
    14.1190  14.2170  14.2488  14.7803  15.1684  15.1781  15.4331  15.8646
    15.8664  16.6860  16.9740  16.9762  17.3469

[...]

          k = 0.3333-0.4757-0.5000 ( 62556 PWs)   bands (ev):

[...]

          k =-0.5000 0.0000 0.0000 ( 62628 PWs)   bands (ev):

[...]

          k =-0.5000-0.4757-0.5000 ( 62584 PWs)   bands (ev):

   -66.2190 -66.2189 -66.2189 -66.2189 -66.2189 -66.2189 -66.2189 -66.2189
   -30.5896 -30.5896 -30.5896 -30.5896 -30.5894 -30.5894 -30.5894 -30.5894
   -30.5112 -30.5112 -30.5112 -30.5112 -30.5105 -30.5105 -30.5105 -30.5104
   -30.5092 -30.5092 -30.5092 -30.5092 -30.5085 -30.5085 -30.5085 -30.5085
   -20.3770 -20.3770 -20.3770 -20.3770 -20.3770 -20.3770 -20.3769 -20.3769
   -20.3620 -20.3620 -20.3619 -20.3619 -20.3619 -20.3619 -20.3619 -20.3619
   -20.3546 -20.3545 -20.3545 -20.3545 -20.3545 -20.3545 -20.3545 -20.3545
   -20.3540 -20.3540 -20.3540 -20.3540 -20.3539 -20.3539 -20.3539 -20.3539
   -20.3481 -20.3481 -20.3480 -20.3480 -20.3480 -20.3480 -20.3480 -20.3480
   -20.3404 -20.3404 -20.3404 -20.3404 -20.3404 -20.3404 -20.3403 -20.3403
   -20.3399 -20.3399 -20.3399 -20.3399 -20.3398 -20.3398 -20.3398 -20.3398
    -9.0144  -9.0144  -9.0144  -9.0144  -9.0109  -9.0109  -9.0109  -9.0108
    -8.4841  -8.4841  -8.4841  -8.4841  -8.4801  -8.4801  -8.4801  -8.4801
    -8.4176  -8.4176  -8.4175  -8.4175  -8.4130  -8.4130  -8.4130  -8.4130
     2.9165   2.9165   2.9165   2.9165   2.9256   2.9256   2.9256   2.9256
     3.0347   3.0347   3.0347   3.0347   3.0473   3.0473   3.0473   3.0473
     3.3515   3.3515   3.3515   3.3515   3.3801   3.3801   3.3801   3.3801
     4.0832   4.0832   4.0832   4.0832   4.0909   4.0909   4.0909   4.0909
     4.3004   4.3004   4.3005   4.3005   4.3031   4.3031   4.3032   4.3032
     4.3899   4.3899   4.3899   4.3899   4.3980   4.3980   4.3980   4.3980
     7.1256   7.1256   7.1256   7.1256   7.1621   7.1621   7.1621   7.1621
     7.2584   7.2584   7.2584   7.2584   7.2621   7.2621   7.2621   7.2621
     7.5388   7.5388   7.5388   7.5388   7.5481   7.5481   7.5481   7.5481
    11.7398  11.7398  11.7398  11.7398  11.7427  11.7427  11.7427  11.7427
    12.2009  12.2009  12.2009  12.2009  12.2349  12.2349  12.2349  12.2349
    12.4438  12.4438  12.4438  12.4438  12.4593  12.4593  12.4593  12.4593
    17.0423  17.0423  17.0424  17.0424  17.0607  17.0607  17.0607  17.0607
    17.3300  17.3301  17.3301  17.3302  17.3383

     the Fermi energy is     9.4842 ev

!    total energy              =   -6260.97078714 Ry
     Harris-Foulkes estimate   =   -6260.97078714 Ry
     estimated scf accuracy    <          9.3E-09 Ry

     The total energy is the sum of the following terms:

     one-electron contribution =   -4744.56962681 Ry
     hartree contribution      =    2608.40438570 Ry
     xc contribution           =    -965.89757460 Ry
     ewald contribution        =   -3158.90793739 Ry
     smearing contrib. (-TS)   =      -0.00003403 Ry

     convergence has been achieved in  12 iterations

     Writing output data file Landau_4.save/

     General routines

     Parallel routines

   This run was terminated on:   0:47: 5  22Nov2019

   JOB DONE.