     Program PWSCF v.6.2 (svn rev. 14038) starts on 10Sep2019 at 18:48:16

     K-points division:     npool     =      40
     Reading input from scf.in

     Current dimensions of program PWSCF are:
     Max number of different atomic species (ntypx) = 10
     Max number of k-points (npk) =  40000
     Max angular momentum in pseudopotentials (lmaxx) =  3

     Subspace diagonalization in iterative solution of the eigenvalue problem:
     a serial algorithm will be used

     bravais-lattice index     =            0
     lattice parameter (alat)  =      13.8521  a.u.
     unit-cell volume          =    2790.4208 (a.u.)^3
     number of atoms/cell      =           32
     number of atomic types    =            2
     number of electrons       =       368.15
     number of Kohn-Sham states=          221
     kinetic-energy cutoff     =     120.0000  Ry
     charge density cutoff     =     480.0000  Ry
     convergence threshold     =      1.0E-08
     mixing beta               =       0.7000
     number of iterations used =            8  plain     mixing
     Exchange-correlation      = SLA PW NOGX NOGC ( 1  4  0  0 0 0)

     celldm(1)=  13.852081  celldm(2)=   0.000000  celldm(3)=   0.000000
     celldm(4)=   0.000000  celldm(5)=   0.000000  celldm(6)=   0.000000

     crystal axes: (cart. coord. in units of alat)
               a(1) = (   1.000000   0.000000   0.000000 )
               a(2) = (   0.000000   1.049844   0.000000 )
               a(3) = (   0.000000   0.000000   1.000000 )

     reciprocal axes: (cart. coord. in units 2 pi/alat)
               b(1) = (  1.000000  0.000000  0.000000 )
               b(2) = (  0.000000  0.952523  0.000000 )
               b(3) = (  0.000000  0.000000  1.000000 )

     PseudoPot. # 1 for W  read from file:
     /cluster/scratch/mnoe/QE/pps/W_ONCV_LDA-4.0.upf
     MD5 check sum: ba0307d5d4cd419d6f1d13dc49d7c13a
     Pseudo is Norm-conserving + core correction, Zval = 28.0
     Generated using ONCVPSP code by D. R. Hamann
     Using radial grid of 1380 points,  8 beta functions with:
                l(1) =   0
                l(2) =   0
                l(3) =   1
                l(4) =   1
                l(5) =   2
                l(6) =   2
                l(7) =   3
                l(8) =   3

     PseudoPot. # 2 for O  read from file:
     /cluster/scratch/mnoe/QE/pps/O_ONCV_LDA-3.0.upf
     MD5 check sum: ca1549d10c4e927e51167f6fca52ae32
     Pseudo is Norm-conserving + core correction, Zval =  6.0
     Generated using ONCVPSP code by D. R. Hamann
     Using radial grid of  926 points,  5 beta functions with:
                l(1) =   0
                l(2) =   0
                l(3) =   1
                l(4) =   1
                l(5) =   2

     atomic species   valence    mass     pseudopotential
        W             28.00   183.84000     W ( 1.00)
        O              6.00    15.99940     O ( 1.00)

      8 Sym. Ops. (no inversion) found ( 4 have fractional translation)

   Cartesian axes

     site n.     atom                  positions (alat units)
         1           W   tau(   1) = (   0.2652900   0.2959090   0.2504300  )
         2           W   tau(   2) = (  -0.2504299   0.7539348  -0.7347100  )
         3           W   tau(   3) = (   0.2347100   0.2290129   0.7504300  )
         4           W   tau(   4) = (   0.7504300   0.8208308   0.7652900  )
         5           W   tau(   5) = (   0.7347100   0.2959090   0.7495700  )
         6           W   tau(   6) = (   0.2504300   0.7539348   0.7347100  )
         7           W   tau(   7) = (  -0.2347100   0.2290129  -0.7504299  )
         8           W   tau(   8) = (   0.2495700   0.8208308   0.2347100  )
         9           O   tau(   9) = (   0.2668100   0.0087347   0.2621900  )
        10           O   tau(  10) = (  -0.2621901   1.0411090  -0.7331900  )
        11           O   tau(  11) = (   0.2331900   0.5161871   0.7621901  )
        12           O   tau(  12) = (   0.7621900   0.5336565   0.7668100  )
        13           O   tau(  13) = (   0.7331900   0.0087347   0.7378100  )
        14           O   tau(  14) = (   0.2621900   1.0411090   0.7331900  )
        15           O   tau(  15) = (  -0.2331900   0.5161871  -0.7621901  )
        16           O   tau(  16) = (   0.2378100   0.5336565   0.2331900  )
        17           O   tau(  17) = (   0.4945900   0.2814946   0.6995400  )
        18           O   tau(  18) = (   0.4988900   0.7751731   0.8004600  )
        19           O   tau(  19) = (  -0.9945900   0.2434273   1.1995400  )
        20           O   tau(  20) = (   0.0011100   0.7995924   0.3004600  )
        21           O   tau(  21) = (   0.5054100   0.2814946   0.3004600  )
        22           O   tau(  22) = (   0.5011100   0.7751731   1.1995400  )
        23           O   tau(  23) = (  -0.0054101   0.2434273   0.8004600  )
        24           O   tau(  24) = (  -1.0011100   0.7995924   0.6995400  )
        25           O   tau(  25) = (   0.6995400   0.2502513   2.0011100  )
        26           O   tau(  26) = (   0.3004600   0.7683491   0.4945900  )
        27           O   tau(  27) = (   0.8004600   0.2746706   0.5011100  )
        28           O   tau(  28) = (   0.1995400   0.8064165   1.9945900  )
        29           O   tau(  29) = (   0.3004600   0.2502513   0.9988900  )
        30           O   tau(  30) = (   0.6995400   0.7683491   0.5054100  )
        31           O   tau(  31) = (   0.1995400   0.2746706   0.4988900  )
        32           O   tau(  32) = (   0.8004600   0.8064165   1.0054101  )

     number of k points=    40  gaussian smearing, width (Ry)=  0.0007
                       cart. coord. in units 2pi/alat
        k(    1) = (   0.0000000   0.0000000   0.0000000), wk =   0.0092593
        k(    2) = (   0.0000000   0.0000000   0.1666667), wk =   0.0370370
        k(    3) = (   0.0000000   0.0000000   0.3333333), wk =   0.0370370
        k(    4) = (   0.0000000   0.0000000  -0.5000000), wk =   0.0185185
        k(    5) = (   0.0000000   0.1587538   0.0000000), wk =   0.0185185
        k(    6) = (   0.0000000   0.1587538   0.1666667), wk =   0.0740741
        k(    7) = (   0.0000000   0.1587538   0.3333333), wk =   0.0740741
        k(    8) = (   0.0000000   0.1587538  -0.5000000), wk =   0.0370370
        k(    9) = (   0.0000000   0.3175076   0.0000000), wk =   0.0185185
        k(   10) = (   0.0000000   0.3175076   0.1666667), wk =   0.0740741
        k(   11) = (   0.0000000   0.3175076   0.3333333), wk =   0.0740741
        k(   12) = (   0.0000000   0.3175076  -0.5000000), wk =   0.0370370
        k(   13) = (   0.0000000  -0.4762614   0.0000000), wk =   0.0092593
        k(   14) = (   0.0000000  -0.4762614   0.1666667), wk =   0.0370370
        k(   15) = (   0.0000000  -0.4762614   0.3333333), wk =   0.0370370
        k(   16) = (   0.0000000  -0.4762614  -0.5000000), wk =   0.0185185
        k(   17) = (   0.1666667   0.0000000   0.1666667), wk =   0.0370370
        k(   18) = (   0.1666667   0.0000000   0.3333333), wk =   0.0740741
        k(   19) = (   0.1666667   0.0000000  -0.5000000), wk =   0.0370370
        k(   20) = (   0.1666667   0.1587538   0.1666667), wk =   0.0740741
        k(   21) = (   0.1666667   0.1587538   0.3333333), wk =   0.1481481
        k(   22) = (   0.1666667   0.1587538  -0.5000000), wk =   0.0740741
        k(   23) = (   0.1666667   0.3175076   0.1666667), wk =   0.0740741
        k(   24) = (   0.1666667   0.3175076   0.3333333), wk =   0.1481481
        k(   25) = (   0.1666667   0.3175076  -0.5000000), wk =   0.0740741
        k(   26) = (   0.1666667  -0.4762614   0.1666667), wk =   0.0370370
        k(   27) = (   0.1666667  -0.4762614   0.3333333), wk =   0.0740741
        k(   28) = (   0.1666667  -0.4762614  -0.5000000), wk =   0.0370370
        k(   29) = (   0.3333333   0.0000000   0.3333333), wk =   0.0370370
        k(   30) = (   0.3333333   0.0000000  -0.5000000), wk =   0.0370370
        k(   31) = (   0.3333333   0.1587538   0.3333333), wk =   0.0740741
        k(   32) = (   0.3333333   0.1587538  -0.5000000), wk =   0.0740741
        k(   33) = (   0.3333333   0.3175076   0.3333333), wk =   0.0740741
        k(   34) = (   0.3333333   0.3175076  -0.5000000), wk =   0.0740741
        k(   35) = (   0.3333333  -0.4762614   0.3333333), wk =   0.0370370
        k(   36) = (   0.3333333  -0.4762614  -0.5000000), wk =   0.0370370
        k(   37) = (  -0.5000000   0.0000000  -0.5000000), wk =   0.0092593
        k(   38) = (  -0.5000000   0.1587538  -0.5000000), wk =   0.0185185
        k(   39) = (  -0.5000000   0.3175076  -0.5000000), wk =   0.0185185
        k(   40) = (  -0.5000000  -0.4762614  -0.5000000), wk =   0.0092593

     Initial potential from superposition of free atoms

     starting charge  367.99656, renormalised to  368.15000
     Starting wfc are  232 randomized atomic wfcs

     Self-consistent Calculation

     iteration #  1     ecut=   120.00 Ry     beta= 0.70
     Davidson diagonalization with overlap
     ethr =  1.00E-02,  avg # of iterations =  5.0

     total energy              =   -6253.87732156 Ry
     Harris-Foulkes estimate   =   -6264.48491159 Ry
     estimated scf accuracy    <      13.41654160 Ry

[...]

     total energy              =   -6261.00320478 Ry
     Harris-Foulkes estimate   =   -6261.00320479 Ry
     estimated scf accuracy    <       0.00000002 Ry

     iteration # 13     ecut=   120.00 Ry     beta= 0.70
     Davidson diagonalization with overlap
     ethr =  5.47E-12,  avg # of iterations =  3.0

     End of self-consistent calculation

          k = 0.0000 0.0000 0.0000 ( 61855 PWs)   bands (ev):

   -66.0358 -66.0354 -66.0348 -66.0348 -66.0344 -66.0344 -66.0338 -66.0334
   -30.4529 -30.4442 -30.4442 -30.4338 -30.4291 -30.4115 -30.4115 -30.4022
   -30.3764 -30.3693 -30.3693 -30.3625 -30.3607 -30.3605 -30.3561 -30.3561
   -30.3121 -30.3098 -30.3098 -30.3062 -30.2652 -30.2652 -30.2607 -30.2594
   -20.1914 -20.1913 -20.1912 -20.1912 -20.1910 -20.1910 -20.1909 -20.1909
   -20.1762 -20.1758 -20.1758 -20.1754 -20.1740 -20.1737 -20.1736 -20.1733
   -20.1727 -20.1725 -20.1725 -20.1723 -20.1706 -20.1701 -20.1701 -20.1695
   -20.1681 -20.1672 -20.1672 -20.1663 -20.1659 -20.1653 -20.1653 -20.1648
   -20.1607 -20.1600 -20.1593 -20.1593 -20.1573 -20.1572 -20.1554 -20.1548
   -20.1542 -20.1542 -20.1508 -20.1508 -20.1501 -20.1501 -20.1495 -20.1493
   -20.1485 -20.1485 -20.1477 -20.1477 -20.1448 -20.1448 -20.1441 -20.1439
    -9.8609  -9.5681  -9.4193  -9.4193  -9.1182  -9.1182  -8.9819  -8.9202
    -8.9132  -8.7755  -8.7425  -8.7425  -7.8159  -7.7500  -7.7054  -7.7042
    -7.7042  -7.6518  -7.6383  -7.6350  -7.5912  -7.5912  -7.4960  -7.4960
     1.3365   1.3443   1.3947   1.3947   1.4720   1.4720   1.4953   1.7222
     1.7386   1.7386   1.7729   1.9851   2.4753   2.5613   2.6299   2.6888
     2.8113   2.8113   4.2329   4.2329   4.4859   4.4903   4.8018   4.8844
     4.8844   4.9227   4.9254   4.9254   5.1554   5.1554   5.2601   5.5192
     5.5232   5.5850   5.5850   5.6579   5.6579   5.7631   5.7631   5.9189
     5.9189   5.9318   5.9352   5.9491   6.0176   6.0506   6.0570   6.1908
     6.2046   6.3614   6.3840   6.6150   6.6150   6.8387   6.9166   6.9166
     6.9444   6.9505   7.0370   7.1142   7.1352   7.1352   7.3378   7.3378
     7.5160   7.5160   7.8307   7.8484   8.1283   8.1283   8.1479   8.2324
     9.5596   9.5736  10.1571  10.1739  10.1924  10.1924  12.3363  12.3363
    12.3844  12.3844  12.5677  12.5677  12.6349  12.7158  12.7453  12.8690
    13.2633  13.4244  13.4380  13.4380  13.7944  14.0534  14.0534  14.1961
    14.4435  14.6617  14.6617  15.0017  15.5258  15.5269  15.6230  16.1058
    16.1058  16.8563  17.0957  17.0957  17.6075

[...]

          k = 0.3333-0.4763-0.5000 ( 61884 PWs)   bands (ev):

[...]

          k =-0.5000 0.0000-0.5000 ( 62068 PWs)   bands (ev):

[...]

          k =-0.5000-0.4763-0.5000 ( 61936 PWs)   bands (ev):

   -66.0346 -66.0346 -66.0346 -66.0346 -66.0346 -66.0346 -66.0346 -66.0346
   -30.4156 -30.4156 -30.4145 -30.4145 -30.4145 -30.4145 -30.4143 -30.4142
   -30.3554 -30.3553 -30.3553 -30.3552 -30.3552 -30.3552 -30.3541 -30.3541
   -30.3099 -30.3099 -30.3097 -30.3097 -30.3097 -30.3097 -30.3096 -30.3096
   -20.1912 -20.1912 -20.1912 -20.1912 -20.1911 -20.1911 -20.1911 -20.1911
   -20.1743 -20.1743 -20.1742 -20.1742 -20.1742 -20.1742 -20.1742 -20.1742
   -20.1718 -20.1718 -20.1718 -20.1718 -20.1718 -20.1718 -20.1718 -20.1717
   -20.1663 -20.1663 -20.1663 -20.1663 -20.1663 -20.1662 -20.1662 -20.1662
   -20.1578 -20.1577 -20.1577 -20.1577 -20.1577 -20.1577 -20.1577 -20.1577
   -20.1509 -20.1509 -20.1509 -20.1508 -20.1507 -20.1507 -20.1507 -20.1507
   -20.1472 -20.1471 -20.1471 -20.1471 -20.1471 -20.1470 -20.1470 -20.1470
    -8.8772  -8.8771  -8.8459  -8.8459  -8.8406  -8.8406  -8.8406  -8.8406
    -8.3584  -8.3583  -8.3094  -8.3094  -8.3094  -8.3094  -8.3046  -8.3046
    -8.2496  -8.2495  -8.2495  -8.2495  -8.2156  -8.2156  -8.1948  -8.1947
     3.0215   3.0215   3.0215   3.0215   3.0224   3.0224   3.0445   3.0445
     3.2886   3.2886   3.2887   3.2887   3.2960   3.2960   3.3055   3.3055
     3.4025   3.4025   3.5568   3.5568   3.5568   3.5569   3.6216   3.6216
     4.2139   4.2139   4.2321   4.2321   4.2536   4.2536   4.2536   4.2536
     4.4540   4.4541   4.4541   4.4541   4.4758   4.4758   4.5160   4.5160
     4.5922   4.5922   4.5952   4.5953   4.6217   4.6217   4.6217   4.6217
     7.1336   7.1336   7.2483   7.2483   7.2483   7.2483   7.3835   7.3835
     7.4415   7.4415   7.4416   7.4416   7.4450   7.4451   7.4721   7.4722
     7.6380   7.6380   7.6667   7.6668   7.6668   7.6668   7.7220   7.7220
    11.9549  11.9549  11.9549  11.9549  11.9579  11.9579  11.9642  11.9642
    12.2829  12.2829  12.3586  12.3586  12.3586  12.3586  12.5203  12.5203
    12.5976  12.5976  12.6797  12.6797  12.6797  12.6797  12.7071  12.7071
    17.1689  17.1689  17.1927  17.1927  17.1927  17.1927  17.2364  17.2365
    17.4317  17.4317  17.4317  17.4317  17.5068

     the Fermi energy is     9.8644 ev

!    total energy              =   -6261.00320478 Ry
     Harris-Foulkes estimate   =   -6261.00320478 Ry
     estimated scf accuracy    <          9.4E-10 Ry

     The total energy is the sum of the following terms:

     one-electron contribution =   -4694.56709214 Ry
     hartree contribution      =    2585.69798334 Ry
     xc contribution           =    -965.82764053 Ry
     ewald contribution        =   -3186.30643642 Ry
     smearing contrib. (-TS)   =      -0.00001903 Ry

     convergence has been achieved in  13 iterations

     Writing output data file Landau_17.save

     General routines

     Parallel routines

   This run was terminated on:  19: 1: 9  10Sep2019

   JOB DONE.