     Program PWSCF v.6.2 (svn rev. 14038) starts on 11Mar2020 at  4: 3:21

     K-points division:     npool     =      40
     Reading input from rscf.in

     Current dimensions of program PWSCF are:
     Max number of different atomic species (ntypx) = 10
     Max number of k-points (npk) =  40000
     Max angular momentum in pseudopotentials (lmaxx) =  3

     Subspace diagonalization in iterative solution of the eigenvalue problem:
     a serial algorithm will be used

     bravais-lattice index     =            0
     lattice parameter (alat)  =      13.8397  a.u.
     unit-cell volume          =    2804.9816 (a.u.)^3
     number of atoms/cell      =           32
     number of atomic types    =            2
     number of electrons       =       368.00
     number of Kohn-Sham states=          221
     kinetic-energy cutoff     =     120.0000  Ry
     charge density cutoff     =     480.0000  Ry
     convergence threshold     =      1.0E-08
     mixing beta               =       0.7000
     number of iterations used =            8  plain     mixing
     Exchange-correlation      = SLA PW NOGX NOGC ( 1  4  0  0 0 0)
     nstep                     =           50

     celldm(1)=  13.839685  celldm(2)=   0.000000  celldm(3)=   0.000000
     celldm(4)=   0.000000  celldm(5)=   0.000000  celldm(6)=   0.000000

     crystal axes: (cart. coord. in units of alat)
               a(1) = (   1.000000   0.000000   0.000000 )
               a(2) = (   0.000000   1.058160   0.000000 )
               a(3) = (   0.000000   0.000000   1.000000 )

     reciprocal axes: (cart. coord. in units 2 pi/alat)
               b(1) = (  1.000000  0.000000  0.000000 )
               b(2) = (  0.000000  0.945037  0.000000 )
               b(3) = (  0.000000  0.000000  1.000000 )

     PseudoPot. # 1 for W  read from file:
     /cluster/scratch/mnoe/QE/pps/W_ONCV_LDA-4.0.upf
     MD5 check sum: ba0307d5d4cd419d6f1d13dc49d7c13a
     Pseudo is Norm-conserving + core correction, Zval = 28.0
     Generated using ONCVPSP code by D. R. Hamann
     Using radial grid of 1380 points,  8 beta functions with:
                l(1) =   0
                l(2) =   0
                l(3) =   1
                l(4) =   1
                l(5) =   2
                l(6) =   2
                l(7) =   3
                l(8) =   3

     PseudoPot. # 2 for O  read from file:
     /cluster/scratch/mnoe/QE/pps/O_ONCV_LDA-3.0.upf
     MD5 check sum: a1bd6164e7280c17a38c229939bfbd54
     Pseudo is Norm-conserving + core correction, Zval =  6.0
     Generated using ONCVPSP code by D. R. Hamann
     Using radial grid of  926 points,  5 beta functions with:
                l(1) =   0
                l(2) =   0
                l(3) =   1
                l(4) =   1
                l(5) =   2

     atomic species   valence    mass     pseudopotential
        W             28.00   183.84000     W ( 1.00)
        O              6.00    15.99940     O ( 1.00)

      8 Sym. Ops., with inversion, found ( 6 have fractional translation)

   Cartesian axes

     site n.     atom                  positions (alat units)
         1           W   tau(   1) = (   0.2458400   0.2977814   0.0039300  )
         2           W   tau(   2) = (   0.7541600   0.7603787   0.9960700  )
         3           W   tau(   3) = (   0.2541600   0.2312987   0.5039300  )
         4           W   tau(   4) = (   0.7458400   0.8268614   0.4960700  )
         5           W   tau(   5) = (   0.7541600   0.2977814   0.4960700  )
         6           W   tau(   6) = (   0.2458400   0.7603787   0.5039300  )
         7           W   tau(   7) = (   0.7458400   0.2312987   0.9960700  )
         8           W   tau(   8) = (   0.2541600   0.8268614   0.0039300  )
         9           O   tau(   9) = (   0.2423200   0.0086754   0.0012200  )
        10           O   tau(  10) = (   0.7576800   1.0494847   0.9987800  )
        11           O   tau(  11) = (   0.2576800   0.5204046   0.5012200  )
        12           O   tau(  12) = (   0.7423200   0.5377554   0.4987800  )
        13           O   tau(  13) = (   0.7576800   0.0086754   0.4987800  )
        14           O   tau(  14) = (   0.2423200   1.0494847   0.5012200  )
        15           O   tau(  15) = (   0.7423200   0.5204046   0.9987800  )
        16           O   tau(  16) = (   0.2576800   0.5377554   0.0012200  )
        17           O   tau(  17) = (   0.5011400   0.2562017   0.4506299  )
        18           O   tau(  18) = (   0.4988600   0.8019583   0.5493701  )
        19           O   tau(  19) = (   0.9988600   0.2728783   0.9506299  )
        20           O   tau(  20) = (   0.0011400   0.7852818   0.0493701  )
        21           O   tau(  21) = (   0.4988600   0.2562017   0.0493701  )
        22           O   tau(  22) = (   0.5011400   0.8019583   0.9506299  )
        23           O   tau(  23) = (   0.0011400   0.2728783   0.5493701  )
        24           O   tau(  24) = (   0.9988600   0.7852818   0.4506299  )
        25           O   tau(  25) = (   0.7006299   0.2627200   0.7482700  )
        26           O   tau(  26) = (   0.2993701   0.7954401   0.2517300  )
        27           O   tau(  27) = (   0.7993701   0.2663601   0.2482700  )
        28           O   tau(  28) = (   0.2006299   0.7918000   0.7517300  )
        29           O   tau(  29) = (   0.2993701   0.2627200   0.7517300  )
        30           O   tau(  30) = (   0.7006299   0.7954401   0.2482700  )
        31           O   tau(  31) = (   0.2006299   0.2663601   0.2517300  )
        32           O   tau(  32) = (   0.7993701   0.7918000   0.7482700  )

     number of k points=    64  gaussian smearing, width (Ry)=  0.0007
                       cart. coord. in units 2pi/alat
        k(    1) = (   0.0000000   0.0000000   0.0000000), wk =   0.0092593
        k(    2) = (   0.0000000   0.0000000   0.1666667), wk =   0.0185185
        k(    3) = (   0.0000000   0.0000000   0.3333333), wk =   0.0185185
        k(    4) = (   0.0000000   0.0000000  -0.5000000), wk =   0.0092593
        k(    5) = (   0.0000000   0.1575061   0.0000000), wk =   0.0185185
        k(    6) = (   0.0000000   0.1575061   0.1666667), wk =   0.0370370
        k(    7) = (   0.0000000   0.1575061   0.3333333), wk =   0.0370370
        k(    8) = (   0.0000000   0.1575061  -0.5000000), wk =   0.0185185
        k(    9) = (   0.0000000   0.3150122   0.0000000), wk =   0.0185185
        k(   10) = (   0.0000000   0.3150122   0.1666667), wk =   0.0370370
        k(   11) = (   0.0000000   0.3150122   0.3333333), wk =   0.0370370
        k(   12) = (   0.0000000   0.3150122  -0.5000000), wk =   0.0185185
        k(   13) = (   0.0000000  -0.4725183   0.0000000), wk =   0.0092593
        k(   14) = (   0.0000000  -0.4725183   0.1666667), wk =   0.0185185
        k(   15) = (   0.0000000  -0.4725183   0.3333333), wk =   0.0185185
        k(   16) = (   0.0000000  -0.4725183  -0.5000000), wk =   0.0092593
        k(   17) = (   0.1666667   0.0000000   0.1666667), wk =   0.0370370
        k(   18) = (   0.1666667   0.0000000   0.3333333), wk =   0.0370370
        k(   19) = (   0.1666667   0.0000000  -0.5000000), wk =   0.0185185
        k(   20) = (   0.1666667   0.1575061   0.1666667), wk =   0.0740741
        k(   21) = (   0.1666667   0.1575061   0.3333333), wk =   0.0740741
        k(   22) = (   0.1666667   0.1575061  -0.5000000), wk =   0.0370370
        k(   23) = (   0.1666667   0.3150122   0.1666667), wk =   0.0740741
        k(   24) = (   0.1666667   0.3150122   0.3333333), wk =   0.0740741
        k(   25) = (   0.1666667   0.3150122  -0.5000000), wk =   0.0370370
        k(   26) = (   0.1666667  -0.4725183   0.1666667), wk =   0.0370370
        k(   27) = (   0.1666667  -0.4725183   0.3333333), wk =   0.0370370
        k(   28) = (   0.1666667  -0.4725183  -0.5000000), wk =   0.0185185
        k(   29) = (   0.3333333   0.0000000   0.3333333), wk =   0.0370370
        k(   30) = (   0.3333333   0.0000000  -0.5000000), wk =   0.0185185
        k(   31) = (   0.3333333   0.1575061   0.3333333), wk =   0.0740741
        k(   32) = (   0.3333333   0.1575061  -0.5000000), wk =   0.0370370
        k(   33) = (   0.3333333   0.3150122   0.3333333), wk =   0.0740741
        k(   34) = (   0.3333333   0.3150122  -0.5000000), wk =   0.0370370
        k(   35) = (   0.3333333  -0.4725183   0.3333333), wk =   0.0370370
        k(   36) = (   0.3333333  -0.4725183  -0.5000000), wk =   0.0185185
        k(   37) = (  -0.5000000   0.0000000  -0.5000000), wk =   0.0092593
        k(   38) = (  -0.5000000   0.1575061  -0.5000000), wk =   0.0185185
        k(   39) = (  -0.5000000   0.3150122  -0.5000000), wk =   0.0185185
        k(   40) = (  -0.5000000  -0.4725183  -0.5000000), wk =   0.0092593
        k(   41) = (   0.1666667   0.0000000   0.0000000), wk =   0.0185185
        k(   42) = (   0.3333333   0.0000000   0.0000000), wk =   0.0185185
        k(   43) = (  -0.5000000   0.0000000   0.0000000), wk =   0.0092593
        k(   44) = (   0.1666667  -0.1575061   0.0000000), wk =   0.0370370
        k(   45) = (   0.3333333  -0.1575061   0.0000000), wk =   0.0370370
        k(   46) = (  -0.5000000  -0.1575061   0.0000000), wk =   0.0185185
        k(   47) = (   0.1666667  -0.3150122   0.0000000), wk =   0.0370370
        k(   48) = (   0.3333333  -0.3150122   0.0000000), wk =   0.0370370
        k(   49) = (  -0.5000000  -0.3150122   0.0000000), wk =   0.0185185
        k(   50) = (   0.1666667   0.4725183   0.0000000), wk =   0.0185185
        k(   51) = (   0.3333333   0.4725183   0.0000000), wk =   0.0185185
        k(   52) = (  -0.5000000   0.4725183   0.0000000), wk =   0.0092593
        k(   53) = (   0.3333333   0.0000000   0.1666667), wk =   0.0370370
        k(   54) = (  -0.5000000   0.0000000   0.1666667), wk =   0.0185185
        k(   55) = (   0.3333333  -0.1575061   0.1666667), wk =   0.0740741
        k(   56) = (  -0.5000000  -0.1575061   0.1666667), wk =   0.0370370
        k(   57) = (   0.3333333  -0.3150122   0.1666667), wk =   0.0740741
        k(   58) = (  -0.5000000  -0.3150122   0.1666667), wk =   0.0370370
        k(   59) = (   0.3333333   0.4725183   0.1666667), wk =   0.0370370
        k(   60) = (  -0.5000000   0.4725183   0.1666667), wk =   0.0185185
        k(   61) = (  -0.5000000   0.0000000   0.3333333), wk =   0.0185185
        k(   62) = (  -0.5000000  -0.1575061   0.3333333), wk =   0.0370370
        k(   63) = (  -0.5000000  -0.3150122   0.3333333), wk =   0.0370370
        k(   64) = (  -0.5000000   0.4725183   0.3333333), wk =   0.0185185

     Initial potential from superposition of free atoms

     starting charge  367.99656, renormalised to  368.00000
     Starting wfc are  232 randomized atomic wfcs

     Self-consistent Calculation

     iteration #  1     ecut=   120.00 Ry     beta= 0.70
     Davidson diagonalization with overlap
     ethr =  1.00E-02,  avg # of iterations =  5.0

     total energy              =   -6253.98595046 Ry
     Harris-Foulkes estimate   =   -6264.58593108 Ry
     estimated scf accuracy    <      13.42286726 Ry

[...]

     End of self-consistent calculation

[...]
End final coordinates

     A final scf calculation at the relaxed structure.
     The G-vectors are recalculated for the final unit cell
     Results may differ from those at the preceding step.

     bravais-lattice index     =            0
     lattice parameter (alat)  =      13.8397  a.u.
     unit-cell volume          =    2806.6197 (a.u.)^3
     number of atoms/cell      =           32
     number of atomic types    =            2
     number of electrons       =       368.00
     number of Kohn-Sham states=          221
     kinetic-energy cutoff     =     120.0000  Ry
     charge density cutoff     =     480.0000  Ry
     convergence threshold     =      1.0E-10
     mixing beta               =       0.7000
     number of iterations used =            8  plain     mixing
     Exchange-correlation      = SLA PW NOGX NOGC ( 1  4  0  0 0 0)

     celldm(1)=  13.839685  celldm(2)=   0.000000  celldm(3)=   0.000000
     celldm(4)=   0.000000  celldm(5)=   0.000000  celldm(6)=   0.000000

     crystal axes: (cart. coord. in units of alat)
               a(1) = (   1.000957   0.000000   0.000000 )
               a(2) = (   0.000000   1.056331   0.000000 )
               a(3) = (   0.000000   0.000000   1.001358 )

     reciprocal axes: (cart. coord. in units 2 pi/alat)
               b(1) = (  0.999044  0.000000  0.000000 )
               b(2) = (  0.000000  0.946673  0.000000 )
               b(3) = (  0.000000  0.000000  0.998644 )

     PseudoPot. # 1 for W  read from file:
     /cluster/scratch/mnoe/QE/pps/W_ONCV_LDA-4.0.upf
     MD5 check sum: ba0307d5d4cd419d6f1d13dc49d7c13a
     Pseudo is Norm-conserving + core correction, Zval = 28.0
     Generated using ONCVPSP code by D. R. Hamann
     Using radial grid of 1380 points,  8 beta functions with:
                l(1) =   0
                l(2) =   0
                l(3) =   1
                l(4) =   1
                l(5) =   2
                l(6) =   2
                l(7) =   3
                l(8) =   3

     PseudoPot. # 2 for O  read from file:
     /cluster/scratch/mnoe/QE/pps/O_ONCV_LDA-3.0.upf
     MD5 check sum: a1bd6164e7280c17a38c229939bfbd54
     Pseudo is Norm-conserving + core correction, Zval =  6.0
     Generated using ONCVPSP code by D. R. Hamann
     Using radial grid of  926 points,  5 beta functions with:
                l(1) =   0
                l(2) =   0
                l(3) =   1
                l(4) =   1
                l(5) =   2

     atomic species   valence    mass     pseudopotential
        W             28.00   183.84000     W ( 1.00)
        O              6.00    15.99940     O ( 1.00)

      8 Sym. Ops., with inversion, found ( 6 have fractional translation)

   Cartesian axes

     site n.     atom                  positions (alat units)
         1           W   tau(   1) = (   0.2460752   0.2972667   0.0039353  )
         2           W   tau(   2) = (   0.7548816   0.7590646   0.9974227  )
         3           W   tau(   3) = (   0.2544032   0.2308990   0.5046143  )
         4           W   tau(   4) = (   0.7465536   0.8254324   0.4967437  )
         5           W   tau(   5) = (   0.7548816   0.2972667   0.4967437  )
         6           W   tau(   6) = (   0.2460752   0.7590646   0.5046143  )
         7           W   tau(   7) = (   0.7465536   0.2308990   0.9974227  )
         8           W   tau(   8) = (   0.2544032   0.8254324   0.0039353  )
         9           O   tau(   9) = (   0.2425519   0.0086604   0.0012217  )
        10           O   tau(  10) = (   0.7584050   1.0476710   1.0001364  )
        11           O   tau(  11) = (   0.2579266   0.5195053   0.5019007  )
        12           O   tau(  12) = (   0.7430303   0.5368261   0.4994574  )
        13           O   tau(  13) = (   0.7584050   0.0086604   0.4994574  )
        14           O   tau(  14) = (   0.2425519   1.0476710   0.5019007  )
        15           O   tau(  15) = (   0.7430303   0.5195053   1.0001364  )
        16           O   tau(  16) = (   0.2579266   0.5368261   0.0012217  )
        17           O   tau(  17) = (   0.5016195   0.2557589   0.4512418  )
        18           O   tau(  18) = (   0.4993373   0.8005724   0.5501162  )
        19           O   tau(  19) = (   0.9998158   0.2724067   0.9519209  )
        20           O   tau(  20) = (   0.0011411   0.7839247   0.0494372  )
        21           O   tau(  21) = (   0.4993373   0.2557589   0.0494372  )
        22           O   tau(  22) = (   0.5016195   0.8005724   0.9519209  )
        23           O   tau(  23) = (   0.0011411   0.2724067   0.5501162  )
        24           O   tau(  24) = (   0.9998158   0.7839247   0.4512418  )
        25           O   tau(  25) = (   0.7013003   0.2622660   0.7492862  )
        26           O   tau(  26) = (   0.2996566   0.7940654   0.2520719  )
        27           O   tau(  27) = (   0.8001350   0.2658998   0.2486072  )
        28           O   tau(  28) = (   0.2008218   0.7904316   0.7527509  )
        29           O   tau(  29) = (   0.2996566   0.2622660   0.7527509  )
        30           O   tau(  30) = (   0.7013003   0.7940654   0.2486072  )
        31           O   tau(  31) = (   0.2008218   0.2658998   0.2520719  )
        32           O   tau(  32) = (   0.8001350   0.7904316   0.7492862  )

     number of k points=    64  gaussian smearing, width (Ry)=  0.0007
                       cart. coord. in units 2pi/alat
        k(    1) = (   0.0000000   0.0000000   0.0000000), wk =   0.0092593
        k(    2) = (   0.0000000   0.0000000   0.1664406), wk =   0.0185185
        k(    3) = (   0.0000000   0.0000000   0.3328813), wk =   0.0185185
        k(    4) = (   0.0000000   0.0000000  -0.4993219), wk =   0.0092593
        k(    5) = (   0.0000000   0.1577788   0.0000000), wk =   0.0185185
        k(    6) = (   0.0000000   0.1577788   0.1664406), wk =   0.0370370
        k(    7) = (   0.0000000   0.1577788   0.3328813), wk =   0.0370370
        k(    8) = (   0.0000000   0.1577788  -0.4993219), wk =   0.0185185
        k(    9) = (   0.0000000   0.3155575   0.0000000), wk =   0.0185185
        k(   10) = (   0.0000000   0.3155575   0.1664406), wk =   0.0370370
        k(   11) = (   0.0000000   0.3155575   0.3328813), wk =   0.0370370
        k(   12) = (   0.0000000   0.3155575  -0.4993219), wk =   0.0185185
        k(   13) = (   0.0000000  -0.4733363   0.0000000), wk =   0.0092593
        k(   14) = (   0.0000000  -0.4733363   0.1664406), wk =   0.0185185
        k(   15) = (   0.0000000  -0.4733363   0.3328813), wk =   0.0185185
        k(   16) = (   0.0000000  -0.4733363  -0.4993219), wk =   0.0092593
        k(   17) = (   0.1665073   0.0000000   0.1664406), wk =   0.0370370
        k(   18) = (   0.1665073   0.0000000   0.3328813), wk =   0.0370370
        k(   19) = (   0.1665073   0.0000000  -0.4993219), wk =   0.0185185
        k(   20) = (   0.1665073   0.1577788   0.1664406), wk =   0.0740741
        k(   21) = (   0.1665073   0.1577788   0.3328813), wk =   0.0740741
        k(   22) = (   0.1665073   0.1577788  -0.4993219), wk =   0.0370370
        k(   23) = (   0.1665073   0.3155575   0.1664406), wk =   0.0740741
        k(   24) = (   0.1665073   0.3155575   0.3328813), wk =   0.0740741
        k(   25) = (   0.1665073   0.3155575  -0.4993219), wk =   0.0370370
        k(   26) = (   0.1665073  -0.4733363   0.1664406), wk =   0.0370370
        k(   27) = (   0.1665073  -0.4733363   0.3328813), wk =   0.0370370
        k(   28) = (   0.1665073  -0.4733363  -0.4993219), wk =   0.0185185
        k(   29) = (   0.3330147   0.0000000   0.3328813), wk =   0.0370370
        k(   30) = (   0.3330147   0.0000000  -0.4993219), wk =   0.0185185
        k(   31) = (   0.3330147   0.1577788   0.3328813), wk =   0.0740741
        k(   32) = (   0.3330147   0.1577788  -0.4993219), wk =   0.0370370
        k(   33) = (   0.3330147   0.3155575   0.3328813), wk =   0.0740741
        k(   34) = (   0.3330147   0.3155575  -0.4993219), wk =   0.0370370
        k(   35) = (   0.3330147  -0.4733363   0.3328813), wk =   0.0370370
        k(   36) = (   0.3330147  -0.4733363  -0.4993219), wk =   0.0185185
        k(   37) = (  -0.4995220   0.0000000  -0.4993219), wk =   0.0092593
        k(   38) = (  -0.4995220   0.1577788  -0.4993219), wk =   0.0185185
        k(   39) = (  -0.4995220   0.3155575  -0.4993219), wk =   0.0185185
        k(   40) = (  -0.4995220  -0.4733363  -0.4993219), wk =   0.0092593
        k(   41) = (   0.1665073   0.0000000   0.0000000), wk =   0.0185185
        k(   42) = (   0.3330147   0.0000000   0.0000000), wk =   0.0185185
        k(   43) = (  -0.4995220   0.0000000   0.0000000), wk =   0.0092593
        k(   44) = (   0.1665073  -0.1577788   0.0000000), wk =   0.0370370
        k(   45) = (   0.3330147  -0.1577788   0.0000000), wk =   0.0370370
        k(   46) = (  -0.4995220  -0.1577788   0.0000000), wk =   0.0185185
        k(   47) = (   0.1665073  -0.3155575   0.0000000), wk =   0.0370370
        k(   48) = (   0.3330147  -0.3155575   0.0000000), wk =   0.0370370
        k(   49) = (  -0.4995220  -0.3155575   0.0000000), wk =   0.0185185
        k(   50) = (   0.1665073   0.4733363   0.0000000), wk =   0.0185185
        k(   51) = (   0.3330147   0.4733363   0.0000000), wk =   0.0185185
        k(   52) = (  -0.4995220   0.4733363   0.0000000), wk =   0.0092593
        k(   53) = (   0.3330147   0.0000000   0.1664406), wk =   0.0370370
        k(   54) = (  -0.4995220   0.0000000   0.1664406), wk =   0.0185185
        k(   55) = (   0.3330147  -0.1577788   0.1664406), wk =   0.0740741
        k(   56) = (  -0.4995220  -0.1577788   0.1664406), wk =   0.0370370
        k(   57) = (   0.3330147  -0.3155575   0.1664406), wk =   0.0740741
        k(   58) = (  -0.4995220  -0.3155575   0.1664406), wk =   0.0370370
        k(   59) = (   0.3330147   0.4733363   0.1664406), wk =   0.0370370
        k(   60) = (  -0.4995220   0.4733363   0.1664406), wk =   0.0185185
        k(   61) = (  -0.4995220   0.0000000   0.3328813), wk =   0.0185185
        k(   62) = (  -0.4995220  -0.1577788   0.3328813), wk =   0.0370370
        k(   63) = (  -0.4995220  -0.3155575   0.3328813), wk =   0.0370370
        k(   64) = (  -0.4995220   0.4733363   0.3328813), wk =   0.0185185

     Initial potential from superposition of free atoms

     starting charge  367.99656, renormalised to  368.00000
     Starting wfc are  232 randomized atomic wfcs

     Writing output data file Landau_9.save

     Self-consistent Calculation

[...]

     total energy              =   -6261.11005911 Ry
     Harris-Foulkes estimate   =   -6261.11005911 Ry
     estimated scf accuracy    <          5.1E-10 Ry

     iteration # 14     ecut=   120.00 Ry     beta= 0.70
     Davidson diagonalization with overlap
     ethr =  1.39E-13,  avg # of iterations =  2.3

     End of self-consistent calculation

[...]

          k = 0.3330 0.4733 0.1664 ( 62268 PWs)   bands (ev):

[...]

          k =-0.4995 0.4733 0.3329 ( 62256 PWs)   bands (ev):

   -66.1841 -66.1840 -66.1840 -66.1840 -66.1836 -66.1836 -66.1835 -66.1835
   -30.5470 -30.5470 -30.5467 -30.5467 -30.5449 -30.5449 -30.5446 -30.5446
   -30.5014 -30.5014 -30.5014 -30.5014 -30.4770 -30.4770 -30.4766 -30.4766
   -30.4748 -30.4747 -30.4744 -30.4744 -30.4522 -30.4522 -30.4522 -30.4522
   -20.3455 -20.3455 -20.3455 -20.3455 -20.3454 -20.3454 -20.3454 -20.3454
   -20.3244 -20.3244 -20.3244 -20.3244 -20.3242 -20.3242 -20.3242 -20.3242
   -20.3223 -20.3222 -20.3222 -20.3222 -20.3217 -20.3217 -20.3217 -20.3217
   -20.3213 -20.3213 -20.3213 -20.3213 -20.3210 -20.3210 -20.3210 -20.3210
   -20.3121 -20.3121 -20.3121 -20.3121 -20.3111 -20.3111 -20.3111 -20.3110
   -20.3097 -20.3097 -20.3097 -20.3097 -20.3081 -20.3081 -20.3081 -20.3081
   -20.3073 -20.3073 -20.3073 -20.3073 -20.3058 -20.3058 -20.3058 -20.3058
    -9.1950  -9.1950  -9.1910  -9.1910  -8.7965  -8.7965  -8.7862  -8.7862
    -8.5608  -8.5608  -8.5509  -8.5509  -8.4008  -8.4007  -8.3865  -8.3865
    -8.3515  -8.3515  -8.3396  -8.3396  -8.1189  -8.1189  -8.1178  -8.1177
     2.2489   2.2489   2.2549   2.2549   2.9733   2.9734   3.0030   3.0030
     3.1119   3.1119   3.1196   3.1196   3.2473   3.2473   3.2651   3.2651
     3.3755   3.3755   3.4134   3.4134   3.6173   3.6173   3.6501   3.6501
     3.7535   3.7535   3.8356   3.8356   4.2387   4.2387   4.2668   4.2669
     4.3197   4.3197   4.3830   4.3830   4.4538   4.4538   4.5593   4.5593
     4.6470   4.6470   4.7989   4.7989   5.0502   5.0502   5.0693   5.0693
     7.0093   7.0093   7.0633   7.0633   7.1714   7.1714   7.1796   7.1796
     7.2632   7.2632   7.3042   7.3042   7.3429   7.3429   7.3928   7.3928
     7.4717   7.4717   7.5393   7.5393   7.5946   7.5946   7.6223   7.6223
    11.4100  11.4100  11.4398  11.4399  11.7267  11.7267  11.7972  11.7972
    12.1655  12.1655  12.2097  12.2097  12.3011  12.3012  12.3351  12.3351
    12.4812  12.4812  12.5831  12.5831  12.9527  12.9527  13.0287  13.0287
    16.4571  16.4571  16.5031  16.5031  17.0630  17.0630  17.0946  17.0946
    17.3045  17.3045  17.3651  17.3652  17.3920

     the Fermi energy is     8.9529 ev

!    total energy              =   -6261.11005911 Ry
     Harris-Foulkes estimate   =   -6261.11005911 Ry
     estimated scf accuracy    <          5.2E-11 Ry

     The total energy is the sum of the following terms:

     one-electron contribution =   -4723.52194910 Ry
     hartree contribution      =    2598.32930071 Ry
     xc contribution           =    -965.66863602 Ry
     ewald contribution        =   -3170.24877470 Ry
     smearing contrib. (-TS)   =      -0.00000000 Ry

     convergence has been achieved in  14 iterations

     Forces acting on atoms (cartesian axes, Ry/au):

     atom    1 type  1   force =    -0.00167169    0.00061697    0.00111490
     atom    2 type  1   force =     0.00167169   -0.00061697   -0.00111490
     atom    3 type  1   force =     0.00167169   -0.00061697    0.00111490
     atom    4 type  1   force =    -0.00167169    0.00061697   -0.00111490
     atom    5 type  1   force =     0.00167169    0.00061697   -0.00111490
     atom    6 type  1   force =    -0.00167169   -0.00061697    0.00111490
     atom    7 type  1   force =    -0.00167169   -0.00061697   -0.00111490
     atom    8 type  1   force =     0.00167169    0.00061697    0.00111490
     atom    9 type  2   force =    -0.00027296   -0.00022855    0.00016946
     atom   10 type  2   force =     0.00027296    0.00022855   -0.00016946
     atom   11 type  2   force =     0.00027296    0.00022855    0.00016946
     atom   12 type  2   force =    -0.00027296   -0.00022855   -0.00016946
     atom   13 type  2   force =     0.00027296   -0.00022855   -0.00016946
     atom   14 type  2   force =    -0.00027296    0.00022855    0.00016946
     atom   15 type  2   force =    -0.00027296    0.00022855   -0.00016946
     atom   16 type  2   force =     0.00027296   -0.00022855    0.00016946
     atom   17 type  2   force =    -0.00083619    0.00005258    0.00002496
     atom   18 type  2   force =     0.00083619   -0.00005258   -0.00002496
     atom   19 type  2   force =     0.00083619   -0.00005258    0.00002496
     atom   20 type  2   force =    -0.00083619    0.00005258   -0.00002496
     atom   21 type  2   force =     0.00083619    0.00005258   -0.00002496
     atom   22 type  2   force =    -0.00083619   -0.00005258    0.00002496
     atom   23 type  2   force =    -0.00083619   -0.00005258   -0.00002496
     atom   24 type  2   force =     0.00083619    0.00005258    0.00002496
     atom   25 type  2   force =    -0.00021926   -0.00068019    0.00063738
     atom   26 type  2   force =     0.00021926    0.00068019   -0.00063738
     atom   27 type  2   force =     0.00021926    0.00068019    0.00063738
     atom   28 type  2   force =    -0.00021926   -0.00068019   -0.00063738
     atom   29 type  2   force =     0.00021926   -0.00068019   -0.00063738
     atom   30 type  2   force =    -0.00021926    0.00068019    0.00063738
     atom   31 type  2   force =    -0.00021926    0.00068019   -0.00063738
     atom   32 type  2   force =     0.00021926   -0.00068019    0.00063738

     Total force =     0.000000     Total SCF correction =     0.000000

     Computing stress (Cartesian axis) and pressure

          total   stress  (Ry/bohr**3)                   (kbar)     P=   -0.01
   0.00000008   0.00000000   0.00000000          0.01      0.00      0.00
   0.00000000  -0.00000038   0.00000000          0.00     -0.06      0.00
   0.00000000   0.00000000   0.00000016          0.00      0.00      0.02

     Writing output data file Landau_9.save

     General routines

     Parallel routines

   This run was terminated on:   8: 2:55  11Mar2020

   JOB DONE.