     Program PWSCF v.6.2 (svn rev. 14038) starts on  4Mar2020 at 23: 8:55

     K-points division:     npool     =      64
     Reading input from rscf.in

     Current dimensions of program PWSCF are:
     Max number of different atomic species (ntypx) = 10
     Max number of k-points (npk) =  40000
     Max angular momentum in pseudopotentials (lmaxx) =  3

     Subspace diagonalization in iterative solution of the eigenvalue problem:
     a serial algorithm will be used

     Found symmetry operation: I + (  0.5000  0.0000 -0.5000)
     This is a supercell, fractional translations are disabled

     bravais-lattice index     =            0
     lattice parameter (alat)  =      13.8397  a.u.
     unit-cell volume          =    2804.9816 (a.u.)^3
     number of atoms/cell      =           32
     number of atomic types    =            2
     number of electrons       =       368.00
     number of Kohn-Sham states=          221
     kinetic-energy cutoff     =     120.0000  Ry
     charge density cutoff     =     480.0000  Ry
     convergence threshold     =      1.0E-08
     mixing beta               =       0.7000
     number of iterations used =            8  plain     mixing
     Exchange-correlation      = SLA PW NOGX NOGC ( 1  4  0  0 0 0)
     nstep                     =           50

     celldm(1)=  13.839685  celldm(2)=   0.000000  celldm(3)=   0.000000
     celldm(4)=   0.000000  celldm(5)=   0.000000  celldm(6)=   0.000000

     crystal axes: (cart. coord. in units of alat)
               a(1) = (   1.000000   0.000000   0.000000 )
               a(2) = (   0.000000   1.058160   0.000000 )
               a(3) = (   0.000000   0.000000   1.000000 )

     reciprocal axes: (cart. coord. in units 2 pi/alat)
               b(1) = (  1.000000  0.000000  0.000000 )
               b(2) = (  0.000000  0.945037  0.000000 )
               b(3) = (  0.000000  0.000000  1.000000 )

     PseudoPot. # 1 for W  read from file:
     /cluster/scratch/mnoe/QE/pps/W_ONCV_LDA-4.0.upf
     MD5 check sum: ba0307d5d4cd419d6f1d13dc49d7c13a
     Pseudo is Norm-conserving + core correction, Zval = 28.0
     Generated using ONCVPSP code by D. R. Hamann
     Using radial grid of 1380 points,  8 beta functions with:
                l(1) =   0
                l(2) =   0
                l(3) =   1
                l(4) =   1
                l(5) =   2
                l(6) =   2
                l(7) =   3
                l(8) =   3

     PseudoPot. # 2 for O  read from file:
     /cluster/scratch/mnoe/QE/pps/O_ONCV_LDA-3.0.upf
     MD5 check sum: a1bd6164e7280c17a38c229939bfbd54
     Pseudo is Norm-conserving + core correction, Zval =  6.0
     Generated using ONCVPSP code by D. R. Hamann
     Using radial grid of  926 points,  5 beta functions with:
                l(1) =   0
                l(2) =   0
                l(3) =   1
                l(4) =   1
                l(5) =   2

     atomic species   valence    mass     pseudopotential
        W             28.00   183.84000     W ( 1.00)
        O              6.00    15.99940     O ( 1.00)

      2 Sym. Ops., with inversion, found

   Cartesian axes

     site n.     atom                  positions (alat units)
         1           W   tau(   1) = (   0.2500000   0.2864614   0.0000000  )
         2           W   tau(   2) = (   0.7499999   0.7716987   0.0000000  )
         3           W   tau(   3) = (   0.2500000   0.2426187   0.5000000  )
         4           W   tau(   4) = (   0.7499999   0.8155415   0.5000000  )
         5           W   tau(   5) = (   0.7499999   0.2864614   0.5000000  )
         6           W   tau(   6) = (   0.2500000   0.7716987   0.5000000  )
         7           W   tau(   7) = (   0.7499999   0.2426187   0.0000000  )
         8           W   tau(   8) = (   0.2500000   0.8155415   0.0000000  )
         9           O   tau(   9) = (   0.2500000   0.0055915   0.0000000  )
        10           O   tau(  10) = (   0.7499999   1.0525685   0.0000000  )
        11           O   tau(  11) = (   0.2500000   0.5234886   0.5000000  )
        12           O   tau(  12) = (   0.7499999   0.5346716   0.5000000  )
        13           O   tau(  13) = (   0.7499999   0.0055915   0.5000000  )
        14           O   tau(  14) = (   0.2500000   1.0525685   0.5000000  )
        15           O   tau(  15) = (   0.7499999   0.5234886   0.0000000  )
        16           O   tau(  16) = (   0.2500000   0.5346716   0.0000000  )
        17           O   tau(  17) = (   0.5000000   0.2645400   0.4767881  )
        18           O   tau(  18) = (   0.5000000   0.7936201   0.5232120  )
        19           O   tau(  19) = (   0.0000000   0.2645400   0.9767881  )
        20           O   tau(  20) = (   0.0000000   0.7936201   0.0232119  )
        21           O   tau(  21) = (   0.5000000   0.2645400   0.0232119  )
        22           O   tau(  22) = (   0.5000000   0.7936201   0.9767881  )
        23           O   tau(  23) = (   0.0000000   0.2645400   0.5232120  )
        24           O   tau(  24) = (   0.0000000   0.7936201   0.4767881  )
        25           O   tau(  25) = (   0.7267880   0.2645400   0.7499999  )
        26           O   tau(  26) = (   0.2732119   0.7936201   0.2500000  )
        27           O   tau(  27) = (   0.7732121   0.2645400   0.2500000  )
        28           O   tau(  28) = (   0.2267881   0.7936201   0.7499999  )
        29           O   tau(  29) = (   0.2732119   0.2645400   0.7499999  )
        30           O   tau(  30) = (   0.7267880   0.7936201   0.2500000  )
        31           O   tau(  31) = (   0.2267881   0.2645400   0.2500000  )
        32           O   tau(  32) = (   0.7732121   0.7936201   0.7499999  )

     number of k points=   112  gaussian smearing, width (Ry)=  0.0007

     Number of k-points >= 100: set verbosity='high' to print them.

     Initial potential from superposition of free atoms

     starting charge  367.99656, renormalised to  368.00000
     Starting wfc are  232 randomized atomic wfcs

     Self-consistent Calculation

     iteration #  1     ecut=   120.00 Ry     beta= 0.70
     Davidson diagonalization with overlap
     ethr =  1.00E-02,  avg # of iterations =  5.3

     total energy              =   -6254.03334342 Ry
     Harris-Foulkes estimate   =   -6264.54208608 Ry
     estimated scf accuracy    <      13.34455006 Ry

[...]

     End of self-consistent calculation

     Number of k-points >= 100: set verbosity='high' to print the bands.

     the Fermi energy is     8.8743 ev

!    total energy              =   -6261.01588686 Ry
     Harris-Foulkes estimate   =   -6261.01588687 Ry
     estimated scf accuracy    <          3.1E-09 Ry

     The total energy is the sum of the following terms:

     one-electron contribution =   -4799.03597699 Ry
     hartree contribution      =    2636.38211225 Ry
     xc contribution           =    -966.52381228 Ry
     ewald contribution        =   -3131.83820985 Ry
     smearing contrib. (-TS)   =      -0.00000000 Ry

     convergence has been achieved in  14 iterations

     Forces acting on atoms (cartesian axes, Ry/au):

     atom    1 type  1   force =     0.00000917    0.06270608   -0.00000089
     atom    2 type  1   force =    -0.00000917   -0.06270608    0.00000089
     atom    3 type  1   force =     0.00001682   -0.06274002    0.00000081
     atom    4 type  1   force =    -0.00001682    0.06274002   -0.00000081
     atom    5 type  1   force =    -0.00000779    0.06278409    0.00000740
     atom    6 type  1   force =     0.00000779   -0.06278409   -0.00000740
     atom    7 type  1   force =    -0.00000500   -0.06280990   -0.00000679
     atom    8 type  1   force =     0.00000500    0.06280990    0.00000679
     atom    9 type  2   force =     0.00000079   -0.03097262    0.00000006
     atom   10 type  2   force =    -0.00000079    0.03097262   -0.00000006
     atom   11 type  2   force =     0.00000076    0.03097493   -0.00000002
     atom   12 type  2   force =    -0.00000076   -0.03097493    0.00000002
     atom   13 type  2   force =    -0.00000041   -0.03097894    0.00000002
     atom   14 type  2   force =     0.00000041    0.03097894   -0.00000002
     atom   15 type  2   force =    -0.00000028    0.03098119   -0.00000001
     atom   16 type  2   force =     0.00000028   -0.03098119    0.00000001
     atom   17 type  2   force =    -0.00000198    0.00000023   -0.01113800
     atom   18 type  2   force =     0.00000198   -0.00000023    0.01113800
     atom   19 type  2   force =     0.00000086    0.00000087   -0.01113816
     atom   20 type  2   force =    -0.00000086   -0.00000087    0.01113816
     atom   21 type  2   force =    -0.00000129   -0.00000089    0.01113831
     atom   22 type  2   force =     0.00000129    0.00000089   -0.01113831
     atom   23 type  2   force =     0.00000159   -0.00000062    0.01113804
     atom   24 type  2   force =    -0.00000159    0.00000062   -0.01113804
     atom   25 type  2   force =    -0.01113893   -0.00000026    0.00000087
     atom   26 type  2   force =     0.01113893    0.00000026   -0.00000087
     atom   27 type  2   force =     0.01113828    0.00000002   -0.00000113
     atom   28 type  2   force =    -0.01113828   -0.00000002    0.00000113
     atom   29 type  2   force =     0.01113877   -0.00000016    0.00000001
     atom   30 type  2   force =    -0.01113877    0.00000016   -0.00000001
     atom   31 type  2   force =    -0.01113764    0.00000000   -0.00000035
     atom   32 type  2   force =     0.01113764   -0.00000000    0.00000035

     Total force =     0.000000     Total SCF correction =     0.000000

     Computing stress (Cartesian axis) and pressure

          total   stress  (Ry/bohr**3)                   (kbar)     P=   80.41
   0.00108242  -0.00000000  -0.00000000        159.23     -0.00     -0.00
  -0.00000000  -0.00052507   0.00000000         -0.00    -77.24      0.00
  -0.00000000   0.00000000   0.00108240         -0.00      0.00    159.23

     BFGS Geometry Optimization

     number of scf cycles    =   1
     number of bfgs steps    =   0

     enthalpy new            =   -6261.0158868635 Ry

     new trust radius        =       0.2866369986 bohr
     new conv_thr            =       0.0000000100 Ry

     new unit-cell volume =   2920.00306 a.u.^3 (   432.69981 Ang^3 )
     density =      7.11766 g/cm^3

CELL_PARAMETERS (angstrom)
   7.521828245  -0.000000365  -0.000000007
  -0.000000386   7.647862523   0.000000205
  -0.000000007   0.000000194   7.521824829

ATOMIC_POSITIONS (crystal)
W        0.250000000   0.270716501  -0.000000000    0   0   0
W        0.749999941   0.729283499   0.000000000    0   0   0
W        0.250000000   0.229283518   0.500000000    0   0   0
W        0.749999941   0.770716585   0.500000000    0   0   0
W        0.749999941   0.270716501   0.500000000    0   0   0
W        0.250000000   0.729283499   0.500000000    0   0   0
W        0.749999941   0.229283518  -0.000000000    0   0   0
W        0.250000000   0.770716585   0.000000000    0   0   0
O        0.250000000   0.005284180  -0.000000000    0   0   0
O        0.749999941   0.994715766   0.000000000    0   0   0
[...]
O        0.749999941   0.494715849   0.000000000    0   0   0
O        0.250000000   0.505284234  -0.000000000    0   0   0
O        0.500000000   0.250000000   0.476788059    0   0   0
O        0.500000000   0.750000041   0.523212030    0   0   0
O       -0.000000000   0.250000000   0.976788092    0   0   0
O        0.000000000   0.750000041   0.023211854    0   0   0
O        0.500000000   0.250000000   0.023211854    0   0   0
O        0.500000000   0.750000041   0.976788092    0   0   0
O       -0.000000000   0.250000000   0.523212030    0   0   0
O        0.000000000   0.750000041   0.476788059    0   0   0
O        0.726788029   0.250000000   0.749999941    0   0   0
O        0.273211882   0.750000041   0.250000000    0   0   0
O        0.773212090   0.250000000   0.250000000    0   0   0
O        0.226788075   0.750000041   0.749999941    0   0   0
O        0.273211882   0.250000000   0.749999941    0   0   0
O        0.726788029   0.750000041   0.250000000    0   0   0
O        0.226788075   0.250000000   0.250000000    0   0   0
O        0.773212090   0.750000041   0.749999941    0   0   0

     Writing output data file Landau_28.save
     NEW-OLD atomic charge density approx. for the potential
     extrapolated charge  382.49570, renormalised to  368.00000

[...]

     enthalpy old            =   -6261.0158868635 Ry
     enthalpy new            =   -6261.0827887748 Ry

     CASE: enthalpy_new < enthalpy_old

[...]

     Threshold (ethr) on eigenvalues was too large:
     Diagonalizing with lowered threshold

     Davidson diagonalization with overlap
     ethr =  1.08E-08,  avg # of iterations =  3.0

[...]

     number of scf cycles    =   5
     number of bfgs steps    =   4

     enthalpy old            =   -6261.0886935849 Ry
     enthalpy new            =   -6261.0886981185 Ry

     CASE: enthalpy_new < enthalpy_old

     small trust_radius: resetting bfgs history

     new trust radius        =       0.0000109554 bohr
     new conv_thr            =            1.0E-10 Ry

     new unit-cell volume =   2878.71427 a.u.^3 (   426.58144 Ang^3 )
     density =      7.21975 g/cm^3

[...]

ATOMIC_POSITIONS (crystal)
W        0.250000000   0.270716501   0.000000000    0   0   0
W        0.749999941   0.729283499  -0.000000000    0   0   0
W        0.250000000   0.229283518   0.500000000    0   0   0
W        0.749999941   0.770716585   0.500000000    0   0   0
W        0.749999941   0.270716501   0.500000000    0   0   0
W        0.250000000   0.729283499   0.500000000    0   0   0
W        0.749999941   0.229283518   0.000000000    0   0   0
W        0.250000000   0.770716585   0.000000000    0   0   0
O        0.250000000   0.005284180   0.000000000    0   0   0
O        0.749999941   0.994715766   0.000000000    0   0   0
O        0.250000000   0.494715849   0.500000000    0   0   0
O        0.749999941   0.505284234   0.500000000    0   0   0
O        0.749999941   0.005284180   0.500000000    0   0   0
O        0.250000000   0.994715766   0.500000000    0   0   0
O        0.749999941   0.494715849   0.000000000    0   0   0
O        0.250000000   0.505284234  -0.000000000    0   0   0
O        0.500000000   0.250000000   0.476788059    0   0   0
O        0.500000000   0.750000041   0.523212030    0   0   0
O       -0.000000000   0.250000000   0.976788092    0   0   0
O       -0.000000000   0.750000041   0.023211854    0   0   0
O        0.500000000   0.250000000   0.023211854    0   0   0
O        0.500000000   0.750000041   0.976788092    0   0   0
O       -0.000000000   0.250000000   0.523212030    0   0   0
O       -0.000000000   0.750000041   0.476788059    0   0   0
O        0.726788029   0.250000000   0.749999941    0   0   0
O        0.273211882   0.750000041   0.250000000    0   0   0
O        0.773212090   0.250000000   0.250000000    0   0   0
O        0.226788075   0.750000041   0.749999941    0   0   0
O        0.273211882   0.250000000   0.749999941    0   0   0
O        0.726788029   0.750000041   0.250000000    0   0   0
O        0.226788075   0.250000000   0.250000000    0   0   0
O        0.773212090   0.750000041   0.749999941    0   0   0

     Writing output data file Landau_28.save
     NEW-OLD atomic charge density approx. for the potential
     extrapolated charge  368.00058, renormalised to  368.00000

[...]

     Threshold (ethr) on eigenvalues was too large:
     Diagonalizing with lowered threshold

     Davidson diagonalization with overlap
     ethr =  4.21E-12,  avg # of iterations =  2.8

[...]

     bfgs converged in   6 scf cycles and   5 bfgs steps
     (criteria: energy <  1.0E-07 Ry, force <  1.0E-07Ry/Bohr, cell <  5.0E-01kbar)

     End of BFGS Geometry Optimization

     Final enthalpy =   -6261.0886981190 Ry
Begin final coordinates
     new unit-cell volume =   2878.71427 a.u.^3 (   426.58144 Ang^3 )
     density =      7.21975 g/cm^3

CELL_PARAMETERS (angstrom)
   7.476238404  -0.000000306  -0.000000015
  -0.000000328   7.631952752   0.000000115
  -0.000000015   0.000000109   7.476238366

ATOMIC_POSITIONS (crystal)
W        0.250000000   0.270716501   0.000000000    0   0   0
W        0.749999941   0.729283499  -0.000000000    0   0   0
W        0.250000000   0.229283518   0.500000000    0   0   0
W        0.749999941   0.770716585   0.500000000    0   0   0
W        0.749999941   0.270716501   0.500000000    0   0   0
W        0.250000000   0.729283499   0.500000000    0   0   0
W        0.749999941   0.229283518   0.000000000    0   0   0
W        0.250000000   0.770716585   0.000000000    0   0   0
O        0.250000000   0.005284180   0.000000000    0   0   0
O        0.749999941   0.994715766   0.000000000    0   0   0
O        0.250000000   0.494715849   0.500000000    0   0   0
O        0.749999941   0.505284234   0.500000000    0   0   0
O        0.749999941   0.005284180   0.500000000    0   0   0
O        0.250000000   0.994715766   0.500000000    0   0   0
O        0.749999941   0.494715849   0.000000000    0   0   0
O        0.250000000   0.505284234  -0.000000000    0   0   0
O        0.500000000   0.250000000   0.476788059    0   0   0
O        0.500000000   0.750000041   0.523212030    0   0   0
O       -0.000000000   0.250000000   0.976788092    0   0   0
O       -0.000000000   0.750000041   0.023211854    0   0   0
O        0.500000000   0.250000000   0.023211854    0   0   0
O        0.500000000   0.750000041   0.976788092    0   0   0
O       -0.000000000   0.250000000   0.523212030    0   0   0
O       -0.000000000   0.750000041   0.476788059    0   0   0
O        0.726788029   0.250000000   0.749999941    0   0   0
O        0.273211882   0.750000041   0.250000000    0   0   0
O        0.773212090   0.250000000   0.250000000    0   0   0
O        0.226788075   0.750000041   0.749999941    0   0   0
O        0.273211882   0.250000000   0.749999941    0   0   0
O        0.726788029   0.750000041   0.250000000    0   0   0
O        0.226788075   0.250000000   0.250000000    0   0   0
O        0.773212090   0.750000041   0.749999941    0   0   0
End final coordinates

     A final scf calculation at the relaxed structure.
     The G-vectors are recalculated for the final unit cell
     Results may differ from those at the preceding step.

     bravais-lattice index     =            0
     lattice parameter (alat)  =      13.8397  a.u.
     unit-cell volume          =    2878.7143 (a.u.)^3
     number of atoms/cell      =           32
     number of atomic types    =            2
     number of electrons       =       368.00
     number of Kohn-Sham states=          221
     kinetic-energy cutoff     =     120.0000  Ry
     charge density cutoff     =     480.0000  Ry
     convergence threshold     =      1.0E-10
     mixing beta               =       0.7000
     number of iterations used =            8  plain     mixing
     Exchange-correlation      = SLA PW NOGX NOGC ( 1  4  0  0 0 0)

     celldm(1)=  13.839685  celldm(2)=   0.000000  celldm(3)=   0.000000
     celldm(4)=   0.000000  celldm(5)=   0.000000  celldm(6)=   0.000000

     crystal axes: (cart. coord. in units of alat)
               a(1) = (   1.020836  -0.000000  -0.000000 )
               a(2) = (  -0.000000   1.042097   0.000000 )
               a(3) = (  -0.000000   0.000000   1.020836 )

     reciprocal axes: (cart. coord. in units 2 pi/alat)
               b(1) = (  0.979590  0.000000  0.000000 )
               b(2) = (  0.000000  0.959603 -0.000000 )
               b(3) = (  0.000000 -0.000000  0.979590 )

     PseudoPot. # 1 for W  read from file:
     /cluster/scratch/mnoe/QE/pps/W_ONCV_LDA-4.0.upf
     MD5 check sum: ba0307d5d4cd419d6f1d13dc49d7c13a
     Pseudo is Norm-conserving + core correction, Zval = 28.0
     Generated using ONCVPSP code by D. R. Hamann
     Using radial grid of 1380 points,  8 beta functions with:
                l(1) =   0
                l(2) =   0
                l(3) =   1
                l(4) =   1
                l(5) =   2
                l(6) =   2
                l(7) =   3
                l(8) =   3

     PseudoPot. # 2 for O  read from file:
     /cluster/scratch/mnoe/QE/pps/O_ONCV_LDA-3.0.upf
     MD5 check sum: a1bd6164e7280c17a38c229939bfbd54
     Pseudo is Norm-conserving + core correction, Zval =  6.0
     Generated using ONCVPSP code by D. R. Hamann
     Using radial grid of  926 points,  5 beta functions with:
                l(1) =   0
                l(2) =   0
                l(3) =   1
                l(4) =   1
                l(5) =   2

     atomic species   valence    mass     pseudopotential
        W             28.00   183.84000     W ( 1.00)
        O              6.00    15.99940     O ( 1.00)

      2 Sym. Ops., with inversion, found

   Cartesian axes

     site n.     atom                  positions (alat units)
         1           W   tau(   1) = (   0.2552089   0.2821130   0.0000000  )
         2           W   tau(   2) = (   0.7656266   0.7599844   0.0000000  )
         3           W   tau(   3) = (   0.2552089   0.2389358   0.5104178  )
         4           W   tau(   4) = (   0.7656266   0.8031617   0.5104178  )
         5           W   tau(   5) = (   0.7656266   0.2821129   0.5104178  )
         6           W   tau(   6) = (   0.2552089   0.7599845   0.5104178  )
         7           W   tau(   7) = (   0.7656266   0.2389357   0.0000000  )
         8           W   tau(   8) = (   0.2552089   0.8031618   0.0000000  )
         9           O   tau(   9) = (   0.2552089   0.0055066  -0.0000000  )
        10           O   tau(  10) = (   0.7656266   1.0365907   0.0000000  )
        11           O   tau(  11) = (   0.2552089   0.5155421   0.5104178  )
        12           O   tau(  12) = (   0.7656266   0.5265554   0.5104178  )
        13           O   tau(  13) = (   0.7656266   0.0055066   0.5104178  )
        14           O   tau(  14) = (   0.2552088   1.0365907   0.5104178  )
        15           O   tau(  15) = (   0.7656266   0.5155421   0.0000000  )
        16           O   tau(  16) = (   0.2552089   0.5265554   0.0000000  )
        17           O   tau(  17) = (   0.5104178   0.2605243   0.4867222  )
        18           O   tau(  18) = (   0.5104178   0.7815731   0.5341135  )
        19           O   tau(  19) = (  -0.0000000   0.2605244   0.9971400  )
        20           O   tau(  20) = (  -0.0000000   0.7815731   0.0236955  )
        21           O   tau(  21) = (   0.5104178   0.2605243   0.0236955  )
        22           O   tau(  22) = (   0.5104177   0.7815731   0.9971400  )
        23           O   tau(  23) = (  -0.0000000   0.2605244   0.5341135  )
        24           O   tau(  24) = (  -0.0000000   0.7815731   0.4867222  )
        25           O   tau(  25) = (   0.7419311   0.2605243   0.7656266  )
        26           O   tau(  26) = (   0.2789044   0.7815731   0.2552089  )
        27           O   tau(  27) = (   0.7893224   0.2605243   0.2552089  )
        28           O   tau(  28) = (   0.2315133   0.7815731   0.7656266  )
        29           O   tau(  29) = (   0.2789044   0.2605244   0.7656266  )
        30           O   tau(  30) = (   0.7419310   0.7815731   0.2552089  )
        31           O   tau(  31) = (   0.2315133   0.2605244   0.2552089  )
        32           O   tau(  32) = (   0.7893224   0.7815731   0.7656266  )

     number of k points=   112  gaussian smearing, width (Ry)=  0.0007

     Number of k-points >= 100: set verbosity='high' to print them.

     Initial potential from superposition of free atoms

     starting charge  367.99656, renormalised to  368.00000
     Starting wfc are  232 randomized atomic wfcs

     Writing output data file Landau_28.save

     Self-consistent Calculation

[...]

     total energy              =   -6261.08960505 Ry
     Harris-Foulkes estimate   =   -6261.08960505 Ry
     estimated scf accuracy    <          3.1E-10 Ry

     iteration # 17     ecut=   120.00 Ry     beta= 0.70
     Davidson diagonalization with overlap
     ethr =  1.00E-13,  avg # of iterations =  2.0

     End of self-consistent calculation

     Number of k-points >= 100: set verbosity='high' to print the bands.

     the Fermi energy is     8.4891 ev

!    total energy              =   -6261.08960505 Ry
     Harris-Foulkes estimate   =   -6261.08960505 Ry
     estimated scf accuracy    <          7.8E-11 Ry

     The total energy is the sum of the following terms:

     one-electron contribution =   -4834.76723692 Ry
     hartree contribution      =    2648.11885403 Ry
     xc contribution           =    -965.67661601 Ry
     ewald contribution        =   -3108.76460615 Ry
     smearing contrib. (-TS)   =      -0.00000000 Ry

     convergence has been achieved in  17 iterations

     Forces acting on atoms (cartesian axes, Ry/au):

     atom    1 type  1   force =    -0.00000435    0.02013113   -0.00000422
     atom    2 type  1   force =     0.00000435   -0.02013113    0.00000422
     atom    3 type  1   force =    -0.00000764   -0.02013915    0.00000311
     atom    4 type  1   force =     0.00000764    0.02013915   -0.00000311
     atom    5 type  1   force =     0.00000964    0.02013469   -0.00000105
     atom    6 type  1   force =    -0.00000964   -0.02013469    0.00000105
     atom    7 type  1   force =     0.00000537   -0.02014211    0.00000188
     atom    8 type  1   force =    -0.00000537    0.02014211   -0.00000188
     atom    9 type  2   force =     0.00000005   -0.01096277    0.00000002
     atom   10 type  2   force =    -0.00000005    0.01096277   -0.00000002
     atom   11 type  2   force =     0.00000004    0.01096346   -0.00000001
     atom   12 type  2   force =    -0.00000004   -0.01096346    0.00000001
     atom   13 type  2   force =    -0.00000003   -0.01096357    0.00000005
     atom   14 type  2   force =     0.00000003    0.01096357   -0.00000005
     atom   15 type  2   force =    -0.00000003    0.01096389   -0.00000003
     atom   16 type  2   force =     0.00000003   -0.01096389    0.00000003
     atom   17 type  2   force =     0.00000004    0.00000009   -0.00138849
     atom   18 type  2   force =    -0.00000004   -0.00000009    0.00138849
     atom   19 type  2   force =     0.00000034    0.00000001   -0.00138857
     atom   20 type  2   force =    -0.00000034   -0.00000001    0.00138857
     atom   21 type  2   force =    -0.00000026   -0.00000002    0.00138866
     atom   22 type  2   force =     0.00000026    0.00000002   -0.00138866
     atom   23 type  2   force =    -0.00000008   -0.00000006    0.00138837
     atom   24 type  2   force =     0.00000008    0.00000006   -0.00138837
     atom   25 type  2   force =    -0.00138855   -0.00000004    0.00000050
     atom   26 type  2   force =     0.00138855    0.00000004   -0.00000050
     atom   27 type  2   force =     0.00138833   -0.00000003   -0.00000045
     atom   28 type  2   force =    -0.00138833    0.00000003    0.00000045
     atom   29 type  2   force =     0.00138857    0.00000006    0.00000079
     atom   30 type  2   force =    -0.00138857   -0.00000006   -0.00000079
     atom   31 type  2   force =    -0.00138825    0.00000009   -0.00000092
     atom   32 type  2   force =     0.00138825   -0.00000009    0.00000092

     Total force =     0.000000     Total SCF correction =     0.000000

     Computing stress (Cartesian axis) and pressure

          total   stress  (Ry/bohr**3)                   (kbar)     P=    1.39
   0.00001346   0.00000000   0.00000000          1.98      0.00      0.00
   0.00000000   0.00000143  -0.00000000          0.00      0.21     -0.00
   0.00000000  -0.00000000   0.00001347          0.00     -0.00      1.98

     Writing output data file Landau_28.save

     General routines

     Parallel routines

   This run was terminated on:   3:29: 9   5Mar2020

   JOB DONE.