     Program PWSCF v.6.4.1 starts on 19Nov2019 at 18:48:25

     K-points division:     npool     =      40
     Reading input from rscf.in

     Current dimensions of program PWSCF are:
     Max number of different atomic species (ntypx) = 10
     Max number of k-points (npk) =  40000
     Max angular momentum in pseudopotentials (lmaxx) =  3

     Subspace diagonalization in iterative solution of the eigenvalue problem:
     a serial algorithm will be used

     Message from routine setup:
     using ibrav=0 with symmetry is DISCOURAGED, use correct ibrav instead

     bravais-lattice index     =            0
     lattice parameter (alat)  =       9.7849  a.u.
     unit-cell volume          =    1402.1515 (a.u.)^3
     number of atoms/cell      =           16
     number of atomic types    =            2
     number of electrons       =       184.00
     number of Kohn-Sham states=          110
     kinetic-energy cutoff     =     120.0000  Ry
     charge density cutoff     =     480.0000  Ry
     convergence threshold     =      1.0E-08
     mixing beta               =       0.7000
     number of iterations used =            8  plain     mixing
     Exchange-correlation      = SLA PW NOGX NOGC ( 1  4  0  0 0 0)
     nstep                     =           50

     celldm(1)=   9.784926  celldm(2)=   0.000000  celldm(3)=   0.000000
     celldm(4)=   0.000000  celldm(5)=   0.000000  celldm(6)=   0.000000

     crystal axes: (cart. coord. in units of alat)
               a(1) = (   1.000000   0.000000   0.000000 )
               a(2) = (   0.000000   1.000000   0.000000 )
               a(3) = (   0.000000   0.000000   1.496657 )

     reciprocal axes: (cart. coord. in units 2 pi/alat)
               b(1) = (  1.000000  0.000000  0.000000 )
               b(2) = (  0.000000  1.000000  0.000000 )
               b(3) = (  0.000000  0.000000  0.668156 )

     PseudoPot. # 1 for W  read from file:
     /cluster/scratch/mnoe/QE/pps/W_ONCV_LDA-4.0.upf
     MD5 check sum: ba0307d5d4cd419d6f1d13dc49d7c13a
     Pseudo is Norm-conserving + core correction, Zval = 28.0
     Generated using ONCVPSP code by D. R. Hamann
     Using radial grid of 1380 points,  8 beta functions with:
                l(1) =   0
                l(2) =   0
                l(3) =   1
                l(4) =   1
                l(5) =   2
                l(6) =   2
                l(7) =   3
                l(8) =   3

     PseudoPot. # 2 for O  read from file:
     /cluster/scratch/mnoe/QE/pps/O_ONCV_LDA-3.0.upf
     MD5 check sum: b55cdb4f45ae2203d24ad12cf8d61a31
     Pseudo is Norm-conserving + core correction, Zval =  6.0
     Generated using ONCVPSP code by D. R. Hamann
     Using radial grid of  926 points,  5 beta functions with:
                l(1) =   0
                l(2) =   0
                l(3) =   1
                l(4) =   1
                l(5) =   2

     atomic species   valence    mass     pseudopotential
        W             28.00   183.84000     W ( 1.00)
        O              6.00    15.99940     O ( 1.00)

     16 Sym. Ops., with inversion, found (14 have fractional translation)

   Cartesian axes

     site n.     atom                  positions (alat units)
         1           W   tau(   1) = (   0.2500000   0.2500000   0.3122237  )
         2           W   tau(   2) = (   0.7500000   0.7500000   1.1844333  )
         3           W   tau(   3) = (   0.7500000   0.7500000   0.4361048  )
         4           W   tau(   4) = (   0.2500000   0.2500000   1.0605522  )
         5           O   tau(   5) = (   0.2500000   0.2500000   0.7089379  )
         6           O   tau(   6) = (   0.7500000   0.7500000   0.7877191  )
         7           O   tau(   7) = (   0.7500000   0.7500000   0.0393906  )
         8           O   tau(   8) = (   0.2500000   0.2500000   1.4572664  )
         9           O   tau(   9) = (   0.4985615   0.5014384   0.3741643  )
        10           O   tau(  10) = (   0.5014385   0.4985616   1.1224928  )
        11           O   tau(  11) = (   0.0014384   0.9985616   0.3741643  )
        12           O   tau(  12) = (   0.9985615   0.0014385   1.1224928  )
        13           O   tau(  13) = (   0.9985616   0.4985615   0.3741643  )
        14           O   tau(  14) = (   0.0014385   0.5014385   1.1224928  )
        15           O   tau(  15) = (   0.5014384   0.0014384   0.3741643  )
        16           O   tau(  16) = (   0.4985616   0.9985615   1.1224928  )

     number of k points=    40  gaussian smearing, width (Ry)=  0.0007
                       cart. coord. in units 2pi/alat
        k(    1) = (   0.0000000   0.0000000   0.0000000), wk =   0.0092593
        k(    2) = (   0.0000000   0.0000000   0.1113593), wk =   0.0185185
        k(    3) = (   0.0000000   0.0000000   0.2227186), wk =   0.0185185
        k(    4) = (   0.0000000   0.0000000  -0.3340779), wk =   0.0092593
        k(    5) = (   0.0000000   0.1666667   0.0000000), wk =   0.0370370
        k(    6) = (   0.0000000   0.1666667   0.1113593), wk =   0.0740741
        k(    7) = (   0.0000000   0.1666667   0.2227186), wk =   0.0740741
        k(    8) = (   0.0000000   0.1666667  -0.3340779), wk =   0.0370370
        k(    9) = (   0.0000000   0.3333333   0.0000000), wk =   0.0370370
        k(   10) = (   0.0000000   0.3333333   0.1113593), wk =   0.0740741
        k(   11) = (   0.0000000   0.3333333   0.2227186), wk =   0.0740741
        k(   12) = (   0.0000000   0.3333333  -0.3340779), wk =   0.0370370
        k(   13) = (   0.0000000  -0.5000000   0.0000000), wk =   0.0185185
        k(   14) = (   0.0000000  -0.5000000   0.1113593), wk =   0.0370370
        k(   15) = (   0.0000000  -0.5000000   0.2227186), wk =   0.0370370
        k(   16) = (   0.0000000  -0.5000000  -0.3340779), wk =   0.0185185
        k(   17) = (   0.1666667   0.1666667   0.0000000), wk =   0.0370370
        k(   18) = (   0.1666667   0.1666667   0.1113593), wk =   0.0740741
        k(   19) = (   0.1666667   0.1666667   0.2227186), wk =   0.0740741
        k(   20) = (   0.1666667   0.1666667  -0.3340779), wk =   0.0370370
        k(   21) = (   0.1666667   0.3333333   0.0000000), wk =   0.0740741
        k(   22) = (   0.1666667   0.3333333   0.1113593), wk =   0.1481481
        k(   23) = (   0.1666667   0.3333333   0.2227186), wk =   0.1481481
        k(   24) = (   0.1666667   0.3333333  -0.3340779), wk =   0.0740741
        k(   25) = (   0.1666667  -0.5000000   0.0000000), wk =   0.0370370
        k(   26) = (   0.1666667  -0.5000000   0.1113593), wk =   0.0740741
        k(   27) = (   0.1666667  -0.5000000   0.2227186), wk =   0.0740741
        k(   28) = (   0.1666667  -0.5000000  -0.3340779), wk =   0.0370370
        k(   29) = (   0.3333333   0.3333333   0.0000000), wk =   0.0370370
        k(   30) = (   0.3333333   0.3333333   0.1113593), wk =   0.0740741
        k(   31) = (   0.3333333   0.3333333   0.2227186), wk =   0.0740741
        k(   32) = (   0.3333333   0.3333333  -0.3340779), wk =   0.0370370
        k(   33) = (   0.3333333  -0.5000000   0.0000000), wk =   0.0370370
        k(   34) = (   0.3333333  -0.5000000   0.1113593), wk =   0.0740741
        k(   35) = (   0.3333333  -0.5000000   0.2227186), wk =   0.0740741
        k(   36) = (   0.3333333  -0.5000000  -0.3340779), wk =   0.0370370
        k(   37) = (  -0.5000000  -0.5000000   0.0000000), wk =   0.0092593
        k(   38) = (  -0.5000000  -0.5000000   0.1113593), wk =   0.0185185
        k(   39) = (  -0.5000000  -0.5000000   0.2227186), wk =   0.0185185
        k(   40) = (  -0.5000000  -0.5000000  -0.3340779), wk =   0.0092593

     Initial potential from superposition of free atoms

     starting charge  183.99828, renormalised to  184.00000
     Starting wfcs are  116 randomized atomic wfcs

     Self-consistent Calculation

     iteration #  1     ecut=   120.00 Ry     beta= 0.70
     Davidson diagonalization with overlap
     ethr =  1.00E-02,  avg # of iterations =  4.2

     total energy              =   -3126.86365075 Ry
     Harris-Foulkes estimate   =   -3132.27022948 Ry
     estimated scf accuracy    <       6.84896913 Ry

[...]

     End of self-consistent calculation

          k = 0.0000 0.0000 0.0000 ( 31095 PWs)   bands (ev):

   -66.1561 -66.1557 -66.1545 -66.1541 -30.5604 -30.5604 -30.5570 -30.5570
   -30.4677 -30.4677 -30.4652 -30.4652 -30.4392 -30.4347 -30.3796 -30.3764
   -20.3097 -20.3096 -20.3096 -20.3095 -20.3020 -20.3020 -20.3020 -20.3020
   -20.2995 -20.2995 -20.2995 -20.2995 -20.2817 -20.2817 -20.2815 -20.2814
   -20.2788 -20.2786 -20.2744 -20.2744 -20.2731 -20.2731 -20.2730 -20.2728
   -20.2714 -20.2714 -20.2701 -20.2701 -10.0833  -9.8242  -9.1758  -9.1556
    -8.8654  -8.6459  -7.7656  -7.7656  -7.7466  -7.7466  -7.6063  -7.4675
     0.8471   0.8499   1.2577   1.3162   1.6384   1.7475   2.2455   2.3425
     2.5353   2.5353   3.8982   3.8982   4.9546   5.1924   5.1924   5.6135
     5.6135   5.8220   5.8220   5.9638   6.1738   6.1738   6.1883   6.8115
     6.8115   6.8296   7.0790   7.1468   7.1468   7.1979   7.1979   7.2920
     8.4130   8.4215   8.4437   8.4437   8.9547   8.9603   9.6660   9.6660
    12.3701  12.3701  13.5609  13.6271  13.6271  14.1443  14.1646  14.3392
    14.3392  14.5008  14.5098  14.6691  15.4163  16.6696

[...]

          k =-0.5000-0.5000 0.0000 ( 31144 PWs)   bands (ev):

[...]

     the Fermi energy is     8.6161 ev

!    total energy              =   -3130.48872135 Ry
     Harris-Foulkes estimate   =   -3130.48872135 Ry
     estimated scf accuracy    <          6.0E-09 Ry

     The total energy is the sum of the following terms:

     one-electron contribution =   -2382.21273904 Ry
     hartree contribution      =    1309.67137643 Ry
     xc contribution           =    -483.07611442 Ry
     ewald contribution        =   -1574.87124432 Ry
     smearing contrib. (-TS)   =      -0.00000000 Ry

     convergence has been achieved in  12 iterations

     Forces acting on atoms (cartesian axes, Ry/au):

     atom    1 type  1   force =     0.00000000    0.00000000   -0.06107288
     atom    2 type  1   force =     0.00000000    0.00000000    0.06107288
     atom    3 type  1   force =     0.00000000    0.00000000    0.06107288
     atom    4 type  1   force =     0.00000000    0.00000000   -0.06107288
     atom    5 type  2   force =     0.00000000    0.00000000    0.10841493
     atom    6 type  2   force =     0.00000000    0.00000000   -0.10841493
     atom    7 type  2   force =     0.00000000    0.00000000   -0.10841493
     atom    8 type  2   force =     0.00000000    0.00000000    0.10841493
     atom    9 type  2   force =    -0.00037774    0.00037774    0.00000000
     atom   10 type  2   force =     0.00037774   -0.00037774    0.00000000
     atom   11 type  2   force =     0.00037774   -0.00037774    0.00000000
     atom   12 type  2   force =    -0.00037774    0.00037774    0.00000000
     atom   13 type  2   force =    -0.00037774   -0.00037774    0.00000000
     atom   14 type  2   force =     0.00037774    0.00037774    0.00000000
     atom   15 type  2   force =     0.00037774    0.00037774    0.00000000
[...]
   0.00000000   0.00000000  -0.00049283          0.00      0.00    -72.50

     BFGS Geometry Optimization

     number of scf cycles    =   1
     number of bfgs steps    =   0

     enthalpy new            =   -3130.4887213478 Ry

     new trust radius        =       0.1214797501 bohr
     new conv_thr            =       0.0000000100 Ry

     new unit-cell volume =   1430.16846 a.u.^3 (   211.92910 Ang^3 )
     density =      7.26613 g/cm^3

CELL_PARAMETERS (angstrom)
   5.261951375   0.000000000   0.000000000
   0.000000000   5.261951375   0.000000000
   0.000000000   0.000000000   7.654149287

ATOMIC_POSITIONS (crystal)
W        0.250000000   0.250000000   0.208614095    0   0   0
W        0.750000023   0.750000023   0.791385920    0   0   0
W        0.750000023   0.750000023   0.291385920    0   0   0
W        0.250000000   0.250000000   0.708614080    0   0   0
O        0.250000000   0.250000000   0.473680952    0   0   0
O        0.750000023   0.750000023   0.526319048    0   0   0
O        0.750000023   0.750000023   0.026319061    0   0   0
O        0.250000000   0.250000000   0.973680952    0   0   0
O        0.498561547   0.501438407   0.250000000    0   0   0
O        0.501438453   0.498561593   0.750000000    0   0   0
O        0.001438436   0.998561593   0.250000000    0   0   0
O        0.998561501   0.001438470   0.750000000    0   0   0
O        0.998561593   0.498561547   0.250000000    0   0   0
O        0.001438470   0.501438453   0.750000000    0   0   0
O        0.501438407   0.001438436   0.250000000    0   0   0
O        0.498561593   0.998561501   0.750000000    0   0   0

     Writing output data file Landau_28.save/
     NEW-OLD atomic charge density approx. for the potential
     extrapolated charge  187.60452, renormalised to  184.00000

[...]

     enthalpy old            =   -3130.4887213478 Ry
     enthalpy new            =   -3130.5062317814 Ry

     CASE: enthalpy_new < enthalpy_old

[...]

     number of scf cycles    =   4
     number of bfgs steps    =   3

     enthalpy old            =   -3130.5066008254 Ry
     enthalpy new            =   -3130.5066315269 Ry

     CASE: enthalpy_new < enthalpy_old

     new trust radius        =       0.0002090367 bohr
     new conv_thr            =            1.0E-10 Ry

     new unit-cell volume =   1422.21257 a.u.^3 (   210.75016 Ang^3 )
     density =      7.30678 g/cm^3

[...]

ATOMIC_POSITIONS (crystal)
W        0.250000000   0.250000000   0.208614095    0   0   0
W        0.750000023   0.750000023   0.791385920    0   0   0
W        0.750000023   0.750000023   0.291385920    0   0   0
W        0.250000000   0.250000000   0.708614080    0   0   0
O        0.250000000   0.250000000   0.473680952    0   0   0
O        0.750000023   0.750000023   0.526319048    0   0   0
O        0.750000023   0.750000023   0.026319061    0   0   0
O        0.250000000   0.250000000   0.973680952    0   0   0
O        0.498561547   0.501438407   0.250000000    0   0   0
O        0.501438453   0.498561593   0.750000000    0   0   0
O        0.001438436   0.998561593   0.250000000    0   0   0
O        0.998561501   0.001438470   0.750000000    0   0   0
O        0.998561593   0.498561547   0.250000000    0   0   0
O        0.001438470   0.501438453   0.750000000    0   0   0
O        0.501438407   0.001438436   0.250000000    0   0   0
O        0.498561593   0.998561501   0.750000000    0   0   0

     Writing output data file Landau_28.save/
     NEW-OLD atomic charge density approx. for the potential
     extrapolated charge  183.99922, renormalised to  184.00000

[...]

     Threshold (ethr) on eigenvalues was too large:
     Diagonalizing with lowered threshold

     Davidson diagonalization with overlap
     ethr =  3.86E-11,  avg # of iterations =  3.1

[...]

     bfgs converged in   5 scf cycles and   4 bfgs steps
     (criteria: energy <  1.0E-07 Ry, force <  1.0E-07Ry/Bohr, cell <  5.0E-01kbar)

     End of BFGS Geometry Optimization

     Final enthalpy =   -3130.5066315566 Ry
Begin final coordinates
     new unit-cell volume =   1422.21257 a.u.^3 (   210.75016 Ang^3 )
     density =      7.30678 g/cm^3

CELL_PARAMETERS (angstrom)
   5.252504643   0.000000000   0.000000000
   0.000000000   5.252504643   0.000000000
   0.000000000   0.000000000   7.638973730

ATOMIC_POSITIONS (crystal)
W        0.250000000   0.250000000   0.208614095    0   0   0
W        0.750000023   0.750000023   0.791385920    0   0   0
W        0.750000023   0.750000023   0.291385920    0   0   0
W        0.250000000   0.250000000   0.708614080    0   0   0
O        0.250000000   0.250000000   0.473680952    0   0   0
O        0.750000023   0.750000023   0.526319048    0   0   0
O        0.750000023   0.750000023   0.026319061    0   0   0
O        0.250000000   0.250000000   0.973680952    0   0   0
O        0.498561547   0.501438407   0.250000000    0   0   0
O        0.501438453   0.498561593   0.750000000    0   0   0
O        0.001438436   0.998561593   0.250000000    0   0   0
O        0.998561501   0.001438470   0.750000000    0   0   0
O        0.998561593   0.498561547   0.250000000    0   0   0
O        0.001438470   0.501438453   0.750000000    0   0   0
O        0.501438407   0.001438436   0.250000000    0   0   0
O        0.498561593   0.998561501   0.750000000    0   0   0
End final coordinates

     Writing output data file Landau_28.save/

     Final scf calculation at the relaxed structure.
     The G-vectors are recalculated for the final unit cell
     Results may differ from those at the preceding step.

     bravais-lattice index     =            0
     lattice parameter (alat)  =       9.7849  a.u.
     unit-cell volume          =    1422.2126 (a.u.)^3
     number of atoms/cell      =           16
     number of atomic types    =            2
     number of electrons       =       184.00
     number of Kohn-Sham states=          110
     kinetic-energy cutoff     =     120.0000  Ry
     charge density cutoff     =     480.0000  Ry
     convergence threshold     =      1.0E-10
     mixing beta               =       0.7000
     number of iterations used =            8  plain     mixing
     Exchange-correlation      = SLA PW NOGX NOGC ( 1  4  0  0 0 0)

     celldm(1)=   9.784926  celldm(2)=   0.000000  celldm(3)=   0.000000
     celldm(4)=   0.000000  celldm(5)=   0.000000  celldm(6)=   0.000000

     crystal axes: (cart. coord. in units of alat)
               a(1) = (   1.014397   0.000000   0.000000 )
               a(2) = (   0.000000   1.014397   0.000000 )
               a(3) = (   0.000000   0.000000   1.475286 )

     reciprocal axes: (cart. coord. in units 2 pi/alat)
               b(1) = (  0.985808  0.000000  0.000000 )
               b(2) = (  0.000000  0.985808  0.000000 )
               b(3) = (  0.000000  0.000000  0.677834 )

     PseudoPot. # 1 for W  read from file:
     /cluster/scratch/mnoe/QE/pps/W_ONCV_LDA-4.0.upf
     MD5 check sum: ba0307d5d4cd419d6f1d13dc49d7c13a
     Pseudo is Norm-conserving + core correction, Zval = 28.0
     Generated using ONCVPSP code by D. R. Hamann
     Using radial grid of 1380 points,  8 beta functions with:
                l(1) =   0
                l(2) =   0
                l(3) =   1
                l(4) =   1
                l(5) =   2
                l(6) =   2
                l(7) =   3
                l(8) =   3

     PseudoPot. # 2 for O  read from file:
     /cluster/scratch/mnoe/QE/pps/O_ONCV_LDA-3.0.upf
     MD5 check sum: b55cdb4f45ae2203d24ad12cf8d61a31
     Pseudo is Norm-conserving + core correction, Zval =  6.0
     Generated using ONCVPSP code by D. R. Hamann
     Using radial grid of  926 points,  5 beta functions with:
                l(1) =   0
                l(2) =   0
                l(3) =   1
                l(4) =   1
                l(5) =   2

     atomic species   valence    mass     pseudopotential
        W             28.00   183.84000     W ( 1.00)
        O              6.00    15.99940     O ( 1.00)

     16 Sym. Ops., with inversion, found (14 have fractional translation)

   Cartesian axes

     site n.     atom                  positions (alat units)
         1           W   tau(   1) = (   0.2535991   0.2535991   0.3077655  )
         2           W   tau(   2) = (   0.7607974   0.7607974   1.1675209  )
         3           W   tau(   3) = (   0.7607974   0.7607974   0.4298777  )
         4           W   tau(   4) = (   0.2535991   0.2535991   1.0454087  )
         5           O   tau(   5) = (   0.2535991   0.2535991   0.6988151  )
         6           O   tau(   6) = (   0.7607974   0.7607974   0.7764713  )
         7           O   tau(   7) = (   0.7607974   0.7607974   0.0388282  )
         8           O   tau(   8) = (   0.2535991   0.2535991   1.4364582  )
         9           O   tau(   9) = (   0.5057391   0.5086574   0.3688216  )
        10           O   tau(  10) = (   0.5086574   0.5057392   1.1064648  )
        11           O   tau(  11) = (   0.0014591   1.0129374   0.3688216  )
        12           O   tau(  12) = (   1.0129373   0.0014592   1.1064648  )
        13           O   tau(  13) = (   1.0129374   0.5057391   0.3688216  )
        14           O   tau(  14) = (   0.0014592   0.5086574   1.1064648  )
        15           O   tau(  15) = (   0.5086574   0.0014591   0.3688216  )
        16           O   tau(  16) = (   0.5057392   1.0129373   1.1064648  )

     number of k points=    40  gaussian smearing, width (Ry)=  0.0007
                       cart. coord. in units 2pi/alat
        k(    1) = (   0.0000000   0.0000000   0.0000000), wk =   0.0092593
        k(    2) = (   0.0000000   0.0000000   0.1129724), wk =   0.0185185
        k(    3) = (   0.0000000   0.0000000   0.2259448), wk =   0.0185185
        k(    4) = (   0.0000000   0.0000000  -0.3389172), wk =   0.0092593
        k(    5) = (   0.0000000   0.1643013   0.0000000), wk =   0.0370370
        k(    6) = (   0.0000000   0.1643013   0.1129724), wk =   0.0740741
        k(    7) = (   0.0000000   0.1643013   0.2259448), wk =   0.0740741
        k(    8) = (   0.0000000   0.1643013  -0.3389172), wk =   0.0370370
        k(    9) = (   0.0000000   0.3286026   0.0000000), wk =   0.0370370
        k(   10) = (   0.0000000   0.3286026   0.1129724), wk =   0.0740741
        k(   11) = (   0.0000000   0.3286026   0.2259448), wk =   0.0740741
        k(   12) = (   0.0000000   0.3286026  -0.3389172), wk =   0.0370370
        k(   13) = (   0.0000000  -0.4929039   0.0000000), wk =   0.0185185
        k(   14) = (   0.0000000  -0.4929039   0.1129724), wk =   0.0370370
        k(   15) = (   0.0000000  -0.4929039   0.2259448), wk =   0.0370370
        k(   16) = (   0.0000000  -0.4929039  -0.3389172), wk =   0.0185185
        k(   17) = (   0.1643013   0.1643013   0.0000000), wk =   0.0370370
        k(   18) = (   0.1643013   0.1643013   0.1129724), wk =   0.0740741
        k(   19) = (   0.1643013   0.1643013   0.2259448), wk =   0.0740741
        k(   20) = (   0.1643013   0.1643013  -0.3389172), wk =   0.0370370
        k(   21) = (   0.1643013   0.3286026   0.0000000), wk =   0.0740741
        k(   22) = (   0.1643013   0.3286026   0.1129724), wk =   0.1481481
        k(   23) = (   0.1643013   0.3286026   0.2259448), wk =   0.1481481
        k(   24) = (   0.1643013   0.3286026  -0.3389172), wk =   0.0740741
        k(   25) = (   0.1643013  -0.4929039   0.0000000), wk =   0.0370370
        k(   26) = (   0.1643013  -0.4929039   0.1129724), wk =   0.0740741
        k(   27) = (   0.1643013  -0.4929039   0.2259448), wk =   0.0740741
        k(   28) = (   0.1643013  -0.4929039  -0.3389172), wk =   0.0370370
        k(   29) = (   0.3286026   0.3286026   0.0000000), wk =   0.0370370
        k(   30) = (   0.3286026   0.3286026   0.1129724), wk =   0.0740741
        k(   31) = (   0.3286026   0.3286026   0.2259448), wk =   0.0740741
        k(   32) = (   0.3286026   0.3286026  -0.3389172), wk =   0.0370370
        k(   33) = (   0.3286026  -0.4929039   0.0000000), wk =   0.0370370
        k(   34) = (   0.3286026  -0.4929039   0.1129724), wk =   0.0740741
        k(   35) = (   0.3286026  -0.4929039   0.2259448), wk =   0.0740741
        k(   36) = (   0.3286026  -0.4929039  -0.3389172), wk =   0.0370370
        k(   37) = (  -0.4929039  -0.4929039   0.0000000), wk =   0.0092593
        k(   38) = (  -0.4929039  -0.4929039   0.1129724), wk =   0.0185185
        k(   39) = (  -0.4929039  -0.4929039   0.2259448), wk =   0.0185185
        k(   40) = (  -0.4929039  -0.4929039  -0.3389172), wk =   0.0092593

     Initial potential from superposition of free atoms

     starting charge  183.99828, renormalised to  184.00000
     Starting wfcs are  116 randomized atomic wfcs

     Self-consistent Calculation

[...]

     total energy              =   -3130.50683391 Ry
     Harris-Foulkes estimate   =   -3130.50683391 Ry
     estimated scf accuracy    <          1.9E-09 Ry

     iteration # 13     ecut=   120.00 Ry     beta= 0.70
     Davidson diagonalization with overlap
     ethr =  1.02E-12,  avg # of iterations =  3.0

     End of self-consistent calculation

[...]

          k = 0.3286-0.4929-0.3389 ( 31584 PWs)   bands (ev):

[...]

          k =-0.4929-0.4929-0.3389 ( 31640 PWs)   bands (ev):

   -66.4243 -66.4243 -66.4243 -66.4243 -30.7629 -30.7629 -30.7629 -30.7629
   -30.7243 -30.7242 -30.7242 -30.7242 -30.6764 -30.6764 -30.6764 -30.6764
   -20.5927 -20.5927 -20.5927 -20.5927 -20.5888 -20.5888 -20.5888 -20.5888
   -20.5832 -20.5832 -20.5832 -20.5832 -20.5653 -20.5653 -20.5653 -20.5653
   -20.5583 -20.5583 -20.5583 -20.5583 -20.5537 -20.5537 -20.5537 -20.5537
   -20.5511 -20.5511 -20.5511 -20.5511  -9.5530  -9.5530  -9.5530  -9.5530
    -8.6196  -8.6196  -8.6196  -8.6196  -7.9522  -7.9522  -7.9522  -7.9522
     1.0757   1.0757   1.0757   1.0757   2.9110   2.9110   2.9110   2.9110
     3.1668   3.1668   3.1668   3.1668   4.4991   4.4991   4.4991   4.4991
     5.2130   5.2130   5.2130   5.2130   5.8329   5.8329   5.8329   5.8329
     6.1092   6.1092   6.1092   6.1092   6.5730   6.5730   6.5730   6.5730
     7.4106   7.4106   7.4106   7.4106  11.0310  11.0310  11.0310  11.0310
    12.3246  12.3246  12.3246  12.3246  13.4575  13.4575  13.4575  13.4575
    14.8541  14.8541  14.8541  14.8541  17.8504  17.8504

     the Fermi energy is     8.6484 ev

!    total energy              =   -3130.50683391 Ry
     Harris-Foulkes estimate   =   -3130.50683391 Ry
     estimated scf accuracy    <          6.7E-11 Ry

     The total energy is the sum of the following terms:

     one-electron contribution =   -2393.48804381 Ry
     hartree contribution      =    1313.64721008 Ry
     xc contribution           =    -482.86345619 Ry
     ewald contribution        =   -1567.80254399 Ry
     smearing contrib. (-TS)   =      -0.00000000 Ry

     convergence has been achieved in  13 iterations

     Forces acting on atoms (cartesian axes, Ry/au):

     atom    1 type  1   force =     0.00000000    0.00000000   -0.01772549
     atom    2 type  1   force =     0.00000000    0.00000000    0.01772549
     atom    3 type  1   force =     0.00000000    0.00000000    0.01772549
     atom    4 type  1   force =     0.00000000    0.00000000   -0.01772549
     atom    5 type  2   force =     0.00000000    0.00000000    0.08813657
     atom    6 type  2   force =     0.00000000    0.00000000   -0.08813657
     atom    7 type  2   force =     0.00000000    0.00000000   -0.08813657
     atom    8 type  2   force =     0.00000000    0.00000000    0.08813657
     atom    9 type  2   force =    -0.00011550    0.00011550    0.00000000
     atom   10 type  2   force =     0.00011550   -0.00011550    0.00000000
     atom   11 type  2   force =     0.00011550   -0.00011550    0.00000000
     atom   12 type  2   force =    -0.00011550    0.00011550    0.00000000
     atom   13 type  2   force =    -0.00011550   -0.00011550    0.00000000
     atom   14 type  2   force =     0.00011550    0.00011550    0.00000000
     atom   15 type  2   force =     0.00011550    0.00011550    0.00000000
     atom   16 type  2   force =    -0.00011550   -0.00011550    0.00000000

     Total force =     0.000000     Total SCF correction =     0.000000

     Computing stress (Cartesian axis) and pressure

          total   stress  (Ry/bohr**3)                   (kbar)     P=    0.65
   0.00000673   0.00000000   0.00000000          0.99      0.00      0.00
   0.00000000   0.00000673   0.00000000          0.00      0.99      0.00
   0.00000000   0.00000000  -0.00000025          0.00      0.00     -0.04

     Writing output data file Landau_28.save/

     General routines

     Parallel routines

   This run was terminated on:  19: 6: 9  19Nov2019

   JOB DONE.