     Program PWSCF v.6.2 (svn rev. 14038) starts on 19Mar2020 at 20: 1: 4

     K-points division:     npool     =      40
     Reading input from rscf.in

     Current dimensions of program PWSCF are:
     Max number of different atomic species (ntypx) = 10
     Max number of k-points (npk) =  40000
     Max angular momentum in pseudopotentials (lmaxx) =  3

     Subspace diagonalization in iterative solution of the eigenvalue problem:
     a serial algorithm will be used

     bravais-lattice index     =            0
     lattice parameter (alat)  =      13.8397  a.u.
     unit-cell volume          =    2804.9816 (a.u.)^3
     number of atoms/cell      =           32
     number of atomic types    =            2
     number of electrons       =       368.00
     number of Kohn-Sham states=          221
     kinetic-energy cutoff     =     120.0000  Ry
     charge density cutoff     =     480.0000  Ry
     convergence threshold     =      1.0E-08
     mixing beta               =       0.7000
     number of iterations used =            8  plain     mixing
     Exchange-correlation      = SLA PW NOGX NOGC ( 1  4  0  0 0 0)
     nstep                     =           50

     celldm(1)=  13.839685  celldm(2)=   0.000000  celldm(3)=   0.000000
     celldm(4)=   0.000000  celldm(5)=   0.000000  celldm(6)=   0.000000

     crystal axes: (cart. coord. in units of alat)
               a(1) = (   1.000000   0.000000   0.000000 )
               a(2) = (   0.000000   1.058160   0.000000 )
               a(3) = (   0.000000   0.000000   1.000000 )

     reciprocal axes: (cart. coord. in units 2 pi/alat)
               b(1) = (  1.000000  0.000000  0.000000 )
               b(2) = (  0.000000  0.945037  0.000000 )
               b(3) = (  0.000000  0.000000  1.000000 )

     PseudoPot. # 1 for W  read from file:
     /cluster/scratch/mnoe/QE/pps/W_ONCV_LDA-4.0.upf
     MD5 check sum: ba0307d5d4cd419d6f1d13dc49d7c13a
     Pseudo is Norm-conserving + core correction, Zval = 28.0
     Generated using ONCVPSP code by D. R. Hamann
     Using radial grid of 1380 points,  8 beta functions with:
                l(1) =   0
                l(2) =   0
                l(3) =   1
                l(4) =   1
                l(5) =   2
                l(6) =   2
                l(7) =   3
                l(8) =   3

     PseudoPot. # 2 for O  read from file:
     /cluster/scratch/mnoe/QE/pps/O_ONCV_LDA-3.0.upf
     MD5 check sum: a1bd6164e7280c17a38c229939bfbd54
     Pseudo is Norm-conserving + core correction, Zval =  6.0
     Generated using ONCVPSP code by D. R. Hamann
     Using radial grid of  926 points,  5 beta functions with:
                l(1) =   0
                l(2) =   0
                l(3) =   1
                l(4) =   1
                l(5) =   2

     atomic species   valence    mass     pseudopotential
        W             28.00   183.84000     W ( 1.00)
        O              6.00    15.99940     O ( 1.00)

      8 Sym. Ops., with inversion, found ( 6 have fractional translation)

   Cartesian axes

     site n.     atom                  positions (alat units)
         1           W   tau(   1) = (   0.2464197   0.2853710   0.0033810  )
         2           W   tau(   2) = (   0.7535802   0.7727891  -0.0033810  )
         3           W   tau(   3) = (   0.2535803   0.2437090   0.5033810  )
         4           W   tau(   4) = (   0.7464196   0.8144512   0.4966190  )
         5           W   tau(   5) = (   0.7535802   0.2853710   0.4966190  )
         6           W   tau(   6) = (   0.2464197   0.7727891   0.5033810  )
         7           W   tau(   7) = (   0.7464196   0.2437090  -0.0033810  )
         8           W   tau(   8) = (   0.2535803   0.8144512   0.0033810  )
         9           O   tau(   9) = (   0.2433948   0.0052945   0.0010509  )
        10           O   tau(  10) = (   0.7566051  -0.0052945  -0.0010509  )
        11           O   tau(  11) = (   0.2566052   0.5237856   0.5010509  )
        12           O   tau(  12) = (   0.7433947   0.5343746   0.4989491  )
        13           O   tau(  13) = (   0.7566051   0.0052945   0.4989491  )
        14           O   tau(  14) = (   0.2433948  -0.0052945   0.5010509  )
        15           O   tau(  15) = (   0.7433947   0.5237856  -0.0010509  )
        16           O   tau(  16) = (   0.2566052   0.5343746   0.0010509  )
        17           O   tau(  17) = (   0.5009793   0.2573704   0.4793077  )
        18           O   tau(  18) = (   0.4990207   0.8007897   0.5206924  )
        19           O   tau(  19) = (  -0.0009793   0.2717096   0.9793077  )
        20           O   tau(  20) = (   0.0009793   0.7864505   0.0206922  )
        21           O   tau(  21) = (   0.4990207   0.2573704   0.0206922  )
        22           O   tau(  22) = (   0.5009793   0.8007897   0.9793077  )
        23           O   tau(  23) = (   0.0009793   0.2717096   0.5206924  )
        24           O   tau(  24) = (  -0.0009793   0.7864505   0.4793077  )
        25           O   tau(  25) = (   0.7293077   0.2629755   0.7485156  )
        26           O   tau(  26) = (   0.2706922   0.7951847   0.2514844  )
        27           O   tau(  27) = (   0.7706925   0.2661046   0.2485156  )
        28           O   tau(  28) = (   0.2293077   0.7920555   0.7514843  )
        29           O   tau(  29) = (   0.2706922   0.2629755   0.7514843  )
        30           O   tau(  30) = (   0.7293077   0.7951847   0.2485156  )
        31           O   tau(  31) = (   0.2293077   0.2661046   0.2514844  )
        32           O   tau(  32) = (   0.7706925   0.7920555   0.7485156  )

     number of k points=    64  gaussian smearing, width (Ry)=  0.0007
                       cart. coord. in units 2pi/alat
        k(    1) = (   0.0000000   0.0000000   0.0000000), wk =   0.0092593
        k(    2) = (   0.0000000   0.0000000   0.1666667), wk =   0.0185185
        k(    3) = (   0.0000000   0.0000000   0.3333333), wk =   0.0185185
        k(    4) = (   0.0000000   0.0000000  -0.5000000), wk =   0.0092593
        k(    5) = (   0.0000000   0.1575061   0.0000000), wk =   0.0185185
        k(    6) = (   0.0000000   0.1575061   0.1666667), wk =   0.0370370
        k(    7) = (   0.0000000   0.1575061   0.3333333), wk =   0.0370370
        k(    8) = (   0.0000000   0.1575061  -0.5000000), wk =   0.0185185
        k(    9) = (   0.0000000   0.3150122   0.0000000), wk =   0.0185185
        k(   10) = (   0.0000000   0.3150122   0.1666667), wk =   0.0370370
        k(   11) = (   0.0000000   0.3150122   0.3333333), wk =   0.0370370
        k(   12) = (   0.0000000   0.3150122  -0.5000000), wk =   0.0185185
        k(   13) = (   0.0000000  -0.4725183   0.0000000), wk =   0.0092593
        k(   14) = (   0.0000000  -0.4725183   0.1666667), wk =   0.0185185
        k(   15) = (   0.0000000  -0.4725183   0.3333333), wk =   0.0185185
        k(   16) = (   0.0000000  -0.4725183  -0.5000000), wk =   0.0092593
        k(   17) = (   0.1666667   0.0000000   0.1666667), wk =   0.0370370
        k(   18) = (   0.1666667   0.0000000   0.3333333), wk =   0.0370370
        k(   19) = (   0.1666667   0.0000000  -0.5000000), wk =   0.0185185
        k(   20) = (   0.1666667   0.1575061   0.1666667), wk =   0.0740741
        k(   21) = (   0.1666667   0.1575061   0.3333333), wk =   0.0740741
        k(   22) = (   0.1666667   0.1575061  -0.5000000), wk =   0.0370370
        k(   23) = (   0.1666667   0.3150122   0.1666667), wk =   0.0740741
        k(   24) = (   0.1666667   0.3150122   0.3333333), wk =   0.0740741
        k(   25) = (   0.1666667   0.3150122  -0.5000000), wk =   0.0370370
        k(   26) = (   0.1666667  -0.4725183   0.1666667), wk =   0.0370370
        k(   27) = (   0.1666667  -0.4725183   0.3333333), wk =   0.0370370
        k(   28) = (   0.1666667  -0.4725183  -0.5000000), wk =   0.0185185
        k(   29) = (   0.3333333   0.0000000   0.3333333), wk =   0.0370370
        k(   30) = (   0.3333333   0.0000000  -0.5000000), wk =   0.0185185
        k(   31) = (   0.3333333   0.1575061   0.3333333), wk =   0.0740741
        k(   32) = (   0.3333333   0.1575061  -0.5000000), wk =   0.0370370
        k(   33) = (   0.3333333   0.3150122   0.3333333), wk =   0.0740741
        k(   34) = (   0.3333333   0.3150122  -0.5000000), wk =   0.0370370
        k(   35) = (   0.3333333  -0.4725183   0.3333333), wk =   0.0370370
        k(   36) = (   0.3333333  -0.4725183  -0.5000000), wk =   0.0185185
        k(   37) = (  -0.5000000   0.0000000  -0.5000000), wk =   0.0092593
        k(   38) = (  -0.5000000   0.1575061  -0.5000000), wk =   0.0185185
        k(   39) = (  -0.5000000   0.3150122  -0.5000000), wk =   0.0185185
        k(   40) = (  -0.5000000  -0.4725183  -0.5000000), wk =   0.0092593
        k(   41) = (   0.1666667   0.0000000   0.0000000), wk =   0.0185185
        k(   42) = (   0.3333333   0.0000000   0.0000000), wk =   0.0185185
        k(   43) = (  -0.5000000   0.0000000   0.0000000), wk =   0.0092593
        k(   44) = (   0.1666667  -0.1575061   0.0000000), wk =   0.0370370
        k(   45) = (   0.3333333  -0.1575061   0.0000000), wk =   0.0370370
        k(   46) = (  -0.5000000  -0.1575061   0.0000000), wk =   0.0185185
        k(   47) = (   0.1666667  -0.3150122   0.0000000), wk =   0.0370370
        k(   48) = (   0.3333333  -0.3150122   0.0000000), wk =   0.0370370
        k(   49) = (  -0.5000000  -0.3150122   0.0000000), wk =   0.0185185
        k(   50) = (   0.1666667   0.4725183   0.0000000), wk =   0.0185185
        k(   51) = (   0.3333333   0.4725183   0.0000000), wk =   0.0185185
        k(   52) = (  -0.5000000   0.4725183   0.0000000), wk =   0.0092593
        k(   53) = (   0.3333333   0.0000000   0.1666667), wk =   0.0370370
        k(   54) = (  -0.5000000   0.0000000   0.1666667), wk =   0.0185185
        k(   55) = (   0.3333333  -0.1575061   0.1666667), wk =   0.0740741
        k(   56) = (  -0.5000000  -0.1575061   0.1666667), wk =   0.0370370
        k(   57) = (   0.3333333  -0.3150122   0.1666667), wk =   0.0740741
        k(   58) = (  -0.5000000  -0.3150122   0.1666667), wk =   0.0370370
        k(   59) = (   0.3333333   0.4725183   0.1666667), wk =   0.0370370
        k(   60) = (  -0.5000000   0.4725183   0.1666667), wk =   0.0185185
        k(   61) = (  -0.5000000   0.0000000   0.3333333), wk =   0.0185185
        k(   62) = (  -0.5000000  -0.1575061   0.3333333), wk =   0.0370370
        k(   63) = (  -0.5000000  -0.3150122   0.3333333), wk =   0.0370370
        k(   64) = (  -0.5000000   0.4725183   0.3333333), wk =   0.0185185

     Initial potential from superposition of free atoms

     starting charge  367.99656, renormalised to  368.00000
     Starting wfc are  232 randomized atomic wfcs

     Self-consistent Calculation

     iteration #  1     ecut=   120.00 Ry     beta= 0.70
     Davidson diagonalization with overlap
     ethr =  1.00E-02,  avg # of iterations =  5.2

     total energy              =   -6254.02564863 Ry
     Harris-Foulkes estimate   =   -6264.53277086 Ry
     estimated scf accuracy    <      13.34416375 Ry

[...]

     End of self-consistent calculation

[...]
End final coordinates

     A final scf calculation at the relaxed structure.
     The G-vectors are recalculated for the final unit cell
     Results may differ from those at the preceding step.

     bravais-lattice index     =            0
     lattice parameter (alat)  =      13.8397  a.u.
     unit-cell volume          =    2881.0531 (a.u.)^3
     number of atoms/cell      =           32
     number of atomic types    =            2
     number of electrons       =       368.00
     number of Kohn-Sham states=          221
     kinetic-energy cutoff     =     120.0000  Ry
     charge density cutoff     =     480.0000  Ry
     convergence threshold     =      1.0E-10
     mixing beta               =       0.7000
     number of iterations used =            8  plain     mixing
     Exchange-correlation      = SLA PW NOGX NOGC ( 1  4  0  0 0 0)

     celldm(1)=  13.839685  celldm(2)=   0.000000  celldm(3)=   0.000000
     celldm(4)=   0.000000  celldm(5)=   0.000000  celldm(6)=   0.000000

     crystal axes: (cart. coord. in units of alat)
               a(1) = (   1.022059   0.000000   0.000000 )
               a(2) = (   0.000000   1.040265   0.000000 )
               a(3) = (   0.000000   0.000000   1.022239 )

     reciprocal axes: (cart. coord. in units 2 pi/alat)
               b(1) = (  0.978417  0.000000  0.000000 )
               b(2) = (  0.000000  0.961293  0.000000 )
               b(3) = (  0.000000  0.000000  0.978245 )

     PseudoPot. # 1 for W  read from file:
     /cluster/scratch/mnoe/QE/pps/W_ONCV_LDA-4.0.upf
     MD5 check sum: ba0307d5d4cd419d6f1d13dc49d7c13a
     Pseudo is Norm-conserving + core correction, Zval = 28.0
     Generated using ONCVPSP code by D. R. Hamann
     Using radial grid of 1380 points,  8 beta functions with:
                l(1) =   0
                l(2) =   0
                l(3) =   1
                l(4) =   1
                l(5) =   2
                l(6) =   2
                l(7) =   3
                l(8) =   3

     PseudoPot. # 2 for O  read from file:
     /cluster/scratch/mnoe/QE/pps/O_ONCV_LDA-3.0.upf
     MD5 check sum: a1bd6164e7280c17a38c229939bfbd54
     Pseudo is Norm-conserving + core correction, Zval =  6.0
     Generated using ONCVPSP code by D. R. Hamann
     Using radial grid of  926 points,  5 beta functions with:
                l(1) =   0
                l(2) =   0
                l(3) =   1
                l(4) =   1
                l(5) =   2

     atomic species   valence    mass     pseudopotential
        W             28.00   183.84000     W ( 1.00)
        O              6.00    15.99940     O ( 1.00)

      8 Sym. Ops., with inversion, found ( 6 have fractional translation)

   Cartesian axes

     site n.     atom                  positions (alat units)
         1           W   tau(   1) = (   0.2518554   0.2805451   0.0034562  )
         2           W   tau(   2) = (   0.7702034   0.7597203  -0.0034562  )
         3           W   tau(   3) = (   0.2591740   0.2395877   0.5145758  )
         4           W   tau(   4) = (   0.7628848   0.8006779   0.5076634  )
         5           W   tau(   5) = (   0.7702034   0.2805451   0.5076634  )
         6           W   tau(   6) = (   0.2518554   0.7597203   0.5145758  )
         7           W   tau(   7) = (   0.7628848   0.2395877  -0.0034562  )
         8           W   tau(   8) = (   0.2591740   0.8006779   0.0034562  )
         9           O   tau(   9) = (   0.2487638   0.0052049   0.0010742  )
        10           O   tau(  10) = (   0.7732950  -0.0052050  -0.0010742  )
        11           O   tau(  11) = (   0.2622656   0.5149278   0.5121938  )
        12           O   tau(  12) = (   0.7597932   0.5253377   0.5100454  )
        13           O   tau(  13) = (   0.7732950   0.0052049   0.5100454  )
        14           O   tau(  14) = (   0.2487638  -0.0052050   0.5121938  )
        15           O   tau(  15) = (   0.7597932   0.5149278  -0.0010742  )
        16           O   tau(  16) = (   0.2622656   0.5253377   0.0010742  )
        17           O   tau(  17) = (   0.5120303   0.2530180   0.4899671  )
        18           O   tau(  18) = (   0.5100286   0.7872474   0.5322722  )
        19           O   tau(  19) = (  -0.0010009   0.2671147   1.0010868  )
        20           O   tau(  20) = (   0.0010009   0.7731508   0.0211524  )
        21           O   tau(  21) = (   0.5100286   0.2530180   0.0211524  )
        22           O   tau(  22) = (   0.5120303   0.7872474   1.0010868  )
        23           O   tau(  23) = (   0.0010009   0.2671147   0.5322722  )
        24           O   tau(  24) = (  -0.0010009   0.7731508   0.4899671  )
        25           O   tau(  25) = (   0.7453954   0.2585282   0.7651619  )
        26           O   tau(  26) = (   0.2766634   0.7817372   0.2570772  )
        27           O   tau(  27) = (   0.7876931   0.2616045   0.2540424  )
        28           O   tau(  28) = (   0.2343660   0.7786610   0.7681967  )
        29           O   tau(  29) = (   0.2766634   0.2585282   0.7681967  )
        30           O   tau(  30) = (   0.7453954   0.7817372   0.2540424  )
        31           O   tau(  31) = (   0.2343660   0.2616045   0.2570772  )
        32           O   tau(  32) = (   0.7876931   0.7786610   0.7651619  )

     number of k points=    64  gaussian smearing, width (Ry)=  0.0007
                       cart. coord. in units 2pi/alat
        k(    1) = (   0.0000000   0.0000000   0.0000000), wk =   0.0092593
        k(    2) = (   0.0000000   0.0000000   0.1630408), wk =   0.0185185
        k(    3) = (   0.0000000   0.0000000   0.3260815), wk =   0.0185185
        k(    4) = (   0.0000000   0.0000000  -0.4891223), wk =   0.0092593
        k(    5) = (   0.0000000   0.1602155   0.0000000), wk =   0.0185185
        k(    6) = (   0.0000000   0.1602155   0.1630408), wk =   0.0370370
        k(    7) = (   0.0000000   0.1602155   0.3260815), wk =   0.0370370
        k(    8) = (   0.0000000   0.1602155  -0.4891223), wk =   0.0185185
        k(    9) = (   0.0000000   0.3204310   0.0000000), wk =   0.0185185
        k(   10) = (   0.0000000   0.3204310   0.1630408), wk =   0.0370370
        k(   11) = (   0.0000000   0.3204310   0.3260815), wk =   0.0370370
        k(   12) = (   0.0000000   0.3204310  -0.4891223), wk =   0.0185185
        k(   13) = (   0.0000000  -0.4806466   0.0000000), wk =   0.0092593
        k(   14) = (   0.0000000  -0.4806466   0.1630408), wk =   0.0185185
        k(   15) = (   0.0000000  -0.4806466   0.3260815), wk =   0.0185185
        k(   16) = (   0.0000000  -0.4806466  -0.4891223), wk =   0.0092593
        k(   17) = (   0.1630695   0.0000000   0.1630408), wk =   0.0370370
        k(   18) = (   0.1630695   0.0000000   0.3260815), wk =   0.0370370
        k(   19) = (   0.1630695   0.0000000  -0.4891223), wk =   0.0185185
        k(   20) = (   0.1630695   0.1602155   0.1630408), wk =   0.0740741
        k(   21) = (   0.1630695   0.1602155   0.3260815), wk =   0.0740741
        k(   22) = (   0.1630695   0.1602155  -0.4891223), wk =   0.0370370
        k(   23) = (   0.1630695   0.3204310   0.1630408), wk =   0.0740741
        k(   24) = (   0.1630695   0.3204310   0.3260815), wk =   0.0740741
        k(   25) = (   0.1630695   0.3204310  -0.4891223), wk =   0.0370370
        k(   26) = (   0.1630695  -0.4806466   0.1630408), wk =   0.0370370
        k(   27) = (   0.1630695  -0.4806466   0.3260815), wk =   0.0370370
        k(   28) = (   0.1630695  -0.4806466  -0.4891223), wk =   0.0185185
        k(   29) = (   0.3261391   0.0000000   0.3260815), wk =   0.0370370
        k(   30) = (   0.3261391   0.0000000  -0.4891223), wk =   0.0185185
        k(   31) = (   0.3261391   0.1602155   0.3260815), wk =   0.0740741
        k(   32) = (   0.3261391   0.1602155  -0.4891223), wk =   0.0370370
        k(   33) = (   0.3261391   0.3204310   0.3260815), wk =   0.0740741
        k(   34) = (   0.3261391   0.3204310  -0.4891223), wk =   0.0370370
        k(   35) = (   0.3261391  -0.4806466   0.3260815), wk =   0.0370370
        k(   36) = (   0.3261391  -0.4806466  -0.4891223), wk =   0.0185185
        k(   37) = (  -0.4892086   0.0000000  -0.4891223), wk =   0.0092593
        k(   38) = (  -0.4892086   0.1602155  -0.4891223), wk =   0.0185185
        k(   39) = (  -0.4892086   0.3204310  -0.4891223), wk =   0.0185185
        k(   40) = (  -0.4892086  -0.4806466  -0.4891223), wk =   0.0092593
        k(   41) = (   0.1630695   0.0000000   0.0000000), wk =   0.0185185
        k(   42) = (   0.3261391   0.0000000   0.0000000), wk =   0.0185185
        k(   43) = (  -0.4892086   0.0000000   0.0000000), wk =   0.0092593
        k(   44) = (   0.1630695  -0.1602155   0.0000000), wk =   0.0370370
        k(   45) = (   0.3261391  -0.1602155   0.0000000), wk =   0.0370370
        k(   46) = (  -0.4892086  -0.1602155   0.0000000), wk =   0.0185185
        k(   47) = (   0.1630695  -0.3204310   0.0000000), wk =   0.0370370
        k(   48) = (   0.3261391  -0.3204310   0.0000000), wk =   0.0370370
        k(   49) = (  -0.4892086  -0.3204310   0.0000000), wk =   0.0185185
        k(   50) = (   0.1630695   0.4806466   0.0000000), wk =   0.0185185
        k(   51) = (   0.3261391   0.4806466   0.0000000), wk =   0.0185185
        k(   52) = (  -0.4892086   0.4806466   0.0000000), wk =   0.0092593
        k(   53) = (   0.3261391   0.0000000   0.1630408), wk =   0.0370370
        k(   54) = (  -0.4892086   0.0000000   0.1630408), wk =   0.0185185
        k(   55) = (   0.3261391  -0.1602155   0.1630408), wk =   0.0740741
        k(   56) = (  -0.4892086  -0.1602155   0.1630408), wk =   0.0370370
        k(   57) = (   0.3261391  -0.3204310   0.1630408), wk =   0.0740741
        k(   58) = (  -0.4892086  -0.3204310   0.1630408), wk =   0.0370370
        k(   59) = (   0.3261391   0.4806466   0.1630408), wk =   0.0370370
        k(   60) = (  -0.4892086   0.4806466   0.1630408), wk =   0.0185185
        k(   61) = (  -0.4892086   0.0000000   0.3260815), wk =   0.0185185
        k(   62) = (  -0.4892086  -0.1602155   0.3260815), wk =   0.0370370
        k(   63) = (  -0.4892086  -0.3204310   0.3260815), wk =   0.0370370
        k(   64) = (  -0.4892086   0.4806466   0.3260815), wk =   0.0185185

     Initial potential from superposition of free atoms

     starting charge  367.99656, renormalised to  368.00000
     Starting wfc are  232 randomized atomic wfcs

     Writing output data file Landau_31.save

     Self-consistent Calculation

[...]

     total energy              =   -6261.08832468 Ry
     Harris-Foulkes estimate   =   -6261.08832468 Ry
     estimated scf accuracy    <          2.5E-10 Ry

     iteration # 15     ecut=   120.00 Ry     beta= 0.70
     Davidson diagonalization with overlap
     ethr =  1.00E-13,  avg # of iterations =  2.0

     End of self-consistent calculation

[...]

          k = 0.3261 0.4806 0.1630 ( 63966 PWs)   bands (ev):

[...]

          k =-0.4892 0.4806 0.3261 ( 63948 PWs)   bands (ev):

   -66.6680 -66.6680 -66.6680 -66.6680 -66.6676 -66.6676 -66.6676 -66.6676
   -30.9853 -30.9853 -30.9850 -30.9850 -30.9823 -30.9823 -30.9818 -30.9818
   -30.9746 -30.9746 -30.9745 -30.9745 -30.9552 -30.9552 -30.9548 -30.9548
   -30.9532 -30.9532 -30.9528 -30.9528 -30.9325 -30.9325 -30.9325 -30.9325
   -20.8422 -20.8421 -20.8421 -20.8421 -20.8421 -20.8421 -20.8421 -20.8420
   -20.8138 -20.8138 -20.8138 -20.8138 -20.8133 -20.8133 -20.8132 -20.8132
   -20.8125 -20.8124 -20.8124 -20.8124 -20.8123 -20.8123 -20.8123 -20.8123
   -20.8111 -20.8111 -20.8111 -20.8111 -20.8107 -20.8107 -20.8107 -20.8107
   -20.8080 -20.8080 -20.8079 -20.8079 -20.8075 -20.8075 -20.8075 -20.8075
   -20.8058 -20.8058 -20.8057 -20.8057 -20.8041 -20.8041 -20.8041 -20.8041
   -20.8037 -20.8037 -20.8037 -20.8037 -20.8020 -20.8020 -20.8019 -20.8019
    -9.5776  -9.5776  -9.5758  -9.5758  -9.2018  -9.2018  -9.1968  -9.1968
    -8.9767  -8.9766  -8.9723  -8.9723  -8.8309  -8.8309  -8.8237  -8.8236
    -8.8097  -8.8096  -8.8030  -8.8029  -8.5179  -8.5179  -8.5176  -8.5176
     1.7900   1.7900   1.7925   1.7925   2.6482   2.6483   2.6751   2.6751
     2.7113   2.7113   2.7291   2.7291   2.8675   2.8675   2.9105   2.9106
     2.9625   2.9625   2.9809   2.9810   3.2547   3.2547   3.2847   3.2847
     3.3487   3.3487   3.3950   3.3950   3.7607   3.7607   3.7792   3.7792
     3.8366   3.8366   3.8645   3.8645   3.9248   3.9248   3.9478   3.9478
     4.2341   4.2341   4.2830   4.2830   4.6006   4.6006   4.6070   4.6070
     6.6660   6.6660   6.7007   6.7007   6.7457   6.7457   6.7516   6.7516
     6.9387   6.9387   6.9813   6.9813   6.9902   6.9903   7.0305   7.0305
     7.1089   7.1089   7.1479   7.1479   7.2856   7.2856   7.3041   7.3042
    10.9449  10.9449  10.9791  10.9791  11.1428  11.1428  11.1957  11.1957
    11.6142  11.6142  11.6561  11.6561  11.6627  11.6628  11.6968  11.6968
    12.0215  12.0215  12.1163  12.1163  12.2622  12.2622  12.3343  12.3343
    16.2487  16.2487  16.2737  16.2737  16.6191  16.6192  16.6268  16.6268
    17.1110  17.1111  17.1835  17.1836  17.3631

     the Fermi energy is     8.4611 ev

!    total energy              =   -6261.08832468 Ry
     Harris-Foulkes estimate   =   -6261.08832468 Ry
     estimated scf accuracy    <          2.4E-11 Ry

     The total energy is the sum of the following terms:

     one-electron contribution =   -4838.43482218 Ry
     hartree contribution      =    2649.76964291 Ry
     xc contribution           =    -965.67793572 Ry
     ewald contribution        =   -3106.74520969 Ry
     smearing contrib. (-TS)   =      -0.00000000 Ry

     convergence has been achieved in  15 iterations

     Forces acting on atoms (cartesian axes, Ry/au):

     atom    1 type  1   force =    -0.00478269    0.02046935    0.00420873
     atom    2 type  1   force =     0.00478269   -0.02046935   -0.00420873
     atom    3 type  1   force =     0.00478269   -0.02046935    0.00420873
     atom    4 type  1   force =    -0.00478269    0.02046935   -0.00420873
     atom    5 type  1   force =     0.00478269    0.02046935   -0.00420873
     atom    6 type  1   force =    -0.00478269   -0.02046935    0.00420873
     atom    7 type  1   force =    -0.00478269   -0.02046935   -0.00420873
     atom    8 type  1   force =     0.00478269    0.02046935    0.00420873
     atom    9 type  2   force =    -0.00003664   -0.01112309   -0.00042399
     atom   10 type  2   force =     0.00003664    0.01112309    0.00042399
     atom   11 type  2   force =     0.00003664    0.01112309   -0.00042399
     atom   12 type  2   force =    -0.00003664   -0.01112309    0.00042399
     atom   13 type  2   force =     0.00003664   -0.01112309    0.00042399
     atom   14 type  2   force =    -0.00003664    0.01112309   -0.00042399
     atom   15 type  2   force =    -0.00003664    0.01112309    0.00042399
     atom   16 type  2   force =     0.00003664   -0.01112309   -0.00042399
     atom   17 type  2   force =    -0.00275895   -0.00045683   -0.00115111
     atom   18 type  2   force =     0.00275895    0.00045683    0.00115111
     atom   19 type  2   force =     0.00275895    0.00045683   -0.00115111
     atom   20 type  2   force =    -0.00275895   -0.00045683    0.00115111
     atom   21 type  2   force =     0.00275895   -0.00045683    0.00115111
     atom   22 type  2   force =    -0.00275895    0.00045683   -0.00115111
     atom   23 type  2   force =    -0.00275895    0.00045683    0.00115111
     atom   24 type  2   force =     0.00275895   -0.00045683   -0.00115111
     atom   25 type  2   force =    -0.00137550    0.00102532    0.00340299
     atom   26 type  2   force =     0.00137550   -0.00102532   -0.00340299
     atom   27 type  2   force =     0.00137550   -0.00102532    0.00340299
     atom   28 type  2   force =    -0.00137550    0.00102532   -0.00340299
     atom   29 type  2   force =     0.00137550    0.00102532   -0.00340299
     atom   30 type  2   force =    -0.00137550   -0.00102532    0.00340299
     atom   31 type  2   force =    -0.00137550   -0.00102532   -0.00340299
     atom   32 type  2   force =     0.00137550    0.00102532    0.00340299

     Total force =     0.000000     Total SCF correction =     0.000000

     Computing stress (Cartesian axis) and pressure

          total   stress  (Ry/bohr**3)                   (kbar)     P=    1.53
   0.00001480   0.00000000   0.00000000          2.18      0.00      0.00
   0.00000000   0.00000147   0.00000000          0.00      0.22      0.00
   0.00000000   0.00000000   0.00001492          0.00      0.00      2.19

     Writing output data file Landau_31.save

     General routines

     Parallel routines

   This run was terminated on:   0:18:48  20Mar2020

   JOB DONE.