     Program PWSCF v.6.4.1 starts on 19Nov2019 at 18:52:24

     K-points division:     npool     =      40
     Reading input from rscf.in

     Current dimensions of program PWSCF are:
     Max number of different atomic species (ntypx) = 10
     Max number of k-points (npk) =  40000
     Max angular momentum in pseudopotentials (lmaxx) =  3

     Subspace diagonalization in iterative solution of the eigenvalue problem:
     a serial algorithm will be used

     Message from routine setup:
     using ibrav=0 with symmetry is DISCOURAGED, use correct ibrav instead

     bravais-lattice index     =            0
     lattice parameter (alat)  =       9.7849  a.u.
     unit-cell volume          =    1402.1515 (a.u.)^3
     number of atoms/cell      =           16
     number of atomic types    =            2
     number of electrons       =       184.00
     number of Kohn-Sham states=          110
     kinetic-energy cutoff     =     120.0000  Ry
     charge density cutoff     =     480.0000  Ry
     convergence threshold     =      1.0E-08
     mixing beta               =       0.7000
     number of iterations used =            8  plain     mixing
     Exchange-correlation      = SLA PW NOGX NOGC ( 1  4  0  0 0 0)
     nstep                     =           50

     celldm(1)=   9.784926  celldm(2)=   0.000000  celldm(3)=   0.000000
     celldm(4)=   0.000000  celldm(5)=   0.000000  celldm(6)=   0.000000

     crystal axes: (cart. coord. in units of alat)
               a(1) = (   1.000000   0.000000   0.000000 )
               a(2) = (   0.000000   1.000000   0.000000 )
               a(3) = (   0.000000   0.000000   1.496657 )

     reciprocal axes: (cart. coord. in units 2 pi/alat)
               b(1) = (  1.000000  0.000000  0.000000 )
               b(2) = (  0.000000  1.000000  0.000000 )
               b(3) = (  0.000000  0.000000  0.668156 )

     PseudoPot. # 1 for W  read from file:
     /cluster/scratch/mnoe/QE/pps/W_ONCV_LDA-4.0.upf
     MD5 check sum: ba0307d5d4cd419d6f1d13dc49d7c13a
     Pseudo is Norm-conserving + core correction, Zval = 28.0
     Generated using ONCVPSP code by D. R. Hamann
     Using radial grid of 1380 points,  8 beta functions with:
                l(1) =   0
                l(2) =   0
                l(3) =   1
                l(4) =   1
                l(5) =   2
                l(6) =   2
                l(7) =   3
                l(8) =   3

     PseudoPot. # 2 for O  read from file:
     /cluster/scratch/mnoe/QE/pps/O_ONCV_LDA-3.0.upf
     MD5 check sum: b55cdb4f45ae2203d24ad12cf8d61a31
     Pseudo is Norm-conserving + core correction, Zval =  6.0
     Generated using ONCVPSP code by D. R. Hamann
     Using radial grid of  926 points,  5 beta functions with:
                l(1) =   0
                l(2) =   0
                l(3) =   1
                l(4) =   1
                l(5) =   2

     atomic species   valence    mass     pseudopotential
        W             28.00   183.84000     W ( 1.00)
        O              6.00    15.99940     O ( 1.00)

     16 Sym. Ops., with inversion, found (14 have fractional translation)

   Cartesian axes

     site n.     atom                  positions (alat units)
         1           W   tau(   1) = (   0.2500000   0.2500000   0.3101913  )
         2           W   tau(   2) = (   0.7500000   0.7500000   1.1864657  )
         3           W   tau(   3) = (   0.7500000   0.7500000   0.4381372  )
         4           W   tau(   4) = (   0.2500000   0.2500000   1.0585198  )
         5           O   tau(   5) = (   0.2500000   0.2500000   0.7050917  )
         6           O   tau(   6) = (   0.7500000   0.7500000   0.7915653  )
         7           O   tau(   7) = (   0.7500000   0.7500000   0.0432368  )
         8           O   tau(   8) = (   0.2500000   0.2500000   1.4534202  )
         9           O   tau(   9) = (   0.5055832   0.4944168   0.3741643  )
        10           O   tau(  10) = (   0.4944168   0.5055832   1.1224928  )
        11           O   tau(  11) = (  -0.0055832   1.0055832   0.3741643  )
        12           O   tau(  12) = (   1.0055832  -0.0055832   1.1224928  )
        13           O   tau(  13) = (   1.0055832   0.5055832   0.3741643  )
        14           O   tau(  14) = (  -0.0055832   0.4944168   1.1224928  )
        15           O   tau(  15) = (   0.4944168  -0.0055832   0.3741643  )
        16           O   tau(  16) = (   0.5055832   1.0055832   1.1224928  )

     number of k points=    40  gaussian smearing, width (Ry)=  0.0007
                       cart. coord. in units 2pi/alat
        k(    1) = (   0.0000000   0.0000000   0.0000000), wk =   0.0092593
        k(    2) = (   0.0000000   0.0000000   0.1113593), wk =   0.0185185
        k(    3) = (   0.0000000   0.0000000   0.2227186), wk =   0.0185185
        k(    4) = (   0.0000000   0.0000000  -0.3340779), wk =   0.0092593
        k(    5) = (   0.0000000   0.1666667   0.0000000), wk =   0.0370370
        k(    6) = (   0.0000000   0.1666667   0.1113593), wk =   0.0740741
        k(    7) = (   0.0000000   0.1666667   0.2227186), wk =   0.0740741
        k(    8) = (   0.0000000   0.1666667  -0.3340779), wk =   0.0370370
        k(    9) = (   0.0000000   0.3333333   0.0000000), wk =   0.0370370
        k(   10) = (   0.0000000   0.3333333   0.1113593), wk =   0.0740741
        k(   11) = (   0.0000000   0.3333333   0.2227186), wk =   0.0740741
        k(   12) = (   0.0000000   0.3333333  -0.3340779), wk =   0.0370370
        k(   13) = (   0.0000000  -0.5000000   0.0000000), wk =   0.0185185
        k(   14) = (   0.0000000  -0.5000000   0.1113593), wk =   0.0370370
        k(   15) = (   0.0000000  -0.5000000   0.2227186), wk =   0.0370370
        k(   16) = (   0.0000000  -0.5000000  -0.3340779), wk =   0.0185185
        k(   17) = (   0.1666667   0.1666667   0.0000000), wk =   0.0370370
        k(   18) = (   0.1666667   0.1666667   0.1113593), wk =   0.0740741
        k(   19) = (   0.1666667   0.1666667   0.2227186), wk =   0.0740741
        k(   20) = (   0.1666667   0.1666667  -0.3340779), wk =   0.0370370
        k(   21) = (   0.1666667   0.3333333   0.0000000), wk =   0.0740741
        k(   22) = (   0.1666667   0.3333333   0.1113593), wk =   0.1481481
        k(   23) = (   0.1666667   0.3333333   0.2227186), wk =   0.1481481
        k(   24) = (   0.1666667   0.3333333  -0.3340779), wk =   0.0740741
        k(   25) = (   0.1666667  -0.5000000   0.0000000), wk =   0.0370370
        k(   26) = (   0.1666667  -0.5000000   0.1113593), wk =   0.0740741
        k(   27) = (   0.1666667  -0.5000000   0.2227186), wk =   0.0740741
        k(   28) = (   0.1666667  -0.5000000  -0.3340779), wk =   0.0370370
        k(   29) = (   0.3333333   0.3333333   0.0000000), wk =   0.0370370
        k(   30) = (   0.3333333   0.3333333   0.1113593), wk =   0.0740741
        k(   31) = (   0.3333333   0.3333333   0.2227186), wk =   0.0740741
        k(   32) = (   0.3333333   0.3333333  -0.3340779), wk =   0.0370370
        k(   33) = (   0.3333333  -0.5000000   0.0000000), wk =   0.0370370
        k(   34) = (   0.3333333  -0.5000000   0.1113593), wk =   0.0740741
        k(   35) = (   0.3333333  -0.5000000   0.2227186), wk =   0.0740741
        k(   36) = (   0.3333333  -0.5000000  -0.3340779), wk =   0.0370370
        k(   37) = (  -0.5000000  -0.5000000   0.0000000), wk =   0.0092593
        k(   38) = (  -0.5000000  -0.5000000   0.1113593), wk =   0.0185185
        k(   39) = (  -0.5000000  -0.5000000   0.2227186), wk =   0.0185185
        k(   40) = (  -0.5000000  -0.5000000  -0.3340779), wk =   0.0092593

     Initial potential from superposition of free atoms

     starting charge  183.99828, renormalised to  184.00000
     Starting wfcs are  116 randomized atomic wfcs

     Self-consistent Calculation

     iteration #  1     ecut=   120.00 Ry     beta= 0.70
     Davidson diagonalization with overlap
     ethr =  1.00E-02,  avg # of iterations =  4.2

     total energy              =   -3126.81503215 Ry
     Harris-Foulkes estimate   =   -3132.26776684 Ry
     estimated scf accuracy    <       6.90280161 Ry

[...]

     End of self-consistent calculation

          k = 0.0000 0.0000 0.0000 ( 31095 PWs)   bands (ev):

   -66.1720 -66.1716 -66.1705 -66.1701 -30.5698 -30.5698 -30.5664 -30.5664
   -30.4786 -30.4786 -30.4760 -30.4760 -30.4415 -30.4375 -30.3820 -30.3793
   -20.3299 -20.3298 -20.3297 -20.3296 -20.3250 -20.3250 -20.3250 -20.3250
   -20.3224 -20.3224 -20.3224 -20.3224 -20.3025 -20.3025 -20.3021 -20.3020
   -20.2972 -20.2969 -20.2932 -20.2932 -20.2920 -20.2920 -20.2914 -20.2910
   -20.2904 -20.2904 -20.2892 -20.2892 -10.0767  -9.8103  -9.1534  -9.1331
    -8.8521  -8.6177  -7.7734  -7.7734  -7.7551  -7.7551  -7.5884  -7.4446
     0.8765   0.8802   1.2851   1.3412   1.6283   1.7521   2.2648   2.3626
     2.5355   2.5355   3.8729   3.8729   4.9541   5.2308   5.2308   5.6135
     5.6135   5.8681   5.8681   5.9840   6.1989   6.2227   6.2227   6.8158
     6.8158   6.8448   7.0927   7.1513   7.1513   7.2125   7.2125   7.3295
     8.4144   8.4225   8.4809   8.4809   8.9468   8.9560   9.6429   9.6429
    12.3515  12.3515  13.5195  13.6039  13.6039  14.0486  14.0674  14.3087
    14.3087  14.4842  14.4896  14.6640  15.3734  16.5940

[...]

          k =-0.5000-0.5000 0.0000 ( 31144 PWs)   bands (ev):

[...]

     the Fermi energy is     8.6214 ev

!    total energy              =   -3130.47687791 Ry
     Harris-Foulkes estimate   =   -3130.47687791 Ry
     estimated scf accuracy    <          2.0E-09 Ry

     The total energy is the sum of the following terms:

     one-electron contribution =   -2378.86276433 Ry
     hartree contribution      =    1307.96091847 Ry
     xc contribution           =    -483.02499396 Ry
     ewald contribution        =   -1576.55003809 Ry
     smearing contrib. (-TS)   =      -0.00000000 Ry

     convergence has been achieved in  12 iterations

     Forces acting on atoms (cartesian axes, Ry/au):

     atom    1 type  1   force =     0.00000000    0.00000000   -0.06332616
     atom    2 type  1   force =     0.00000000    0.00000000    0.06332616
     atom    3 type  1   force =     0.00000000    0.00000000    0.06332616
     atom    4 type  1   force =     0.00000000    0.00000000   -0.06332616
     atom    5 type  2   force =     0.00000000    0.00000000    0.12239652
     atom    6 type  2   force =     0.00000000    0.00000000   -0.12239652
     atom    7 type  2   force =     0.00000000    0.00000000   -0.12239652
     atom    8 type  2   force =     0.00000000    0.00000000    0.12239652
     atom    9 type  2   force =     0.00139175   -0.00139175    0.00000000
     atom   10 type  2   force =    -0.00139175    0.00139175    0.00000000
     atom   11 type  2   force =    -0.00139175    0.00139175    0.00000000
     atom   12 type  2   force =     0.00139175   -0.00139175    0.00000000
     atom   13 type  2   force =     0.00139175    0.00139175    0.00000000
     atom   14 type  2   force =    -0.00139175   -0.00139175    0.00000000
     atom   15 type  2   force =    -0.00139175   -0.00139175    0.00000000
[...]
   0.00000000   0.00000000  -0.00056520          0.00      0.00    -83.14

     BFGS Geometry Optimization

     number of scf cycles    =   1
     number of bfgs steps    =   0

     enthalpy new            =   -3130.4768779122 Ry

     new trust radius        =       0.1100573732 bohr
     new conv_thr            =       0.0000000100 Ry

     new unit-cell volume =   1423.26669 a.u.^3 (   210.90636 Ang^3 )
     density =      7.30137 g/cm^3

CELL_PARAMETERS (angstrom)
   5.254053911   0.000000000   0.000000000
   0.000000000   5.254053911   0.000000000
   0.000000000   0.000000000   7.640127901

ATOMIC_POSITIONS (crystal)
W        0.250000000   0.250000000   0.207256110    0   0   0
W        0.750000023   0.750000023   0.792743905    0   0   0
W        0.750000023   0.750000023   0.292743905    0   0   0
W        0.250000000   0.250000000   0.707256095    0   0   0
O        0.250000000   0.250000000   0.471111084    0   0   0
O        0.750000023   0.750000023   0.528888916    0   0   0
O        0.750000023   0.750000023   0.028888929    0   0   0
O        0.250000000   0.250000000   0.971111084    0   0   0
O        0.505583200   0.494416754   0.250000000    0   0   0
O        0.494416800   0.505583246   0.750000000    0   0   0
O       -0.005583217   1.005583246   0.250000000    0   0   0
O        1.005583154  -0.005583183   0.750000000    0   0   0
O        1.005583246   0.505583200   0.250000000    0   0   0
O       -0.005583183   0.494416800   0.750000000    0   0   0
O        0.494416754  -0.005583217   0.250000000    0   0   0
O        0.505583246   1.005583154   0.750000000    0   0   0

     Writing output data file Landau_32.save/
     NEW-OLD atomic charge density approx. for the potential
     extrapolated charge  186.72975, renormalised to  184.00000

[...]

     enthalpy old            =   -3130.4768779122 Ry
     enthalpy new            =   -3130.4940586361 Ry

     CASE: enthalpy_new < enthalpy_old

[...]

     number of scf cycles    =   4
     number of bfgs steps    =   3

     enthalpy old            =   -3130.4942432795 Ry
     enthalpy new            =   -3130.4942676608 Ry

     CASE: enthalpy_new < enthalpy_old

     small trust_radius: resetting bfgs history

     new trust radius        =       0.0000833491 bohr
     new conv_thr            =            1.0E-10 Ry

     new unit-cell volume =   1417.62144 a.u.^3 (   210.06982 Ang^3 )
     density =      7.33045 g/cm^3

[...]

ATOMIC_POSITIONS (crystal)
W        0.250000000   0.250000000   0.207256110    0   0   0
W        0.750000023   0.750000023   0.792743905    0   0   0
W        0.750000023   0.750000023   0.292743905    0   0   0
W        0.250000000   0.250000000   0.707256095    0   0   0
O        0.250000000   0.250000000   0.471111084    0   0   0
O        0.750000023   0.750000023   0.528888916    0   0   0
O        0.750000023   0.750000023   0.028888929    0   0   0
O        0.250000000   0.250000000   0.971111084    0   0   0
O        0.505583200   0.494416754   0.250000000    0   0   0
O        0.494416800   0.505583246   0.750000000    0   0   0
O       -0.005583217   1.005583246   0.250000000    0   0   0
O        1.005583154  -0.005583183   0.750000000    0   0   0
O        1.005583246   0.505583200   0.250000000    0   0   0
O       -0.005583183   0.494416800   0.750000000    0   0   0
O        0.494416754  -0.005583217   0.250000000    0   0   0
O        0.505583246   1.005583154   0.750000000    0   0   0

     Writing output data file Landau_32.save/
     NEW-OLD atomic charge density approx. for the potential
     extrapolated charge  183.99870, renormalised to  184.00000

[...]

     Threshold (ethr) on eigenvalues was too large:
     Diagonalizing with lowered threshold

     Davidson diagonalization with overlap
     ethr =  9.13E-11,  avg # of iterations =  3.0

[...]

     bfgs converged in   5 scf cycles and   4 bfgs steps
     (criteria: energy <  1.0E-07 Ry, force <  1.0E-07Ry/Bohr, cell <  5.0E-01kbar)

     End of BFGS Geometry Optimization

     Final enthalpy =   -3130.4942676642 Ry
Begin final coordinates
     new unit-cell volume =   1417.62144 a.u.^3 (   210.06982 Ang^3 )
     density =      7.33045 g/cm^3

CELL_PARAMETERS (angstrom)
   5.247999221   0.000000000   0.000000000
   0.000000000   5.247999221   0.000000000
   0.000000000   0.000000000   7.627393343

ATOMIC_POSITIONS (crystal)
W        0.250000000   0.250000000   0.207256110    0   0   0
W        0.750000023   0.750000023   0.792743905    0   0   0
W        0.750000023   0.750000023   0.292743905    0   0   0
W        0.250000000   0.250000000   0.707256095    0   0   0
O        0.250000000   0.250000000   0.471111084    0   0   0
O        0.750000023   0.750000023   0.528888916    0   0   0
O        0.750000023   0.750000023   0.028888929    0   0   0
O        0.250000000   0.250000000   0.971111084    0   0   0
O        0.505583200   0.494416754   0.250000000    0   0   0
O        0.494416800   0.505583246   0.750000000    0   0   0
O       -0.005583217   1.005583246   0.250000000    0   0   0
O        1.005583154  -0.005583183   0.750000000    0   0   0
O        1.005583246   0.505583200   0.250000000    0   0   0
O       -0.005583183   0.494416800   0.750000000    0   0   0
O        0.494416754  -0.005583217   0.250000000    0   0   0
O        0.505583246   1.005583154   0.750000000    0   0   0
End final coordinates

     Writing output data file Landau_32.save/

     Final scf calculation at the relaxed structure.
     The G-vectors are recalculated for the final unit cell
     Results may differ from those at the preceding step.

     bravais-lattice index     =            0
     lattice parameter (alat)  =       9.7849  a.u.
     unit-cell volume          =    1417.6214 (a.u.)^3
     number of atoms/cell      =           16
     number of atomic types    =            2
     number of electrons       =       184.00
     number of Kohn-Sham states=          110
     kinetic-energy cutoff     =     120.0000  Ry
     charge density cutoff     =     480.0000  Ry
     convergence threshold     =      1.0E-10
     mixing beta               =       0.7000
     number of iterations used =            8  plain     mixing
     Exchange-correlation      = SLA PW NOGX NOGC ( 1  4  0  0 0 0)

     celldm(1)=   9.784926  celldm(2)=   0.000000  celldm(3)=   0.000000
     celldm(4)=   0.000000  celldm(5)=   0.000000  celldm(6)=   0.000000

     crystal axes: (cart. coord. in units of alat)
               a(1) = (   1.013526   0.000000   0.000000 )
               a(2) = (   0.000000   1.013526   0.000000 )
               a(3) = (   0.000000   0.000000   1.473050 )

     reciprocal axes: (cart. coord. in units 2 pi/alat)
               b(1) = (  0.986654  0.000000  0.000000 )
               b(2) = (  0.000000  0.986654  0.000000 )
               b(3) = (  0.000000  0.000000  0.678864 )

     PseudoPot. # 1 for W  read from file:
     /cluster/scratch/mnoe/QE/pps/W_ONCV_LDA-4.0.upf
     MD5 check sum: ba0307d5d4cd419d6f1d13dc49d7c13a
     Pseudo is Norm-conserving + core correction, Zval = 28.0
     Generated using ONCVPSP code by D. R. Hamann
     Using radial grid of 1380 points,  8 beta functions with:
                l(1) =   0
                l(2) =   0
                l(3) =   1
                l(4) =   1
                l(5) =   2
                l(6) =   2
                l(7) =   3
                l(8) =   3

     PseudoPot. # 2 for O  read from file:
     /cluster/scratch/mnoe/QE/pps/O_ONCV_LDA-3.0.upf
     MD5 check sum: b55cdb4f45ae2203d24ad12cf8d61a31
     Pseudo is Norm-conserving + core correction, Zval =  6.0
     Generated using ONCVPSP code by D. R. Hamann
     Using radial grid of  926 points,  5 beta functions with:
                l(1) =   0
                l(2) =   0
                l(3) =   1
                l(4) =   1
                l(5) =   2

     atomic species   valence    mass     pseudopotential
        W             28.00   183.84000     W ( 1.00)
        O              6.00    15.99940     O ( 1.00)

     16 Sym. Ops., with inversion, found (14 have fractional translation)

   Cartesian axes

     site n.     atom                  positions (alat units)
         1           W   tau(   1) = (   0.2533816   0.2533816   0.3052986  )
         2           W   tau(   2) = (   0.7601448   0.7601448   1.1677513  )
         3           W   tau(   3) = (   0.7601448   0.7601448   0.4312264  )
         4           W   tau(   4) = (   0.2533816   0.2533816   1.0418235  )
         5           O   tau(   5) = (   0.2533816   0.2533816   0.6939701  )
         6           O   tau(   6) = (   0.7601448   0.7601448   0.7790798  )
         7           O   tau(   7) = (   0.7601448   0.7601448   0.0425548  )
         8           O   tau(   8) = (   0.2533816   0.2533816   1.4304951  )
         9           O   tau(   9) = (   0.5124219   0.5011044   0.3682625  )
        10           O   tau(  10) = (   0.5011045   0.5124220   1.1047874  )
        11           O   tau(  11) = (  -0.0056587   1.0191852   0.3682625  )
        12           O   tau(  12) = (   1.0191851  -0.0056587   1.1047874  )
        13           O   tau(  13) = (   1.0191852   0.5124219   0.3682625  )
        14           O   tau(  14) = (  -0.0056587   0.5011045   1.1047874  )
        15           O   tau(  15) = (   0.5011044  -0.0056587   0.3682625  )
        16           O   tau(  16) = (   0.5124220   1.0191851   1.1047874  )

     number of k points=    40  gaussian smearing, width (Ry)=  0.0007
                       cart. coord. in units 2pi/alat
        k(    1) = (   0.0000000   0.0000000   0.0000000), wk =   0.0092593
        k(    2) = (   0.0000000   0.0000000   0.1131439), wk =   0.0185185
        k(    3) = (   0.0000000   0.0000000   0.2262879), wk =   0.0185185
        k(    4) = (   0.0000000   0.0000000  -0.3394318), wk =   0.0092593
        k(    5) = (   0.0000000   0.1644423   0.0000000), wk =   0.0370370
        k(    6) = (   0.0000000   0.1644423   0.1131439), wk =   0.0740741
        k(    7) = (   0.0000000   0.1644423   0.2262879), wk =   0.0740741
        k(    8) = (   0.0000000   0.1644423  -0.3394318), wk =   0.0370370
        k(    9) = (   0.0000000   0.3288847   0.0000000), wk =   0.0370370
        k(   10) = (   0.0000000   0.3288847   0.1131439), wk =   0.0740741
        k(   11) = (   0.0000000   0.3288847   0.2262879), wk =   0.0740741
        k(   12) = (   0.0000000   0.3288847  -0.3394318), wk =   0.0370370
        k(   13) = (   0.0000000  -0.4933270   0.0000000), wk =   0.0185185
        k(   14) = (   0.0000000  -0.4933270   0.1131439), wk =   0.0370370
        k(   15) = (   0.0000000  -0.4933270   0.2262879), wk =   0.0370370
        k(   16) = (   0.0000000  -0.4933270  -0.3394318), wk =   0.0185185
        k(   17) = (   0.1644423   0.1644423   0.0000000), wk =   0.0370370
        k(   18) = (   0.1644423   0.1644423   0.1131439), wk =   0.0740741
        k(   19) = (   0.1644423   0.1644423   0.2262879), wk =   0.0740741
        k(   20) = (   0.1644423   0.1644423  -0.3394318), wk =   0.0370370
        k(   21) = (   0.1644423   0.3288847   0.0000000), wk =   0.0740741
        k(   22) = (   0.1644423   0.3288847   0.1131439), wk =   0.1481481
        k(   23) = (   0.1644423   0.3288847   0.2262879), wk =   0.1481481
        k(   24) = (   0.1644423   0.3288847  -0.3394318), wk =   0.0740741
        k(   25) = (   0.1644423  -0.4933270   0.0000000), wk =   0.0370370
        k(   26) = (   0.1644423  -0.4933270   0.1131439), wk =   0.0740741
        k(   27) = (   0.1644423  -0.4933270   0.2262879), wk =   0.0740741
        k(   28) = (   0.1644423  -0.4933270  -0.3394318), wk =   0.0370370
        k(   29) = (   0.3288847   0.3288847   0.0000000), wk =   0.0370370
        k(   30) = (   0.3288847   0.3288847   0.1131439), wk =   0.0740741
        k(   31) = (   0.3288847   0.3288847   0.2262879), wk =   0.0740741
        k(   32) = (   0.3288847   0.3288847  -0.3394318), wk =   0.0370370
        k(   33) = (   0.3288847  -0.4933270   0.0000000), wk =   0.0370370
        k(   34) = (   0.3288847  -0.4933270   0.1131439), wk =   0.0740741
        k(   35) = (   0.3288847  -0.4933270   0.2262879), wk =   0.0740741
        k(   36) = (   0.3288847  -0.4933270  -0.3394318), wk =   0.0370370
        k(   37) = (  -0.4933270  -0.4933270   0.0000000), wk =   0.0092593
        k(   38) = (  -0.4933270  -0.4933270   0.1131439), wk =   0.0185185
        k(   39) = (  -0.4933270  -0.4933270   0.2262879), wk =   0.0185185
        k(   40) = (  -0.4933270  -0.4933270  -0.3394318), wk =   0.0092593

     Initial potential from superposition of free atoms

     starting charge  183.99828, renormalised to  184.00000
     Starting wfcs are  116 randomized atomic wfcs

     Self-consistent Calculation

[...]

     total energy              =   -3130.49443627 Ry
     Harris-Foulkes estimate   =   -3130.49443627 Ry
     estimated scf accuracy    <          1.4E-09 Ry

     iteration # 13     ecut=   120.00 Ry     beta= 0.70
     Davidson diagonalization with overlap
     ethr =  7.76E-13,  avg # of iterations =  3.0

     End of self-consistent calculation

[...]

          k = 0.3289-0.4933-0.3394 ( 31496 PWs)   bands (ev):

[...]

          k =-0.4933-0.4933-0.3394 ( 31592 PWs)   bands (ev):

   -66.3768 -66.3768 -66.3768 -66.3768 -30.7153 -30.7153 -30.7153 -30.7153
   -30.6694 -30.6694 -30.6694 -30.6694 -30.6291 -30.6291 -30.6291 -30.6291
   -20.5464 -20.5464 -20.5464 -20.5464 -20.5453 -20.5453 -20.5453 -20.5453
   -20.5396 -20.5396 -20.5396 -20.5396 -20.5193 -20.5193 -20.5193 -20.5193
   -20.5099 -20.5099 -20.5099 -20.5099 -20.5058 -20.5058 -20.5058 -20.5058
   -20.5033 -20.5033 -20.5033 -20.5033  -9.5023  -9.5023  -9.5023  -9.5023
    -8.5594  -8.5594  -8.5594  -8.5593  -7.9089  -7.9089  -7.9089  -7.9089
     1.1393   1.1393   1.1393   1.1393   2.9444   2.9444   2.9444   2.9444
     3.2105   3.2105   3.2105   3.2105   4.5573   4.5573   4.5573   4.5573
     5.2779   5.2779   5.2779   5.2779   5.8813   5.8813   5.8813   5.8813
     6.1711   6.1711   6.1711   6.1711   6.6374   6.6374   6.6374   6.6374
     7.4873   7.4873   7.4873   7.4873  11.0757  11.0757  11.0757  11.0757
    12.3580  12.3580  12.3580  12.3580  13.5071  13.5071  13.5071  13.5071
    14.8801  14.8801  14.8801  14.8801  17.9147  17.9147

     the Fermi energy is     8.7109 ev

!    total energy              =   -3130.49443627 Ry
     Harris-Foulkes estimate   =   -3130.49443627 Ry
     estimated scf accuracy    <          4.2E-11 Ry

     The total energy is the sum of the following terms:

     one-electron contribution =   -2387.64478756 Ry
     hartree contribution      =    1311.07819322 Ry
     xc contribution           =    -482.86522259 Ry
     ewald contribution        =   -1571.06261934 Ry
     smearing contrib. (-TS)   =      -0.00000000 Ry

     convergence has been achieved in  13 iterations

     Forces acting on atoms (cartesian axes, Ry/au):

     atom    1 type  1   force =     0.00000000    0.00000000   -0.02102157
     atom    2 type  1   force =     0.00000000    0.00000000    0.02102157
     atom    3 type  1   force =     0.00000000    0.00000000    0.02102157
     atom    4 type  1   force =     0.00000000    0.00000000   -0.02102157
     atom    5 type  2   force =     0.00000000    0.00000000    0.10172352
     atom    6 type  2   force =     0.00000000    0.00000000   -0.10172352
     atom    7 type  2   force =     0.00000000    0.00000000   -0.10172352
     atom    8 type  2   force =     0.00000000    0.00000000    0.10172352
     atom    9 type  2   force =     0.00046708   -0.00046708    0.00000000
     atom   10 type  2   force =    -0.00046708    0.00046708    0.00000000
     atom   11 type  2   force =    -0.00046708    0.00046708    0.00000000
     atom   12 type  2   force =     0.00046708   -0.00046708    0.00000000
     atom   13 type  2   force =     0.00046708    0.00046708    0.00000000
     atom   14 type  2   force =    -0.00046708   -0.00046708    0.00000000
     atom   15 type  2   force =    -0.00046708   -0.00046708    0.00000000
     atom   16 type  2   force =     0.00046708    0.00046708    0.00000000

     Total force =     0.000000     Total SCF correction =     0.000000

     Computing stress (Cartesian axis) and pressure

          total   stress  (Ry/bohr**3)                   (kbar)     P=    0.56
   0.00000595   0.00000000   0.00000000          0.87      0.00      0.00
   0.00000000   0.00000595   0.00000000          0.00      0.87      0.00
   0.00000000   0.00000000  -0.00000057          0.00      0.00     -0.08

     Writing output data file Landau_32.save/

     General routines

     Parallel routines

   This run was terminated on:  19:18:48  19Nov2019

   JOB DONE.