     Program PWSCF v.6.2 (svn rev. 14038) starts on  5Mar2020 at  1: 3: 8

     K-points division:     npool     =      64
     Reading input from rscf.in

     Current dimensions of program PWSCF are:
     Max number of different atomic species (ntypx) = 10
     Max number of k-points (npk) =  40000
     Max angular momentum in pseudopotentials (lmaxx) =  3

     Subspace diagonalization in iterative solution of the eigenvalue problem:
     a serial algorithm will be used

     Found symmetry operation: I + (  0.5000  0.0000 -0.5000)
     This is a supercell, fractional translations are disabled

     bravais-lattice index     =            0
     lattice parameter (alat)  =      13.8397  a.u.
     unit-cell volume          =    2804.9816 (a.u.)^3
     number of atoms/cell      =           32
     number of atomic types    =            2
     number of electrons       =       368.00
     number of Kohn-Sham states=          221
     kinetic-energy cutoff     =     120.0000  Ry
     charge density cutoff     =     480.0000  Ry
     convergence threshold     =      1.0E-08
     mixing beta               =       0.7000
     number of iterations used =            8  plain     mixing
     Exchange-correlation      = SLA PW NOGX NOGC ( 1  4  0  0 0 0)
     nstep                     =           50

     celldm(1)=  13.839685  celldm(2)=   0.000000  celldm(3)=   0.000000
     celldm(4)=   0.000000  celldm(5)=   0.000000  celldm(6)=   0.000000

     crystal axes: (cart. coord. in units of alat)
               a(1) = (   1.000000   0.000000   0.000000 )
               a(2) = (   0.000000   1.058160   0.000000 )
               a(3) = (   0.000000   0.000000   1.000000 )

     reciprocal axes: (cart. coord. in units 2 pi/alat)
               b(1) = (  1.000000  0.000000  0.000000 )
               b(2) = (  0.000000  0.945037  0.000000 )
               b(3) = (  0.000000  0.000000  1.000000 )

     PseudoPot. # 1 for W  read from file:
     /cluster/scratch/mnoe/QE/pps/W_ONCV_LDA-4.0.upf
     MD5 check sum: ba0307d5d4cd419d6f1d13dc49d7c13a
     Pseudo is Norm-conserving + core correction, Zval = 28.0
     Generated using ONCVPSP code by D. R. Hamann
     Using radial grid of 1380 points,  8 beta functions with:
                l(1) =   0
                l(2) =   0
                l(3) =   1
                l(4) =   1
                l(5) =   2
                l(6) =   2
                l(7) =   3
                l(8) =   3

     PseudoPot. # 2 for O  read from file:
     /cluster/scratch/mnoe/QE/pps/O_ONCV_LDA-3.0.upf
     MD5 check sum: a1bd6164e7280c17a38c229939bfbd54
     Pseudo is Norm-conserving + core correction, Zval =  6.0
     Generated using ONCVPSP code by D. R. Hamann
     Using radial grid of  926 points,  5 beta functions with:
                l(1) =   0
                l(2) =   0
                l(3) =   1
                l(4) =   1
                l(5) =   2

     atomic species   valence    mass     pseudopotential
        W             28.00   183.84000     W ( 1.00)
        O              6.00    15.99940     O ( 1.00)

      2 Sym. Ops., with inversion, found

   Cartesian axes

     site n.     atom                  positions (alat units)
         1           W   tau(   1) = (   0.2500000   0.2847769   0.0000000  )
         2           W   tau(   2) = (   0.7499999   0.7733832   0.0000000  )
         3           W   tau(   3) = (   0.2500000   0.2443032   0.5000000  )
         4           W   tau(   4) = (   0.7499999   0.8138570   0.5000000  )
         5           W   tau(   5) = (   0.7499999   0.2847769   0.5000000  )
         6           W   tau(   6) = (   0.2500000   0.7733832   0.5000000  )
         7           W   tau(   7) = (   0.7499999   0.2443032   0.0000000  )
         8           W   tau(   8) = (   0.2500000   0.8138570   0.0000000  )
         9           O   tau(   9) = (   0.2500000   0.0051326   0.0000000  )
        10           O   tau(  10) = (   0.7499999   1.0530274   0.0000000  )
        11           O   tau(  11) = (   0.2500000   0.5239475   0.5000000  )
        12           O   tau(  12) = (   0.7499999   0.5342127   0.5000000  )
        13           O   tau(  13) = (   0.7499999   0.0051326   0.5000000  )
        14           O   tau(  14) = (   0.2500000   1.0530274   0.5000000  )
        15           O   tau(  15) = (   0.7499999   0.5239475   0.0000000  )
        16           O   tau(  16) = (   0.2500000   0.5342127   0.0000000  )
        17           O   tau(  17) = (   0.5000000   0.2645400   0.4806806  )
        18           O   tau(  18) = (   0.5000000   0.7936201   0.5193195  )
        19           O   tau(  19) = (   0.0000000   0.2645400   0.9806807  )
        20           O   tau(  20) = (   0.0000000   0.7936201   0.0193193  )
        21           O   tau(  21) = (   0.5000000   0.2645400   0.0193193  )
        22           O   tau(  22) = (   0.5000000   0.7936201   0.9806807  )
        23           O   tau(  23) = (   0.0000000   0.2645400   0.5193195  )
        24           O   tau(  24) = (   0.0000000   0.7936201   0.4806806  )
        25           O   tau(  25) = (   0.7306806   0.2645400   0.7499999  )
        26           O   tau(  26) = (   0.2693193   0.7936201   0.2500000  )
        27           O   tau(  27) = (   0.7693195   0.2645400   0.2500000  )
        28           O   tau(  28) = (   0.2306807   0.7936201   0.7499999  )
        29           O   tau(  29) = (   0.2693193   0.2645400   0.7499999  )
        30           O   tau(  30) = (   0.7306806   0.7936201   0.2500000  )
        31           O   tau(  31) = (   0.2306807   0.2645400   0.2500000  )
        32           O   tau(  32) = (   0.7693195   0.7936201   0.7499999  )

     number of k points=   112  gaussian smearing, width (Ry)=  0.0007

     Number of k-points >= 100: set verbosity='high' to print them.

     Initial potential from superposition of free atoms

     starting charge  367.99656, renormalised to  368.00000
     Starting wfc are  232 randomized atomic wfcs

     Self-consistent Calculation

     iteration #  1     ecut=   120.00 Ry     beta= 0.70
     Davidson diagonalization with overlap
     ethr =  1.00E-02,  avg # of iterations =  5.4

     total energy              =   -6254.01959624 Ry
     Harris-Foulkes estimate   =   -6264.53073705 Ry
     estimated scf accuracy    <      13.35081921 Ry

[...]

     End of self-consistent calculation

     Number of k-points >= 100: set verbosity='high' to print the bands.

     the Fermi energy is     8.6380 ev

!    total energy              =   -6260.99630754 Ry
     Harris-Foulkes estimate   =   -6260.99630754 Ry
     estimated scf accuracy    <          2.0E-09 Ry

     The total energy is the sum of the following terms:

     one-electron contribution =   -4806.13031132 Ry
     hartree contribution      =    2639.94037085 Ry
     xc contribution           =    -966.60178882 Ry
     ewald contribution        =   -3128.20457826 Ry
     smearing contrib. (-TS)   =      -0.00000000 Ry

     convergence has been achieved in  14 iterations

     Forces acting on atoms (cartesian axes, Ry/au):

     atom    1 type  1   force =     0.00003100    0.06507294    0.00002310
     atom    2 type  1   force =    -0.00003100   -0.06507294   -0.00002310
     atom    3 type  1   force =     0.00005647   -0.06510389   -0.00002864
     atom    4 type  1   force =    -0.00005647    0.06510389    0.00002864
     atom    5 type  1   force =    -0.00004508    0.06513073   -0.00000583
     atom    6 type  1   force =     0.00004508   -0.06513073    0.00000583
     atom    7 type  1   force =    -0.00003328   -0.06515547    0.00000529
     atom    8 type  1   force =     0.00003328    0.06515547   -0.00000529
     atom    9 type  2   force =     0.00000114   -0.03216544    0.00000023
     atom   10 type  2   force =    -0.00000114    0.03216544   -0.00000023
     atom   11 type  2   force =     0.00000076    0.03216611   -0.00000016
     atom   12 type  2   force =    -0.00000076   -0.03216611    0.00000016
     atom   13 type  2   force =     0.00000108   -0.03216695   -0.00000032
     atom   14 type  2   force =    -0.00000108    0.03216695    0.00000032
     atom   15 type  2   force =     0.00000029    0.03216899    0.00000021
     atom   16 type  2   force =    -0.00000029   -0.03216899   -0.00000021
     atom   17 type  2   force =    -0.00000067   -0.00000001   -0.01021985
     atom   18 type  2   force =     0.00000067    0.00000001    0.01021985
     atom   19 type  2   force =     0.00000107    0.00000040   -0.01022015
     atom   20 type  2   force =    -0.00000107   -0.00000040    0.01022015
     atom   21 type  2   force =    -0.00000156   -0.00000055    0.01021995
     atom   22 type  2   force =     0.00000156    0.00000055   -0.01021995
     atom   23 type  2   force =     0.00000177   -0.00000057    0.01021970
     atom   24 type  2   force =    -0.00000177    0.00000057   -0.01021970
     atom   25 type  2   force =    -0.01021895   -0.00000000    0.00000135
     atom   26 type  2   force =     0.01021895    0.00000000   -0.00000135
     atom   27 type  2   force =     0.01022020   -0.00000002   -0.00000159
     atom   28 type  2   force =    -0.01022020    0.00000002    0.00000159
     atom   29 type  2   force =     0.01021755    0.00000060    0.00000094
     atom   30 type  2   force =    -0.01021755   -0.00000060   -0.00000094
     atom   31 type  2   force =    -0.01021996    0.00000031   -0.00000068
     atom   32 type  2   force =     0.01021996   -0.00000031    0.00000068

     Total force =     0.000000     Total SCF correction =     0.000000

     Computing stress (Cartesian axis) and pressure

          total   stress  (Ry/bohr**3)                   (kbar)     P=   88.46
   0.00119482  -0.00000000  -0.00000000        175.76     -0.00     -0.00
  -0.00000000  -0.00058557  -0.00000000         -0.00    -86.14     -0.00
  -0.00000000  -0.00000000   0.00119481         -0.00     -0.00    175.76

     BFGS Geometry Optimization

     number of scf cycles    =   1
     number of bfgs steps    =   0

     enthalpy new            =   -6260.9963075403 Ry

     new trust radius        =       0.3164016397 bohr
     new conv_thr            =       0.0000000100 Ry

     new unit-cell volume =   2931.50333 a.u.^3 (   434.40397 Ang^3 )
     density =      7.08974 g/cm^3

CELL_PARAMETERS (angstrom)
   7.542407658  -0.000000131  -0.000000150
  -0.000000138   7.636141576  -0.000000246
  -0.000000150  -0.000000233   7.542404345

ATOMIC_POSITIONS (crystal)
W        0.250000000   0.269124572   0.000000000    0   0   0
W        0.749999932   0.730875428   0.000000000    0   0   0
W        0.250000000   0.230875447   0.500000000    0   0   0
W        0.749999932   0.769124672   0.500000000    0   0   0
W        0.749999932   0.269124572   0.500000000    0   0   0
W        0.250000000   0.730875428   0.500000000    0   0   0
W        0.749999932   0.230875447   0.000000000    0   0   0
W        0.250000000   0.769124672   0.000000000    0   0   0
O        0.250000000   0.004850491   0.000000000    0   0   0
O        0.749999932   0.995149443   0.000000000    0   0   0
[...]
O        0.749999932   0.495149543   0.000000000    0   0   0
O        0.250000000   0.504850557   0.000000000    0   0   0
O        0.500000000   0.250000000   0.480680638    0   0   0
O        0.500000000   0.750000048   0.519319469    0   0   0
O        0.000000000   0.250000000   0.980680671    0   0   0
O       -0.000000000   0.750000048   0.019319260    0   0   0
O        0.500000000   0.250000000   0.019319260    0   0   0
O        0.500000000   0.750000048   0.980680671    0   0   0
O        0.000000000   0.250000000   0.519319469    0   0   0
O        0.000000000   0.750000048   0.480680638    0   0   0
O        0.730680599   0.250000000   0.749999932    0   0   0
O        0.269319294   0.750000048   0.250000000    0   0   0
O        0.769319536   0.250000000   0.250000000    0   0   0
O        0.230680654   0.750000048   0.749999932    0   0   0
O        0.269319294   0.250000000   0.749999932    0   0   0
O        0.730680599   0.750000048   0.250000000    0   0   0
O        0.230680654   0.250000000   0.250000000    0   0   0
O        0.769319536   0.750000048   0.749999932    0   0   0

     Writing output data file Landau_32.save
     NEW-OLD atomic charge density approx. for the potential
     extrapolated charge  383.88248, renormalised to  368.00000

[...]

     enthalpy old            =   -6260.9963075403 Ry
     enthalpy new            =   -6261.0766863542 Ry

     CASE: enthalpy_new < enthalpy_old

[...]

     Threshold (ethr) on eigenvalues was too large:
     Diagonalizing with lowered threshold

     Davidson diagonalization with overlap
     ethr =  1.58E-08,  avg # of iterations =  3.0

[...]

     number of scf cycles    =   5
     number of bfgs steps    =   4

     enthalpy old            =   -6261.0843021472 Ry
     enthalpy new            =   -6261.0843090385 Ry

     CASE: enthalpy_new < enthalpy_old

     small trust_radius: resetting bfgs history

     new trust radius        =       0.0000385674 bohr
     new conv_thr            =            1.0E-10 Ry

     new unit-cell volume =   2884.77152 a.u.^3 (   427.47903 Ang^3 )
     density =      7.20459 g/cm^3

[...]

ATOMIC_POSITIONS (crystal)
W        0.250000000   0.269124572   0.000000000    0   0   0
W        0.749999932   0.730875428   0.000000000    0   0   0
W        0.250000000   0.230875447   0.500000000    0   0   0
W        0.749999932   0.769124672   0.500000000    0   0   0
W        0.749999932   0.269124572   0.500000000    0   0   0
W        0.250000000   0.730875428   0.500000000    0   0   0
W        0.749999932   0.230875447  -0.000000000    0   0   0
W        0.250000000   0.769124672  -0.000000000    0   0   0
O        0.250000000   0.004850491  -0.000000000    0   0   0
O        0.749999932   0.995149443  -0.000000000    0   0   0
O        0.250000000   0.495149543   0.500000000    0   0   0
O        0.749999932   0.504850557   0.500000000    0   0   0
O        0.749999932   0.004850491   0.500000000    0   0   0
O        0.250000000   0.995149443   0.500000000    0   0   0
O        0.749999932   0.495149543   0.000000000    0   0   0
O        0.250000000   0.504850557   0.000000000    0   0   0
O        0.500000000   0.250000000   0.480680638    0   0   0
O        0.500000000   0.750000048   0.519319469    0   0   0
O        0.000000000   0.250000000   0.980680671    0   0   0
O       -0.000000000   0.750000048   0.019319260    0   0   0
O        0.500000000   0.250000000   0.019319260    0   0   0
O        0.500000000   0.750000048   0.980680671    0   0   0
O        0.000000000   0.250000000   0.519319469    0   0   0
O        0.000000000   0.750000048   0.480680638    0   0   0
O        0.730680599   0.250000000   0.749999932    0   0   0
O        0.269319294   0.750000048   0.250000000    0   0   0
O        0.769319536   0.250000000   0.250000000    0   0   0
O        0.230680654   0.750000048   0.749999932    0   0   0
O        0.269319294   0.250000000   0.749999932    0   0   0
O        0.730680599   0.750000048   0.250000000    0   0   0
O        0.230680654   0.250000000   0.250000000    0   0   0
O        0.769319536   0.750000048   0.749999932    0   0   0

     Writing output data file Landau_32.save
     NEW-OLD atomic charge density approx. for the potential
     extrapolated charge  367.99746, renormalised to  368.00000

[...]

     Threshold (ethr) on eigenvalues was too large:
     Diagonalizing with lowered threshold

     Davidson diagonalization with overlap
     ethr =  9.97E-11,  avg # of iterations =  2.1

[...]

     bfgs converged in   6 scf cycles and   5 bfgs steps
     (criteria: energy <  1.0E-07 Ry, force <  1.0E-07Ry/Bohr, cell <  5.0E-01kbar)

     End of BFGS Geometry Optimization

     Final enthalpy =   -6261.0843090380 Ry
Begin final coordinates
     new unit-cell volume =   2884.77152 a.u.^3 (   427.47903 Ang^3 )
     density =      7.20459 g/cm^3

CELL_PARAMETERS (angstrom)
   7.490377892  -0.000000015  -0.000000045
  -0.000000011   7.619164459  -0.000000057
  -0.000000045  -0.000000059   7.490378076

ATOMIC_POSITIONS (crystal)
W        0.250000000   0.269124572   0.000000000    0   0   0
W        0.749999932   0.730875428   0.000000000    0   0   0
W        0.250000000   0.230875447   0.500000000    0   0   0
W        0.749999932   0.769124672   0.500000000    0   0   0
W        0.749999932   0.269124572   0.500000000    0   0   0
W        0.250000000   0.730875428   0.500000000    0   0   0
W        0.749999932   0.230875447   0.000000000    0   0   0
W        0.250000000   0.769124672  -0.000000000    0   0   0
O        0.250000000   0.004850491  -0.000000000    0   0   0
O        0.749999932   0.995149443   0.000000000    0   0   0
O        0.250000000   0.495149543   0.500000000    0   0   0
O        0.749999932   0.504850557   0.500000000    0   0   0
O        0.749999932   0.004850491   0.500000000    0   0   0
O        0.250000000   0.995149443   0.500000000    0   0   0
O        0.749999932   0.495149543   0.000000000    0   0   0
O        0.250000000   0.504850557   0.000000000    0   0   0
O        0.500000000   0.250000000   0.480680638    0   0   0
O        0.500000000   0.750000048   0.519319469    0   0   0
O        0.000000000   0.250000000   0.980680671    0   0   0
O       -0.000000000   0.750000048   0.019319260    0   0   0
O        0.500000000   0.250000000   0.019319260    0   0   0
O        0.500000000   0.750000048   0.980680671    0   0   0
O        0.000000000   0.250000000   0.519319469    0   0   0
O        0.000000000   0.750000048   0.480680638    0   0   0
O        0.730680599   0.250000000   0.749999932    0   0   0
O        0.269319294   0.750000048   0.250000000    0   0   0
O        0.769319536   0.250000000   0.250000000    0   0   0
O        0.230680654   0.750000048   0.749999932    0   0   0
O        0.269319294   0.250000000   0.749999932    0   0   0
O        0.730680599   0.750000048   0.250000000    0   0   0
O        0.230680654   0.250000000   0.250000000    0   0   0
O        0.769319536   0.750000048   0.749999932    0   0   0
End final coordinates

     A final scf calculation at the relaxed structure.
     The G-vectors are recalculated for the final unit cell
     Results may differ from those at the preceding step.

     bravais-lattice index     =            0
     lattice parameter (alat)  =      13.8397  a.u.
     unit-cell volume          =    2884.7715 (a.u.)^3
     number of atoms/cell      =           32
     number of atomic types    =            2
     number of electrons       =       368.00
     number of Kohn-Sham states=          221
     kinetic-energy cutoff     =     120.0000  Ry
     charge density cutoff     =     480.0000  Ry
     convergence threshold     =      1.0E-10
     mixing beta               =       0.7000
     number of iterations used =            8  plain     mixing
     Exchange-correlation      = SLA PW NOGX NOGC ( 1  4  0  0 0 0)

     celldm(1)=  13.839685  celldm(2)=   0.000000  celldm(3)=   0.000000
     celldm(4)=   0.000000  celldm(5)=   0.000000  celldm(6)=   0.000000

     crystal axes: (cart. coord. in units of alat)
               a(1) = (   1.022766  -0.000000  -0.000000 )
               a(2) = (  -0.000000   1.040351  -0.000000 )
               a(3) = (  -0.000000  -0.000000   1.022766 )

     reciprocal axes: (cart. coord. in units 2 pi/alat)
               b(1) = (  0.977741  0.000000  0.000000 )
               b(2) = (  0.000000  0.961214  0.000000 )
               b(3) = (  0.000000  0.000000  0.977741 )

     PseudoPot. # 1 for W  read from file:
     /cluster/scratch/mnoe/QE/pps/W_ONCV_LDA-4.0.upf
     MD5 check sum: ba0307d5d4cd419d6f1d13dc49d7c13a
     Pseudo is Norm-conserving + core correction, Zval = 28.0
     Generated using ONCVPSP code by D. R. Hamann
     Using radial grid of 1380 points,  8 beta functions with:
                l(1) =   0
                l(2) =   0
                l(3) =   1
                l(4) =   1
                l(5) =   2
                l(6) =   2
                l(7) =   3
                l(8) =   3

     PseudoPot. # 2 for O  read from file:
     /cluster/scratch/mnoe/QE/pps/O_ONCV_LDA-3.0.upf
     MD5 check sum: a1bd6164e7280c17a38c229939bfbd54
     Pseudo is Norm-conserving + core correction, Zval =  6.0
     Generated using ONCVPSP code by D. R. Hamann
     Using radial grid of  926 points,  5 beta functions with:
                l(1) =   0
                l(2) =   0
                l(3) =   1
                l(4) =   1
                l(5) =   2

     atomic species   valence    mass     pseudopotential
        W             28.00   183.84000     W ( 1.00)
        O              6.00    15.99940     O ( 1.00)

      2 Sym. Ops., with inversion, found

   Cartesian axes

     site n.     atom                  positions (alat units)
         1           W   tau(   1) = (   0.2556916   0.2799841  -0.0000000  )
         2           W   tau(   2) = (   0.7670746   0.7603672  -0.0000000  )
         3           W   tau(   3) = (   0.2556916   0.2401916   0.5113831  )
         4           W   tau(   4) = (   0.7670746   0.8001598   0.5113831  )
         5           W   tau(   5) = (   0.7670746   0.2799841   0.5113831  )
         6           W   tau(   6) = (   0.2556916   0.7603672   0.5113831  )
         7           W   tau(   7) = (   0.7670746   0.2401916  -0.0000000  )
         8           W   tau(   8) = (   0.2556916   0.8001598  -0.0000000  )
         9           O   tau(   9) = (   0.2556916   0.0050462  -0.0000000  )
        10           O   tau(  10) = (   0.7670746   1.0353050  -0.0000000  )
        11           O   tau(  11) = (   0.2556916   0.5151294   0.5113831  )
        12           O   tau(  12) = (   0.7670746   0.5252219   0.5113831  )
        13           O   tau(  13) = (   0.7670746   0.0050462   0.5113831  )
        14           O   tau(  14) = (   0.2556916   1.0353050   0.5113831  )
        15           O   tau(  15) = (   0.7670746   0.5151295  -0.0000000  )
        16           O   tau(  16) = (   0.2556916   0.5252219  -0.0000000  )
        17           O   tau(  17) = (   0.5113831   0.2600878   0.4916239  )
        18           O   tau(  18) = (   0.5113831   0.7802635   0.5311424  )
        19           O   tau(  19) = (  -0.0000000   0.2600878   1.0030071  )
        20           O   tau(  20) = (  -0.0000000   0.7802635   0.0197591  )
        21           O   tau(  21) = (   0.5113831   0.2600878   0.0197591  )
        22           O   tau(  22) = (   0.5113831   0.7802635   1.0030071  )
        23           O   tau(  23) = (  -0.0000000   0.2600878   0.5311424  )
        24           O   tau(  24) = (  -0.0000000   0.7802635   0.4916239  )
        25           O   tau(  25) = (   0.7473154   0.2600878   0.7670746  )
        26           O   tau(  26) = (   0.2754507   0.7802635   0.2556916  )
        27           O   tau(  27) = (   0.7868340   0.2600878   0.2556916  )
        28           O   tau(  28) = (   0.2359324   0.7802635   0.7670746  )
        29           O   tau(  29) = (   0.2754507   0.2600878   0.7670746  )
        30           O   tau(  30) = (   0.7473154   0.7802635   0.2556916  )
        31           O   tau(  31) = (   0.2359324   0.2600878   0.2556916  )
        32           O   tau(  32) = (   0.7868340   0.7802635   0.7670746  )

     number of k points=   112  gaussian smearing, width (Ry)=  0.0007

     Number of k-points >= 100: set verbosity='high' to print them.

     Initial potential from superposition of free atoms

     starting charge  367.99656, renormalised to  368.00000
     Starting wfc are  232 randomized atomic wfcs

     Writing output data file Landau_32.save

     Self-consistent Calculation

[...]

     total energy              =   -6261.08539284 Ry
     Harris-Foulkes estimate   =   -6261.08539284 Ry
     estimated scf accuracy    <          3.0E-10 Ry

     iteration # 17     ecut=   120.00 Ry     beta= 0.70
     Davidson diagonalization with overlap
     ethr =  1.00E-13,  avg # of iterations =  2.1

     End of self-consistent calculation

     Number of k-points >= 100: set verbosity='high' to print the bands.

     the Fermi energy is     8.4360 ev

!    total energy              =   -6261.08539284 Ry
     Harris-Foulkes estimate   =   -6261.08539284 Ry
     estimated scf accuracy    <          7.1E-11 Ry

     The total energy is the sum of the following terms:

     one-electron contribution =   -4844.62848680 Ry
     hartree contribution      =    2652.56358901 Ry
     xc contribution           =    -965.67868353 Ry
     ewald contribution        =   -3103.34181152 Ry
     smearing contrib. (-TS)   =      -0.00000000 Ry

     convergence has been achieved in  17 iterations

     Forces acting on atoms (cartesian axes, Ry/au):

     atom    1 type  1   force =     0.00000108    0.02125478    0.00000222
     atom    2 type  1   force =    -0.00000108   -0.02125478   -0.00000222
     atom    3 type  1   force =    -0.00000637   -0.02124261   -0.00000239
     atom    4 type  1   force =     0.00000637    0.02124261    0.00000239
     atom    5 type  1   force =     0.00000568    0.02125540    0.00000126
     atom    6 type  1   force =    -0.00000568   -0.02125540   -0.00000126
     atom    7 type  1   force =    -0.00000273   -0.02123941   -0.00000108
     atom    8 type  1   force =     0.00000273    0.02123941    0.00000108
     atom    9 type  2   force =     0.00000008   -0.01163212    0.00000001
     atom   10 type  2   force =    -0.00000008    0.01163212   -0.00000001
     atom   11 type  2   force =    -0.00000007    0.01163148   -0.00000003
     atom   12 type  2   force =     0.00000007   -0.01163148    0.00000003
     atom   13 type  2   force =    -0.00000010   -0.01163157   -0.00000003
     atom   14 type  2   force =     0.00000010    0.01163157    0.00000003
     atom   15 type  2   force =    -0.00000012    0.01163104   -0.00000001
     atom   16 type  2   force =     0.00000012   -0.01163104    0.00000001
     atom   17 type  2   force =    -0.00000014   -0.00000009   -0.00121478
     atom   18 type  2   force =     0.00000014    0.00000009    0.00121478
     atom   19 type  2   force =    -0.00000056    0.00000002   -0.00121492
     atom   20 type  2   force =     0.00000056   -0.00000002    0.00121492
     atom   21 type  2   force =     0.00000048    0.00000004    0.00121503
     atom   22 type  2   force =    -0.00000048   -0.00000004   -0.00121503
     atom   23 type  2   force =     0.00000015    0.00000002    0.00121473
     atom   24 type  2   force =    -0.00000015   -0.00000002   -0.00121473
     atom   25 type  2   force =    -0.00121486    0.00000001    0.00000045
     atom   26 type  2   force =     0.00121486   -0.00000001   -0.00000045
     atom   27 type  2   force =     0.00121460   -0.00000004   -0.00000039
     atom   28 type  2   force =    -0.00121460    0.00000004    0.00000039
     atom   29 type  2   force =     0.00121488   -0.00000003   -0.00000030
     atom   30 type  2   force =    -0.00121488    0.00000003    0.00000030
     atom   31 type  2   force =    -0.00121459   -0.00000000    0.00000016
     atom   32 type  2   force =     0.00121459    0.00000000   -0.00000016

     Total force =     0.000000     Total SCF correction =     0.000000

     Computing stress (Cartesian axis) and pressure

          total   stress  (Ry/bohr**3)                   (kbar)     P=    1.64
   0.00001584   0.00000000  -0.00000000          2.33      0.00     -0.00
   0.00000000   0.00000180   0.00000000          0.00      0.27      0.00
  -0.00000000   0.00000000   0.00001584         -0.00      0.00      2.33

     Writing output data file Landau_32.save

     General routines

     Parallel routines

   This run was terminated on:   5:28:32   5Mar2020

   JOB DONE.