     Program PWSCF v.6.4.1 starts on 29Nov2019 at 17:40: 4

     K-points division:     npool     =      40
     Reading input from scf.in

     Current dimensions of program PWSCF are:
     Max number of different atomic species (ntypx) = 10
     Max number of k-points (npk) =  40000
     Max angular momentum in pseudopotentials (lmaxx) =  3

     Subspace diagonalization in iterative solution of the eigenvalue problem:
     a serial algorithm will be used

     Message from routine setup:
     using ibrav=0 with symmetry is DISCOURAGED, use correct ibrav instead

     bravais-lattice index     =            0
     lattice parameter (alat)  =       9.9384  a.u.
     unit-cell volume          =    1432.4563 (a.u.)^3
     number of atoms/cell      =           16
     number of atomic types    =            2
     number of electrons       =       184.18
     number of Kohn-Sham states=          111
     kinetic-energy cutoff     =     120.0000  Ry
     charge density cutoff     =     480.0000  Ry
     convergence threshold     =      1.0E-08
     mixing beta               =       0.7000
     number of iterations used =            8  plain     mixing
     Exchange-correlation      = SLA PW NOGX NOGC ( 1  4  0  0 0 0)

     celldm(1)=   9.938417  celldm(2)=   0.000000  celldm(3)=   0.000000
     celldm(4)=   0.000000  celldm(5)=   0.000000  celldm(6)=   0.000000

     crystal axes: (cart. coord. in units of alat)
               a(1) = (   1.000000   0.000000   0.000000 )
               a(2) = (   0.000000   1.000000   0.000000 )
               a(3) = (   0.000000   0.000000   1.459250 )

     reciprocal axes: (cart. coord. in units 2 pi/alat)
               b(1) = (  1.000000  0.000000  0.000000 )
               b(2) = (  0.000000  1.000000  0.000000 )
               b(3) = (  0.000000  0.000000  0.685283 )

     PseudoPot. # 1 for W  read from file:
     /cluster/scratch/mnoe/QE/pps/W_ONCV_LDA-4.0.upf
     MD5 check sum: ba0307d5d4cd419d6f1d13dc49d7c13a
     Pseudo is Norm-conserving + core correction, Zval = 28.0
     Generated using ONCVPSP code by D. R. Hamann
     Using radial grid of 1380 points,  8 beta functions with:
                l(1) =   0
                l(2) =   0
                l(3) =   1
                l(4) =   1
                l(5) =   2
                l(6) =   2
                l(7) =   3
                l(8) =   3

     PseudoPot. # 2 for O  read from file:
     /cluster/scratch/mnoe/QE/pps/O_ONCV_LDA-3.0.upf
     MD5 check sum: b55cdb4f45ae2203d24ad12cf8d61a31
     Pseudo is Norm-conserving + core correction, Zval =  6.0
     Generated using ONCVPSP code by D. R. Hamann
     Using radial grid of  926 points,  5 beta functions with:
                l(1) =   0
                l(2) =   0
                l(3) =   1
                l(4) =   1
                l(5) =   2

     atomic species   valence    mass     pseudopotential
        W             28.00   183.84000     W ( 1.00)
        O              6.00    15.99940     O ( 1.00)

     16 Sym. Ops., with inversion, found (14 have fractional translation)

   Cartesian axes

     site n.     atom                  positions (alat units)
         1           W   tau(   1) = (   0.2500000   0.2500000   0.3103651  )
         2           W   tau(   2) = (   0.7500000   0.7500000   1.1488852  )
         3           W   tau(   3) = (   0.7500000   0.7500000   0.4192601  )
         4           W   tau(   4) = (   0.2500000   0.2500000   1.0399902  )
         5           O   tau(   5) = (   0.2500000   0.2500000   0.7024693  )
         6           O   tau(   6) = (   0.7500000   0.7500000   0.7567810  )
         7           O   tau(   7) = (   0.7500000   0.7500000   0.0271559  )
         8           O   tau(   8) = (   0.2500000   0.2500000   1.4320945  )
         9           O   tau(   9) = (   0.4774966   0.5225034   0.3648126  )
        10           O   tau(  10) = (   0.5225034   0.4774966   1.0944377  )
        11           O   tau(  11) = (   0.0225034   0.9774966   0.3648126  )
        12           O   tau(  12) = (   0.9774965   0.0225034   1.0944377  )
        13           O   tau(  13) = (   0.9774966   0.4774966   0.3648126  )
        14           O   tau(  14) = (   0.0225034   0.5225034   1.0944377  )
        15           O   tau(  15) = (   0.5225034   0.0225034   0.3648126  )
        16           O   tau(  16) = (   0.4774966   0.9774965   1.0944377  )

     number of k points=    60  gaussian smearing, width (Ry)=  0.0007
                       cart. coord. in units 2pi/alat
        k(    1) = (   0.0000000   0.0000000   0.0000000), wk =   0.0041152
        k(    2) = (   0.0000000   0.0000000   0.1142139), wk =   0.0082305
        k(    3) = (   0.0000000   0.0000000   0.2284278), wk =   0.0082305
        k(    4) = (   0.0000000   0.0000000  -0.3426417), wk =   0.0041152
        k(    5) = (   0.0000000   0.1111111   0.0000000), wk =   0.0164609
        k(    6) = (   0.0000000   0.1111111   0.1142139), wk =   0.0329218
        k(    7) = (   0.0000000   0.1111111   0.2284278), wk =   0.0329218
        k(    8) = (   0.0000000   0.1111111  -0.3426417), wk =   0.0164609
        k(    9) = (   0.0000000   0.2222222   0.0000000), wk =   0.0164609
        k(   10) = (   0.0000000   0.2222222   0.1142139), wk =   0.0329218
        k(   11) = (   0.0000000   0.2222222   0.2284278), wk =   0.0329218
        k(   12) = (   0.0000000   0.2222222  -0.3426417), wk =   0.0164609
        k(   13) = (   0.0000000   0.3333333   0.0000000), wk =   0.0164609
        k(   14) = (   0.0000000   0.3333333   0.1142139), wk =   0.0329218
        k(   15) = (   0.0000000   0.3333333   0.2284278), wk =   0.0329218
        k(   16) = (   0.0000000   0.3333333  -0.3426417), wk =   0.0164609
        k(   17) = (   0.0000000   0.4444444   0.0000000), wk =   0.0164609
        k(   18) = (   0.0000000   0.4444444   0.1142139), wk =   0.0329218
        k(   19) = (   0.0000000   0.4444444   0.2284278), wk =   0.0329218
        k(   20) = (   0.0000000   0.4444444  -0.3426417), wk =   0.0164609
        k(   21) = (   0.1111111   0.1111111   0.0000000), wk =   0.0164609
        k(   22) = (   0.1111111   0.1111111   0.1142139), wk =   0.0329218
        k(   23) = (   0.1111111   0.1111111   0.2284278), wk =   0.0329218
        k(   24) = (   0.1111111   0.1111111  -0.3426417), wk =   0.0164609
        k(   25) = (   0.1111111   0.2222222   0.0000000), wk =   0.0329218
        k(   26) = (   0.1111111   0.2222222   0.1142139), wk =   0.0658436
        k(   27) = (   0.1111111   0.2222222   0.2284278), wk =   0.0658436
        k(   28) = (   0.1111111   0.2222222  -0.3426417), wk =   0.0329218
        k(   29) = (   0.1111111   0.3333333   0.0000000), wk =   0.0329218
        k(   30) = (   0.1111111   0.3333333   0.1142139), wk =   0.0658436
        k(   31) = (   0.1111111   0.3333333   0.2284278), wk =   0.0658436
        k(   32) = (   0.1111111   0.3333333  -0.3426417), wk =   0.0329218
        k(   33) = (   0.1111111   0.4444444   0.0000000), wk =   0.0329218
        k(   34) = (   0.1111111   0.4444444   0.1142139), wk =   0.0658436
        k(   35) = (   0.1111111   0.4444444   0.2284278), wk =   0.0658436
        k(   36) = (   0.1111111   0.4444444  -0.3426417), wk =   0.0329218
        k(   37) = (   0.2222222   0.2222222   0.0000000), wk =   0.0164609
        k(   38) = (   0.2222222   0.2222222   0.1142139), wk =   0.0329218
        k(   39) = (   0.2222222   0.2222222   0.2284278), wk =   0.0329218
        k(   40) = (   0.2222222   0.2222222  -0.3426417), wk =   0.0164609
        k(   41) = (   0.2222222   0.3333333   0.0000000), wk =   0.0329218
        k(   42) = (   0.2222222   0.3333333   0.1142139), wk =   0.0658436
        k(   43) = (   0.2222222   0.3333333   0.2284278), wk =   0.0658436
        k(   44) = (   0.2222222   0.3333333  -0.3426417), wk =   0.0329218
        k(   45) = (   0.2222222   0.4444444   0.0000000), wk =   0.0329218
        k(   46) = (   0.2222222   0.4444444   0.1142139), wk =   0.0658436
        k(   47) = (   0.2222222   0.4444444   0.2284278), wk =   0.0658436
        k(   48) = (   0.2222222   0.4444444  -0.3426417), wk =   0.0329218
        k(   49) = (   0.3333333   0.3333333   0.0000000), wk =   0.0164609
        k(   50) = (   0.3333333   0.3333333   0.1142139), wk =   0.0329218
        k(   51) = (   0.3333333   0.3333333   0.2284278), wk =   0.0329218
        k(   52) = (   0.3333333   0.3333333  -0.3426417), wk =   0.0164609
        k(   53) = (   0.3333333   0.4444444   0.0000000), wk =   0.0329218
        k(   54) = (   0.3333333   0.4444444   0.1142139), wk =   0.0658436
        k(   55) = (   0.3333333   0.4444444   0.2284278), wk =   0.0658436
        k(   56) = (   0.3333333   0.4444444  -0.3426417), wk =   0.0329218
        k(   57) = (   0.4444444   0.4444444   0.0000000), wk =   0.0164609
        k(   58) = (   0.4444444   0.4444444   0.1142139), wk =   0.0329218
        k(   59) = (   0.4444444   0.4444444   0.2284278), wk =   0.0329218
        k(   60) = (   0.4444444   0.4444444  -0.3426417), wk =   0.0164609

     Initial potential from superposition of free atoms

     starting charge  183.99828, renormalised to  184.18000
     Starting wfcs are  116 randomized atomic wfcs

     Self-consistent Calculation

     iteration #  1     ecut=   120.00 Ry     beta= 0.70
     Davidson diagonalization with overlap
     ethr =  1.00E-02,  avg # of iterations =  5.0

     total energy              =   -3126.74913268 Ry
     Harris-Foulkes estimate   =   -3132.21757269 Ry
     estimated scf accuracy    <       6.89609514 Ry

[...]

     total energy              =   -3130.41770774 Ry
     Harris-Foulkes estimate   =   -3130.41770776 Ry
     estimated scf accuracy    <       0.00000003 Ry

     iteration # 12     ecut=   120.00 Ry     beta= 0.70
     Davidson diagonalization with overlap
     ethr =  1.59E-11,  avg # of iterations =  2.0

     End of self-consistent calculation

          k = 0.0000 0.0000 0.0000 ( 31879 PWs)   bands (ev):

   -66.4620 -66.4616 -66.4607 -66.4602 -30.8517 -30.8470 -30.7840 -30.7804
   -30.7794 -30.7794 -30.7756 -30.7756 -30.6999 -30.6999 -30.6968 -30.6968
   -20.6238 -20.6237 -20.6237 -20.6237 -20.6120 -20.6119 -20.6057 -20.6055
   -20.6024 -20.6024 -20.6021 -20.6021 -20.6021 -20.6019 -20.6017 -20.6017
   -20.6001 -20.6001 -20.6001 -20.6001 -20.5950 -20.5950 -20.5949 -20.5949
   -20.5904 -20.5904 -20.5902 -20.5902 -10.2318  -9.8538  -9.4944  -9.2302
    -9.2089  -9.1657  -8.1319  -8.0190  -7.9639  -7.9639  -7.9394  -7.9394
     0.9162   0.9168   0.9517   1.1569   1.2571   1.3813   2.3053   2.3153
     2.3153   2.4088   3.8931   3.8931   4.5455   4.5455   4.7855   5.3278
     5.3278   5.3476   5.3476   5.5536   5.5536   5.7088   5.7176   6.3999
     6.3999   6.6226   6.8736   6.8799   6.9842   6.9842   7.0015   7.0015
     7.9530   7.9530   8.0251   8.0275   8.7602   8.7657   9.4328   9.4328
    12.1619  12.1619  13.0389  13.0389  13.1682  13.1733  13.3317  13.9056
    13.9056  14.2928  14.2959  14.4583  15.2875  16.2315  16.9965

[...]

          k = 0.4444 0.4444-0.3426 ( 31798 PWs)   bands (ev):

   -66.4611 -66.4611 -66.4611 -66.4611 -30.8161 -30.8161 -30.8160 -30.8160
   -30.7819 -30.7819 -30.7794 -30.7794 -30.6968 -30.6968 -30.6944 -30.6944
   -20.6237 -20.6237 -20.6237 -20.6237 -20.6089 -20.6089 -20.6089 -20.6089
   -20.6022 -20.6022 -20.6021 -20.6021 -20.6019 -20.6019 -20.6016 -20.6016
   -20.6002 -20.6002 -20.6001 -20.6001 -20.5961 -20.5960 -20.5959 -20.5959
   -20.5894 -20.5894 -20.5893 -20.5893  -9.6047  -9.6047  -9.5642  -9.5642
    -8.7666  -8.7666  -8.7612  -8.7612  -8.0692  -8.0692  -8.0149  -8.0149
     1.0394   1.0394   1.1524   1.1524   2.8792   2.8792   2.8798   2.8798
     3.0766   3.0766   3.1063   3.1063   4.3236   4.3236   4.5135   4.5135
     4.9297   4.9298   5.0447   5.0447   5.6036   5.6036   5.7663   5.7663
     5.9949   5.9949   6.1294   6.1294   6.4633   6.4633   6.5543   6.5543
     7.2291   7.2291   7.2384   7.2384  10.9667  10.9667  11.0239  11.0240
    12.0987  12.0987  12.1980  12.1980  13.2220  13.2221  13.3128  13.3128
    14.8834  14.8834  15.0604  15.0604  17.5636  17.5636  17.7285

     the Fermi energy is     9.1002 ev

!    total energy              =   -3130.41770774 Ry
     Harris-Foulkes estimate   =   -3130.41770774 Ry
     estimated scf accuracy    <          7.2E-10 Ry

     The total energy is the sum of the following terms:

     one-electron contribution =   -2399.36354989 Ry
     hartree contribution      =    1316.26502284 Ry
     xc contribution           =    -482.96492498 Ry
     ewald contribution        =   -1564.35422099 Ry
     smearing contrib. (-TS)   =      -0.00003472 Ry

     convergence has been achieved in  12 iterations

     Writing output data file Landau_16.save/

     General routines

     Parallel routines

   This run was terminated on:  17:44: 1  29Nov2019

   JOB DONE.