     Program PWSCF v.6.4.1 starts on 20Nov2019 at 23:38: 6

     K-points division:     npool     =      64
     Reading input from rscf.in

     Current dimensions of program PWSCF are:
     Max number of different atomic species (ntypx) = 10
     Max number of k-points (npk) =  40000
     Max angular momentum in pseudopotentials (lmaxx) =  3

     Subspace diagonalization in iterative solution of the eigenvalue problem:
     a serial algorithm will be used

     Message from routine setup:
     using ibrav=0 with symmetry is DISCOURAGED, use correct ibrav instead

     bravais-lattice index     =            0
     lattice parameter (alat)  =      13.8397  a.u.
     unit-cell volume          =    2804.9816 (a.u.)^3
     number of atoms/cell      =           32
     number of atomic types    =            2
     number of electrons       =       368.00
     number of Kohn-Sham states=          221
     kinetic-energy cutoff     =     120.0000  Ry
     charge density cutoff     =     480.0000  Ry
     convergence threshold     =      1.0E-08
     mixing beta               =       0.7000
     number of iterations used =            8  plain     mixing
     Exchange-correlation      = SLA PW NOGX NOGC ( 1  4  0  0 0 0)
     nstep                     =           50

     celldm(1)=  13.839685  celldm(2)=   0.000000  celldm(3)=   0.000000
     celldm(4)=   0.000000  celldm(5)=   0.000000  celldm(6)=   0.000000

     crystal axes: (cart. coord. in units of alat)
               a(1) = (   1.000000   0.000000   0.000000 )
               a(2) = (   0.000000   1.058160   0.000000 )
               a(3) = (   0.000000   0.000000   1.000000 )

     reciprocal axes: (cart. coord. in units 2 pi/alat)
               b(1) = (  1.000000  0.000000  0.000000 )
               b(2) = (  0.000000  0.945037  0.000000 )
               b(3) = (  0.000000  0.000000  1.000000 )

     PseudoPot. # 1 for W  read from file:
     /cluster/scratch/mnoe/QE/pps/W_ONCV_LDA-4.0.upf
     MD5 check sum: ba0307d5d4cd419d6f1d13dc49d7c13a
     Pseudo is Norm-conserving + core correction, Zval = 28.0
     Generated using ONCVPSP code by D. R. Hamann
     Using radial grid of 1380 points,  8 beta functions with:
                l(1) =   0
                l(2) =   0
                l(3) =   1
                l(4) =   1
                l(5) =   2
                l(6) =   2
                l(7) =   3
                l(8) =   3

     PseudoPot. # 2 for O  read from file:
     /cluster/scratch/mnoe/QE/pps/O_ONCV_LDA-3.0.upf
     MD5 check sum: b55cdb4f45ae2203d24ad12cf8d61a31
     Pseudo is Norm-conserving + core correction, Zval =  6.0
     Generated using ONCVPSP code by D. R. Hamann
     Using radial grid of  926 points,  5 beta functions with:
                l(1) =   0
                l(2) =   0
                l(3) =   1
                l(4) =   1
                l(5) =   2

     atomic species   valence    mass     pseudopotential
        W             28.00   183.84000     W ( 1.00)
        O              6.00    15.99940     O ( 1.00)

      8 Sym. Ops., with inversion, found ( 6 have fractional translation)

   Cartesian axes

     site n.     atom                  positions (alat units)
         1           W   tau(   1) = (   0.2389000   0.3068774   0.0104800  )
         2           W   tau(   2) = (   0.7611000   0.7512827   0.9895200  )
         3           W   tau(   3) = (   0.2611000   0.2222026   0.5104800  )
         4           W   tau(   4) = (   0.7389000   0.8359574   0.4895200  )
         5           W   tau(   5) = (   0.7611000   0.3068774   0.4895200  )
         6           W   tau(   6) = (   0.2389000   0.7512827   0.5104800  )
         7           W   tau(   7) = (   0.7389000   0.2222026   0.9895200  )
         8           W   tau(   8) = (   0.2611000   0.8359574   0.0104800  )
         9           O   tau(   9) = (   0.2295300   0.0251233   0.0032600  )
        10           O   tau(  10) = (   0.7704700   1.0330369   0.9967400  )
        11           O   tau(  11) = (   0.2704700   0.5039568   0.5032600  )
        12           O   tau(  12) = (   0.7295300   0.5542033   0.4967400  )
        13           O   tau(  13) = (   0.7704700   0.0251233   0.4967400  )
        14           O   tau(  14) = (   0.2295300   1.0330369   0.5032600  )
        15           O   tau(  15) = (   0.7295300   0.5039568   0.9967400  )
        16           O   tau(  16) = (   0.2704700   0.5542033   0.0032600  )
        17           O   tau(  17) = (   0.5030300   0.2423081   0.4916672  )
        18           O   tau(  18) = (   0.4969700   0.8158520   0.5083328  )
        19           O   tau(  19) = (   0.9969700   0.2867719   0.9916672  )
        20           O   tau(  20) = (   0.0030301   0.7713881   0.0083328  )
        21           O   tau(  21) = (   0.4969700   0.2423081   0.0083328  )
        22           O   tau(  22) = (   0.5030300   0.8158520   0.9916672  )
        23           O   tau(  23) = (   0.0030301   0.2867719   0.5083328  )
        24           O   tau(  24) = (   0.9969700   0.7713881   0.4916672  )
        25           O   tau(  25) = (   0.7416673   0.2596831   0.7454000  )
        26           O   tau(  26) = (   0.2583328   0.7984771   0.2546000  )
        27           O   tau(  27) = (   0.7583328   0.2693970   0.2454000  )
        28           O   tau(  28) = (   0.2416672   0.7887631   0.7546000  )
        29           O   tau(  29) = (   0.2583328   0.2596831   0.7546000  )
        30           O   tau(  30) = (   0.7416673   0.7984771   0.2454000  )
        31           O   tau(  31) = (   0.2416672   0.2693970   0.2546000  )
        32           O   tau(  32) = (   0.7583328   0.7887631   0.7454000  )

     number of k points=    64  gaussian smearing, width (Ry)=  0.0007
                       cart. coord. in units 2pi/alat
        k(    1) = (   0.0000000   0.0000000   0.0000000), wk =   0.0092593
        k(    2) = (   0.0000000   0.0000000   0.1666667), wk =   0.0185185
        k(    3) = (   0.0000000   0.0000000   0.3333333), wk =   0.0185185
        k(    4) = (   0.0000000   0.0000000  -0.5000000), wk =   0.0092593
        k(    5) = (   0.0000000   0.1575061   0.0000000), wk =   0.0185185
        k(    6) = (   0.0000000   0.1575061   0.1666667), wk =   0.0370370
        k(    7) = (   0.0000000   0.1575061   0.3333333), wk =   0.0370370
        k(    8) = (   0.0000000   0.1575061  -0.5000000), wk =   0.0185185
        k(    9) = (   0.0000000   0.3150122   0.0000000), wk =   0.0185185
        k(   10) = (   0.0000000   0.3150122   0.1666667), wk =   0.0370370
        k(   11) = (   0.0000000   0.3150122   0.3333333), wk =   0.0370370
        k(   12) = (   0.0000000   0.3150122  -0.5000000), wk =   0.0185185
        k(   13) = (   0.0000000  -0.4725183   0.0000000), wk =   0.0092593
        k(   14) = (   0.0000000  -0.4725183   0.1666667), wk =   0.0185185
        k(   15) = (   0.0000000  -0.4725183   0.3333333), wk =   0.0185185
        k(   16) = (   0.0000000  -0.4725183  -0.5000000), wk =   0.0092593
        k(   17) = (   0.1666667   0.0000000   0.1666667), wk =   0.0370370
        k(   18) = (   0.1666667   0.0000000   0.3333333), wk =   0.0370370
        k(   19) = (   0.1666667   0.0000000  -0.5000000), wk =   0.0185185
        k(   20) = (   0.1666667   0.1575061   0.1666667), wk =   0.0740741
        k(   21) = (   0.1666667   0.1575061   0.3333333), wk =   0.0740741
        k(   22) = (   0.1666667   0.1575061  -0.5000000), wk =   0.0370370
        k(   23) = (   0.1666667   0.3150122   0.1666667), wk =   0.0740741
        k(   24) = (   0.1666667   0.3150122   0.3333333), wk =   0.0740741
        k(   25) = (   0.1666667   0.3150122  -0.5000000), wk =   0.0370370
        k(   26) = (   0.1666667  -0.4725183   0.1666667), wk =   0.0370370
        k(   27) = (   0.1666667  -0.4725183   0.3333333), wk =   0.0370370
        k(   28) = (   0.1666667  -0.4725183  -0.5000000), wk =   0.0185185
        k(   29) = (   0.3333333   0.0000000   0.3333333), wk =   0.0370370
        k(   30) = (   0.3333333   0.0000000  -0.5000000), wk =   0.0185185
        k(   31) = (   0.3333333   0.1575061   0.3333333), wk =   0.0740741
        k(   32) = (   0.3333333   0.1575061  -0.5000000), wk =   0.0370370
        k(   33) = (   0.3333333   0.3150122   0.3333333), wk =   0.0740741
        k(   34) = (   0.3333333   0.3150122  -0.5000000), wk =   0.0370370
        k(   35) = (   0.3333333  -0.4725183   0.3333333), wk =   0.0370370
        k(   36) = (   0.3333333  -0.4725183  -0.5000000), wk =   0.0185185
        k(   37) = (  -0.5000000   0.0000000  -0.5000000), wk =   0.0092593
        k(   38) = (  -0.5000000   0.1575061  -0.5000000), wk =   0.0185185
        k(   39) = (  -0.5000000   0.3150122  -0.5000000), wk =   0.0185185
        k(   40) = (  -0.5000000  -0.4725183  -0.5000000), wk =   0.0092593
        k(   41) = (   0.1666667   0.0000000   0.0000000), wk =   0.0185185
        k(   42) = (   0.3333333   0.0000000   0.0000000), wk =   0.0185185
        k(   43) = (  -0.5000000   0.0000000   0.0000000), wk =   0.0092593
        k(   44) = (   0.1666667  -0.1575061   0.0000000), wk =   0.0370370
        k(   45) = (   0.3333333  -0.1575061   0.0000000), wk =   0.0370370
        k(   46) = (  -0.5000000  -0.1575061   0.0000000), wk =   0.0185185
        k(   47) = (   0.1666667  -0.3150122   0.0000000), wk =   0.0370370
        k(   48) = (   0.3333333  -0.3150122   0.0000000), wk =   0.0370370
        k(   49) = (  -0.5000000  -0.3150122   0.0000000), wk =   0.0185185
        k(   50) = (   0.1666667   0.4725183   0.0000000), wk =   0.0185185
        k(   51) = (   0.3333333   0.4725183   0.0000000), wk =   0.0185185
        k(   52) = (  -0.5000000   0.4725183   0.0000000), wk =   0.0092593
        k(   53) = (   0.3333333   0.0000000   0.1666667), wk =   0.0370370
        k(   54) = (  -0.5000000   0.0000000   0.1666667), wk =   0.0185185
        k(   55) = (   0.3333333  -0.1575061   0.1666667), wk =   0.0740741
        k(   56) = (  -0.5000000  -0.1575061   0.1666667), wk =   0.0370370
        k(   57) = (   0.3333333  -0.3150122   0.1666667), wk =   0.0740741
        k(   58) = (  -0.5000000  -0.3150122   0.1666667), wk =   0.0370370
        k(   59) = (   0.3333333   0.4725183   0.1666667), wk =   0.0370370
        k(   60) = (  -0.5000000   0.4725183   0.1666667), wk =   0.0185185
        k(   61) = (  -0.5000000   0.0000000   0.3333333), wk =   0.0185185
        k(   62) = (  -0.5000000  -0.1575061   0.3333333), wk =   0.0370370
        k(   63) = (  -0.5000000  -0.3150122   0.3333333), wk =   0.0370370
        k(   64) = (  -0.5000000   0.4725183   0.3333333), wk =   0.0185185

     Initial potential from superposition of free atoms

     starting charge  367.99656, renormalised to  368.00000
     Starting wfcs are  232 randomized atomic wfcs

     Self-consistent Calculation

     iteration #  1     ecut=   120.00 Ry     beta= 0.70
     Davidson diagonalization with overlap
     ethr =  1.00E-02,  avg # of iterations =  5.2

     total energy              =   -6253.84113878 Ry
     Harris-Foulkes estimate   =   -6264.51570943 Ry
[...]
End final coordinates

     Writing output data file Landau_24.save/

     Final scf calculation at the relaxed structure.
     The G-vectors are recalculated for the final unit cell
     Results may differ from those at the preceding step.

     bravais-lattice index     =            0
     lattice parameter (alat)  =      13.8397  a.u.
     unit-cell volume          =    2840.4232 (a.u.)^3
     number of atoms/cell      =           32
     number of atomic types    =            2
     number of electrons       =       368.00
     number of Kohn-Sham states=          221
     kinetic-energy cutoff     =     120.0000  Ry
     charge density cutoff     =     480.0000  Ry
     convergence threshold     =      1.0E-10
     mixing beta               =       0.7000
     number of iterations used =            8  plain     mixing
     Exchange-correlation      = SLA PW NOGX NOGC ( 1  4  0  0 0 0)

     celldm(1)=  13.839685  celldm(2)=   0.000000  celldm(3)=   0.000000
     celldm(4)=   0.000000  celldm(5)=   0.000000  celldm(6)=   0.000000

     crystal axes: (cart. coord. in units of alat)
               a(1) = (   1.016271   0.000000   0.000000 )
               a(2) = (   0.000000   1.038361   0.000000 )
               a(3) = (   0.000000   0.000000   1.015423 )

     reciprocal axes: (cart. coord. in units 2 pi/alat)
               b(1) = (  0.983990  0.000000  0.000000 )
               b(2) = (  0.000000  0.963057  0.000000 )
               b(3) = (  0.000000  0.000000  0.984812 )

     PseudoPot. # 1 for W  read from file:
     /cluster/scratch/mnoe/QE/pps/W_ONCV_LDA-4.0.upf
     MD5 check sum: ba0307d5d4cd419d6f1d13dc49d7c13a
     Pseudo is Norm-conserving + core correction, Zval = 28.0
     Generated using ONCVPSP code by D. R. Hamann
     Using radial grid of 1380 points,  8 beta functions with:
                l(1) =   0
                l(2) =   0
                l(3) =   1
                l(4) =   1
                l(5) =   2
                l(6) =   2
                l(7) =   3
                l(8) =   3

     PseudoPot. # 2 for O  read from file:
     /cluster/scratch/mnoe/QE/pps/O_ONCV_LDA-3.0.upf
     MD5 check sum: b55cdb4f45ae2203d24ad12cf8d61a31
     Pseudo is Norm-conserving + core correction, Zval =  6.0
     Generated using ONCVPSP code by D. R. Hamann
     Using radial grid of  926 points,  5 beta functions with:
                l(1) =   0
                l(2) =   0
                l(3) =   1
                l(4) =   1
                l(5) =   2

     atomic species   valence    mass     pseudopotential
        W             28.00   183.84000     W ( 1.00)
        O              6.00    15.99940     O ( 1.00)

      8 Sym. Ops., with inversion, found ( 6 have fractional translation)

   Cartesian axes

     site n.     atom                  positions (alat units)
         1           W   tau(   1) = (   0.2427870   0.3011354   0.0106416  )
         2           W   tau(   2) = (   0.7734836   0.7372253   1.0047810  )
         3           W   tau(   3) = (   0.2653483   0.2180449   0.5183529  )
         4           W   tau(   4) = (   0.7509223   0.8203157   0.4970697  )
         5           W   tau(   5) = (   0.7734836   0.3011354   0.4970697  )
         6           W   tau(   6) = (   0.2427870   0.7372253   0.5183529  )
         7           W   tau(   7) = (   0.7509223   0.2180449   1.0047810  )
         8           W   tau(   8) = (   0.2653483   0.8203157   0.0106416  )
         9           O   tau(   9) = (   0.2332646   0.0246532   0.0033103  )
        10           O   tau(  10) = (   0.7830060   1.0137075   1.0121123  )
        11           O   tau(  11) = (   0.2748707   0.4945271   0.5110216  )
        12           O   tau(  12) = (   0.7413999   0.5438335   0.5044010  )
        13           O   tau(  13) = (   0.7830060   0.0246532   0.5044010  )
        14           O   tau(  14) = (   0.2332646   1.0137075   0.5110216  )
        15           O   tau(  15) = (   0.7413999   0.4945271   1.0121123  )
        16           O   tau(  16) = (   0.2748707   0.5438335   0.0033103  )
        17           O   tau(  17) = (   0.5112146   0.2377742   0.4992500  )
        18           O   tau(  18) = (   0.5050560   0.8005864   0.5161726  )
        19           O   tau(  19) = (   1.0131913   0.2814061   1.0069613  )
        20           O   tau(  20) = (   0.0030794   0.7569545   0.0084613  )
        21           O   tau(  21) = (   0.5050560   0.2377742   0.0084613  )
        22           O   tau(  22) = (   0.5112146   0.8005864   1.0069613  )
        23           O   tau(  23) = (   0.0030794   0.2814061   0.5161726  )
        24           O   tau(  24) = (   1.0131913   0.7569545   0.4992500  )
        25           O   tau(  25) = (   0.7537347   0.2548241   0.7568960  )
        26           O   tau(  26) = (   0.2625360   0.7835366   0.2585266  )
        27           O   tau(  27) = (   0.7706713   0.2643562   0.2491847  )
        28           O   tau(  28) = (   0.2455993   0.7740044   0.7662378  )
        29           O   tau(  29) = (   0.2625360   0.2548241   0.7662378  )
        30           O   tau(  30) = (   0.7537347   0.7835366   0.2491847  )
        31           O   tau(  31) = (   0.2455993   0.2643562   0.2585266  )
        32           O   tau(  32) = (   0.7706713   0.7740044   0.7568960  )

     number of k points=    64  gaussian smearing, width (Ry)=  0.0007
                       cart. coord. in units 2pi/alat
        k(    1) = (   0.0000000   0.0000000   0.0000000), wk =   0.0092593
        k(    2) = (   0.0000000   0.0000000   0.1641353), wk =   0.0185185
        k(    3) = (   0.0000000   0.0000000   0.3282706), wk =   0.0185185
        k(    4) = (   0.0000000   0.0000000  -0.4924058), wk =   0.0092593
        k(    5) = (   0.0000000   0.1605094   0.0000000), wk =   0.0185185
        k(    6) = (   0.0000000   0.1605094   0.1641353), wk =   0.0370370
        k(    7) = (   0.0000000   0.1605094   0.3282706), wk =   0.0370370
        k(    8) = (   0.0000000   0.1605094  -0.4924058), wk =   0.0185185
        k(    9) = (   0.0000000   0.3210188   0.0000000), wk =   0.0185185
        k(   10) = (   0.0000000   0.3210188   0.1641353), wk =   0.0370370
        k(   11) = (   0.0000000   0.3210188   0.3282706), wk =   0.0370370
        k(   12) = (   0.0000000   0.3210188  -0.4924058), wk =   0.0185185
        k(   13) = (   0.0000000  -0.4815283   0.0000000), wk =   0.0092593
        k(   14) = (   0.0000000  -0.4815283   0.1641353), wk =   0.0185185
        k(   15) = (   0.0000000  -0.4815283   0.3282706), wk =   0.0185185
        k(   16) = (   0.0000000  -0.4815283  -0.4924058), wk =   0.0092593
        k(   17) = (   0.1639983   0.0000000   0.1641353), wk =   0.0370370
        k(   18) = (   0.1639983   0.0000000   0.3282706), wk =   0.0370370
        k(   19) = (   0.1639983   0.0000000  -0.4924058), wk =   0.0185185
        k(   20) = (   0.1639983   0.1605094   0.1641353), wk =   0.0740741
        k(   21) = (   0.1639983   0.1605094   0.3282706), wk =   0.0740741
        k(   22) = (   0.1639983   0.1605094  -0.4924058), wk =   0.0370370
        k(   23) = (   0.1639983   0.3210188   0.1641353), wk =   0.0740741
        k(   24) = (   0.1639983   0.3210188   0.3282706), wk =   0.0740741
        k(   25) = (   0.1639983   0.3210188  -0.4924058), wk =   0.0370370
        k(   26) = (   0.1639983  -0.4815283   0.1641353), wk =   0.0370370
        k(   27) = (   0.1639983  -0.4815283   0.3282706), wk =   0.0370370
        k(   28) = (   0.1639983  -0.4815283  -0.4924058), wk =   0.0185185
        k(   29) = (   0.3279966   0.0000000   0.3282706), wk =   0.0370370
        k(   30) = (   0.3279966   0.0000000  -0.4924058), wk =   0.0185185
        k(   31) = (   0.3279966   0.1605094   0.3282706), wk =   0.0740741
        k(   32) = (   0.3279966   0.1605094  -0.4924058), wk =   0.0370370
        k(   33) = (   0.3279966   0.3210188   0.3282706), wk =   0.0740741
        k(   34) = (   0.3279966   0.3210188  -0.4924058), wk =   0.0370370
        k(   35) = (   0.3279966  -0.4815283   0.3282706), wk =   0.0370370
        k(   36) = (   0.3279966  -0.4815283  -0.4924058), wk =   0.0185185
        k(   37) = (  -0.4919949   0.0000000  -0.4924058), wk =   0.0092593
        k(   38) = (  -0.4919949   0.1605094  -0.4924058), wk =   0.0185185
        k(   39) = (  -0.4919949   0.3210188  -0.4924058), wk =   0.0185185
        k(   40) = (  -0.4919949  -0.4815283  -0.4924058), wk =   0.0092593
        k(   41) = (   0.1639983   0.0000000   0.0000000), wk =   0.0185185
        k(   42) = (   0.3279966   0.0000000   0.0000000), wk =   0.0185185
        k(   43) = (  -0.4919949   0.0000000   0.0000000), wk =   0.0092593
        k(   44) = (   0.1639983  -0.1605094   0.0000000), wk =   0.0370370
        k(   45) = (   0.3279966  -0.1605094   0.0000000), wk =   0.0370370
        k(   46) = (  -0.4919949  -0.1605094   0.0000000), wk =   0.0185185
        k(   47) = (   0.1639983  -0.3210188   0.0000000), wk =   0.0370370
        k(   48) = (   0.3279966  -0.3210188   0.0000000), wk =   0.0370370
        k(   49) = (  -0.4919949  -0.3210188   0.0000000), wk =   0.0185185
        k(   50) = (   0.1639983   0.4815283   0.0000000), wk =   0.0185185
        k(   51) = (   0.3279966   0.4815283   0.0000000), wk =   0.0185185
        k(   52) = (  -0.4919949   0.4815283   0.0000000), wk =   0.0092593
        k(   53) = (   0.3279966   0.0000000   0.1641353), wk =   0.0370370
        k(   54) = (  -0.4919949   0.0000000   0.1641353), wk =   0.0185185
        k(   55) = (   0.3279966  -0.1605094   0.1641353), wk =   0.0740741
        k(   56) = (  -0.4919949  -0.1605094   0.1641353), wk =   0.0370370
        k(   57) = (   0.3279966  -0.3210188   0.1641353), wk =   0.0740741
        k(   58) = (  -0.4919949  -0.3210188   0.1641353), wk =   0.0370370
        k(   59) = (   0.3279966   0.4815283   0.1641353), wk =   0.0370370
        k(   60) = (  -0.4919949   0.4815283   0.1641353), wk =   0.0185185
        k(   61) = (  -0.4919949   0.0000000   0.3282706), wk =   0.0185185
        k(   62) = (  -0.4919949  -0.1605094   0.3282706), wk =   0.0370370
        k(   63) = (  -0.4919949  -0.3210188   0.3282706), wk =   0.0370370
        k(   64) = (  -0.4919949   0.4815283   0.3282706), wk =   0.0185185

     Initial potential from superposition of free atoms

     starting charge  367.99656, renormalised to  368.00000
     Starting wfcs are  232 randomized atomic wfcs

     Self-consistent Calculation

[...]

     total energy              =   -6261.04412417 Ry
     Harris-Foulkes estimate   =   -6261.04412417 Ry
     estimated scf accuracy    <          7.3E-10 Ry

     iteration # 15     ecut=   120.00 Ry     beta= 0.70
     Davidson diagonalization with overlap
     ethr =  1.98E-13,  avg # of iterations =  2.0

     End of self-consistent calculation

[...]

          k = 0.3280 0.4815 0.1641 ( 63066 PWs)   bands (ev):

[...]

          k =-0.4920 0.4815 0.3283 ( 63040 PWs)   bands (ev):

   -66.3673 -66.3673 -66.3673 -66.3673 -66.3670 -66.3670 -66.3670 -66.3670
   -30.6990 -30.6990 -30.6987 -30.6987 -30.6958 -30.6958 -30.6953 -30.6953
   -30.6936 -30.6935 -30.6930 -30.6930 -30.6690 -30.6690 -30.6677 -30.6677
   -30.6560 -30.6560 -30.6541 -30.6541 -30.6425 -30.6425 -30.6418 -30.6418
   -20.5387 -20.5387 -20.5387 -20.5387 -20.5381 -20.5381 -20.5380 -20.5380
   -20.5266 -20.5266 -20.5266 -20.5266 -20.5262 -20.5262 -20.5261 -20.5261
   -20.5153 -20.5153 -20.5153 -20.5153 -20.5144 -20.5144 -20.5144 -20.5144
   -20.5041 -20.5041 -20.5041 -20.5040 -20.5038 -20.5038 -20.5037 -20.5037
   -20.4952 -20.4952 -20.4951 -20.4951 -20.4949 -20.4949 -20.4948 -20.4948
   -20.4926 -20.4926 -20.4925 -20.4925 -20.4916 -20.4916 -20.4915 -20.4915
   -20.4840 -20.4840 -20.4839 -20.4839 -20.4833 -20.4833 -20.4833 -20.4833
    -9.3876  -9.3876  -9.3723  -9.3723  -9.0325  -9.0325  -8.9943  -8.9943
    -8.7066  -8.7066  -8.6780  -8.6780  -8.5279  -8.5279  -8.5151  -8.5151
    -8.4717  -8.4717  -8.4654  -8.4654  -8.2874  -8.2874  -8.2855  -8.2855
     2.0115   2.0115   2.0232   2.0232   2.7380   2.7380   2.7610   2.7610
     2.7790   2.7790   2.7991   2.7991   2.9835   2.9835   3.0198   3.0198
     3.1496   3.1497   3.2422   3.2422   3.3605   3.3605   3.3761   3.3761
     3.5893   3.5893   3.7068   3.7068   4.1743   4.1743   4.2019   4.2019
     4.2419   4.2419   4.2665   4.2665   4.3593   4.3593   4.4038   4.4038
     4.5640   4.5640   4.6743   4.6743   4.8404   4.8404   4.8499   4.8499
     6.9064   6.9064   6.9672   6.9672   6.9905   6.9905   7.0318   7.0318
     7.1132   7.1132   7.1985   7.1985   7.2775   7.2775   7.3667   7.3668
     7.3726   7.3726   7.4609   7.4609   7.5267   7.5267   7.5745   7.5745
    11.2546  11.2546  11.2994  11.2994  11.5175  11.5175  11.5978  11.5978
    11.9764  11.9764  12.0935  12.0935  12.1897  12.1897  12.2382  12.2382
    12.3548  12.3548  12.4439  12.4439  12.7377  12.7377  12.7634  12.7634
    16.0644  16.0644  16.1125  16.1125  16.6527  16.6527  16.7722  16.7722
    17.0876  17.0876  17.1040  17.1040  17.3104

     the Fermi energy is     8.7029 ev

!    total energy              =   -6261.04412417 Ry
     Harris-Foulkes estimate   =   -6261.04412417 Ry
     estimated scf accuracy    <          2.5E-11 Ry

     The total energy is the sum of the following terms:

     one-electron contribution =   -4773.15169940 Ry
     hartree contribution      =    2620.85960566 Ry
     xc contribution           =    -965.71227096 Ry
     ewald contribution        =   -3143.03975947 Ry
     smearing contrib. (-TS)   =      -0.00000000 Ry

     convergence has been achieved in  15 iterations

     Forces acting on atoms (cartesian axes, Ry/au):

     atom    1 type  1   force =     0.00009849    0.01082470    0.00568333
     atom    2 type  1   force =    -0.00009849   -0.01082470   -0.00568333
     atom    3 type  1   force =    -0.00009849   -0.01082470    0.00568333
     atom    4 type  1   force =     0.00009849    0.01082470   -0.00568333
     atom    5 type  1   force =    -0.00009849    0.01082470   -0.00568333
     atom    6 type  1   force =     0.00009849   -0.01082470    0.00568333
     atom    7 type  1   force =     0.00009849   -0.01082470   -0.00568333
     atom    8 type  1   force =    -0.00009849    0.01082470    0.00568333
     atom    9 type  2   force =     0.00434665   -0.07135598    0.00166230
     atom   10 type  2   force =    -0.00434665    0.07135598   -0.00166230
     atom   11 type  2   force =    -0.00434665    0.07135598    0.00166230
     atom   12 type  2   force =     0.00434665   -0.07135598   -0.00166230
     atom   13 type  2   force =    -0.00434665   -0.07135598   -0.00166230
     atom   14 type  2   force =     0.00434665    0.07135598    0.00166230
     atom   15 type  2   force =     0.00434665    0.07135598   -0.00166230
     atom   16 type  2   force =    -0.00434665   -0.07135598    0.00166230
     atom   17 type  2   force =     0.00169827   -0.00559176   -0.00057730
     atom   18 type  2   force =    -0.00169827    0.00559176    0.00057730
     atom   19 type  2   force =    -0.00169827    0.00559176   -0.00057730
     atom   20 type  2   force =     0.00169827   -0.00559176    0.00057730
     atom   21 type  2   force =    -0.00169827   -0.00559176    0.00057730
     atom   22 type  2   force =     0.00169827    0.00559176   -0.00057730
     atom   23 type  2   force =     0.00169827    0.00559176    0.00057730
     atom   24 type  2   force =    -0.00169827   -0.00559176   -0.00057730
     atom   25 type  2   force =    -0.00167729    0.00143539    0.00701813
     atom   26 type  2   force =     0.00167729   -0.00143539   -0.00701813
     atom   27 type  2   force =     0.00167729   -0.00143539    0.00701813
     atom   28 type  2   force =    -0.00167729    0.00143539   -0.00701813
     atom   29 type  2   force =     0.00167729    0.00143539   -0.00701813
     atom   30 type  2   force =    -0.00167729   -0.00143539    0.00701813
     atom   31 type  2   force =    -0.00167729   -0.00143539   -0.00701813
     atom   32 type  2   force =     0.00167729    0.00143539    0.00701813

     Total force =     0.000000     Total SCF correction =     0.000000

     Computing stress (Cartesian axis) and pressure

          total   stress  (Ry/bohr**3)                   (kbar)     P=    0.73
   0.00000783   0.00000000   0.00000000          1.15      0.00      0.00
   0.00000000  -0.00000048   0.00000000          0.00     -0.07      0.00
   0.00000000   0.00000000   0.00000744          0.00      0.00      1.09

     Writing output data file Landau_24.save/

     General routines

     Parallel routines

   This run was terminated on:   1:50:24  21Nov2019

   JOB DONE.