     Program PWSCF v.6.2 (svn rev. 14038) starts on 17Sep2019 at 11:58: 9

     K-points division:     npool     =      40
     Reading input from scf.in

     Current dimensions of program PWSCF are:
     Max number of different atomic species (ntypx) = 10
     Max number of k-points (npk) =  40000
     Max angular momentum in pseudopotentials (lmaxx) =  3

     Subspace diagonalization in iterative solution of the eigenvalue problem:
     a serial algorithm will be used

     Found symmetry operation: I + ( -0.5000  0.0000 -0.5000)
     This is a supercell, fractional translations are disabled

     bravais-lattice index     =            0
     lattice parameter (alat)  =      13.8397  a.u.
     unit-cell volume          =    2804.9817 (a.u.)^3
     number of atoms/cell      =           32
     number of atomic types    =            2
     number of electrons       =       368.36
     number of Kohn-Sham states=          221
     kinetic-energy cutoff     =     120.0000  Ry
     charge density cutoff     =     480.0000  Ry
     convergence threshold     =      1.0E-08
     mixing beta               =       0.7000
     number of iterations used =            8  plain     mixing
     Exchange-correlation      = SLA PW NOGX NOGC ( 1  4  0  0 0 0)

     celldm(1)=  13.839685  celldm(2)=   0.000000  celldm(3)=   0.000000
     celldm(4)=   0.000000  celldm(5)=   0.000000  celldm(6)=   0.000000

     crystal axes: (cart. coord. in units of alat)
               a(1) = (   1.000000   0.000000   0.000000 )
               a(2) = (   0.000000   1.058160   0.000000 )
               a(3) = (   0.000000   0.000000   1.000000 )

     reciprocal axes: (cart. coord. in units 2 pi/alat)
               b(1) = (  1.000000  0.000000  0.000000 )
               b(2) = (  0.000000  0.945037  0.000000 )
               b(3) = (  0.000000  0.000000  1.000000 )

     PseudoPot. # 1 for W  read from file:
     /cluster/scratch/mnoe/QE/pps/W_ONCV_LDA-4.0.upf
     MD5 check sum: ba0307d5d4cd419d6f1d13dc49d7c13a
     Pseudo is Norm-conserving + core correction, Zval = 28.0
     Generated using ONCVPSP code by D. R. Hamann
     Using radial grid of 1380 points,  8 beta functions with:
                l(1) =   0
                l(2) =   0
                l(3) =   1
                l(4) =   1
                l(5) =   2
                l(6) =   2
                l(7) =   3
                l(8) =   3

     PseudoPot. # 2 for O  read from file:
     /cluster/scratch/mnoe/QE/pps/O_ONCV_LDA-3.0.upf
     MD5 check sum: ca1549d10c4e927e51167f6fca52ae32
     Pseudo is Norm-conserving + core correction, Zval =  6.0
     Generated using ONCVPSP code by D. R. Hamann
     Using radial grid of  926 points,  5 beta functions with:
                l(1) =   0
                l(2) =   0
                l(3) =   1
                l(4) =   1
                l(5) =   2

     atomic species   valence    mass     pseudopotential
        W             28.00   183.84000     W ( 1.00)
        O              6.00    15.99940     O ( 1.00)

      4 Sym. Ops. (no inversion) found

   Cartesian axes

     site n.     atom                  positions (alat units)
         1           W   tau(   1) = (   0.2500000   0.2982530   0.2500000  )
         2           W   tau(   2) = (   0.7500000   0.7599071   0.2500000  )
         3           W   tau(   3) = (   0.2500000   0.2308271   0.7500000  )
         4           W   tau(   4) = (   0.7500000   0.8273330   0.7500000  )
         5           W   tau(   5) = (   0.7500000   0.2982530   0.7500000  )
         6           W   tau(   6) = (   0.2500000   0.7599071   0.7500000  )
         7           W   tau(   7) = (   0.7500000   0.2308271   0.2500000  )
         8           W   tau(   8) = (   0.2500000   0.8273330   0.2500000  )
         9           O   tau(   9) = (   0.2500000   0.0088039   0.2500000  )
        10           O   tau(  10) = (   0.7500000   1.0493562   0.2500000  )
        11           O   tau(  11) = (   0.2500000   0.5202761   0.7500000  )
        12           O   tau(  12) = (   0.7500000   0.5378839   0.7500000  )
        13           O   tau(  13) = (   0.7500000   0.0088039   0.7500000  )
        14           O   tau(  14) = (   0.2500000   1.0493562   0.7500000  )
        15           O   tau(  15) = (   0.7500000   0.5202761   0.2500000  )
        16           O   tau(  16) = (   0.2500000   0.5378839   0.2500000  )
        17           O   tau(  17) = (   0.5000000   0.2645400   0.6995400  )
        18           O   tau(  18) = (   0.5000000   0.7936200   0.8004600  )
        19           O   tau(  19) = (   0.0000000   0.2645400   1.1995400  )
        20           O   tau(  20) = (   0.0000000   0.7936200   0.3004600  )
        21           O   tau(  21) = (   0.5000000   0.2645400   0.3004600  )
        22           O   tau(  22) = (   0.5000000   0.7936200   1.1995400  )
        23           O   tau(  23) = (   0.0000000   0.2645400   0.8004600  )
        24           O   tau(  24) = (   0.0000000   0.7936200   0.6995400  )
        25           O   tau(  25) = (   0.6995400   0.2645400   1.0000000  )
        26           O   tau(  26) = (   0.3004600   0.7936200   0.5000000  )
        27           O   tau(  27) = (   0.8004600   0.2645400   0.5000000  )
        28           O   tau(  28) = (   0.1995400   0.7936200   1.0000000  )
        29           O   tau(  29) = (   0.3004600   0.2645400   1.0000000  )
        30           O   tau(  30) = (   0.6995400   0.7936200   0.5000000  )
        31           O   tau(  31) = (   0.1995400   0.2645400   0.5000000  )
        32           O   tau(  32) = (   0.8004600   0.7936200   1.0000000  )

     number of k points=    44  gaussian smearing, width (Ry)=  0.0007
                       cart. coord. in units 2pi/alat
        k(    1) = (   0.0000000   0.0000000   0.0000000), wk =   0.0092593
        k(    2) = (   0.0000000   0.0000000   0.1666667), wk =   0.0370370
        k(    3) = (   0.0000000   0.0000000   0.3333333), wk =   0.0370370
        k(    4) = (   0.0000000   0.0000000  -0.5000000), wk =   0.0185185
        k(    5) = (   0.0000000   0.1575061   0.0000000), wk =   0.0185185
        k(    6) = (   0.0000000   0.1575061   0.1666667), wk =   0.0740741
        k(    7) = (   0.0000000   0.1575061   0.3333333), wk =   0.0740741
        k(    8) = (   0.0000000   0.1575061  -0.5000000), wk =   0.0370370
        k(    9) = (   0.0000000   0.3150122   0.0000000), wk =   0.0185185
        k(   10) = (   0.0000000   0.3150122   0.1666667), wk =   0.0740741
        k(   11) = (   0.0000000   0.3150122   0.3333333), wk =   0.0740741
        k(   12) = (   0.0000000   0.3150122  -0.5000000), wk =   0.0370370
        k(   13) = (   0.0000000  -0.4725183   0.0000000), wk =   0.0092593
        k(   14) = (   0.0000000  -0.4725183   0.1666667), wk =   0.0370370
        k(   15) = (   0.0000000  -0.4725183   0.3333333), wk =   0.0370370
        k(   16) = (   0.0000000  -0.4725183  -0.5000000), wk =   0.0185185
        k(   17) = (   0.1666667   0.0000000   0.1666667), wk =   0.0370370
        k(   18) = (   0.1666667   0.0000000   0.3333333), wk =   0.0370370
        k(   19) = (   0.1666667   0.0000000  -0.5000000), wk =   0.0370370
        k(   20) = (   0.1666667   0.1575061   0.1666667), wk =   0.0740741
        k(   21) = (   0.1666667   0.1575061   0.3333333), wk =   0.0740741
        k(   22) = (   0.1666667   0.1575061  -0.5000000), wk =   0.0740741
        k(   23) = (   0.1666667   0.3150122   0.1666667), wk =   0.0740741
        k(   24) = (   0.1666667   0.3150122   0.3333333), wk =   0.0740741
        k(   25) = (   0.1666667   0.3150122  -0.5000000), wk =   0.0740741
        k(   26) = (   0.1666667  -0.4725183   0.1666667), wk =   0.0370370
        k(   27) = (   0.1666667  -0.4725183   0.3333333), wk =   0.0370370
        k(   28) = (   0.1666667  -0.4725183  -0.5000000), wk =   0.0370370
        k(   29) = (   0.3333333   0.0000000   0.3333333), wk =   0.0370370
        k(   30) = (   0.3333333   0.0000000  -0.5000000), wk =   0.0370370
        k(   31) = (   0.3333333   0.1575061   0.3333333), wk =   0.0740741
        k(   32) = (   0.3333333   0.1575061  -0.5000000), wk =   0.0740741
        k(   33) = (   0.3333333   0.3150122   0.3333333), wk =   0.0740741
        k(   34) = (   0.3333333   0.3150122  -0.5000000), wk =   0.0740741
        k(   35) = (   0.3333333  -0.4725183   0.3333333), wk =   0.0370370
        k(   36) = (   0.3333333  -0.4725183  -0.5000000), wk =   0.0370370
        k(   37) = (  -0.5000000   0.0000000  -0.5000000), wk =   0.0092593
        k(   38) = (  -0.5000000   0.1575061  -0.5000000), wk =   0.0185185
        k(   39) = (  -0.5000000   0.3150122  -0.5000000), wk =   0.0185185
        k(   40) = (  -0.5000000  -0.4725183  -0.5000000), wk =   0.0092593
        k(   41) = (   0.3333333   0.0000000   0.1666667), wk =   0.0370370
        k(   42) = (   0.3333333  -0.1575061   0.1666667), wk =   0.0740741
        k(   43) = (   0.3333333  -0.3150122   0.1666667), wk =   0.0740741
        k(   44) = (   0.3333333   0.4725183   0.1666667), wk =   0.0370370

     Initial potential from superposition of free atoms

     starting charge  367.99656, renormalised to  368.36000
     Starting wfc are  232 randomized atomic wfcs

     Self-consistent Calculation

     iteration #  1     ecut=   120.00 Ry     beta= 0.70
     Davidson diagonalization with overlap
     ethr =  1.00E-02,  avg # of iterations =  5.1

     total energy              =   -6253.65935271 Ry
     Harris-Foulkes estimate   =   -6264.39522202 Ry
     estimated scf accuracy    <      13.55163343 Ry

[...]

     total energy              =   -6260.85773860 Ry
     Harris-Foulkes estimate   =   -6260.85773861 Ry
     estimated scf accuracy    <       0.00000001 Ry

     iteration # 15     ecut=   120.00 Ry     beta= 0.70
     Davidson diagonalization with overlap
     ethr =  2.76E-12,  avg # of iterations =  2.0

     End of self-consistent calculation

          k = 0.0000 0.0000 0.0000 ( 62239 PWs)   bands (ev):

   -66.0906 -66.0902 -66.0896 -66.0896 -66.0892 -66.0892 -66.0886 -66.0882
   -30.5151 -30.5118 -30.5118 -30.5086 -30.4554 -30.4528 -30.4528 -30.4502
   -30.4320 -30.4320 -30.4287 -30.4287 -30.4267 -30.4267 -30.4234 -30.4234
   -30.3306 -30.3306 -30.3279 -30.3279 -30.3262 -30.3262 -30.3235 -30.3235
   -20.2436 -20.2435 -20.2435 -20.2435 -20.2434 -20.2434 -20.2434 -20.2433
   -20.2392 -20.2390 -20.2390 -20.2388 -20.2338 -20.2335 -20.2335 -20.2332
   -20.2278 -20.2278 -20.2275 -20.2275 -20.2267 -20.2267 -20.2265 -20.2265
   -20.2253 -20.2253 -20.2252 -20.2252 -20.2244 -20.2244 -20.2241 -20.2241
   -20.2166 -20.2165 -20.2162 -20.2162 -20.2161 -20.2161 -20.2159 -20.2158
   -20.2016 -20.2016 -20.2016 -20.2016 -20.2002 -20.2002 -20.2002 -20.2002
   -20.1949 -20.1949 -20.1948 -20.1948 -20.1936 -20.1936 -20.1935 -20.1935
    -9.9309  -9.6470  -9.4910  -9.4910  -9.2128  -9.2128  -9.0710  -9.0234
    -9.0114  -8.8662  -8.8358  -8.8358  -7.8525  -7.7933  -7.7933  -7.7523
    -7.7523  -7.7416  -7.7263  -7.7263  -7.5960  -7.5960  -7.5749  -7.5749
     1.2316   1.2322   1.3073   1.3073   1.3276   1.3276   1.3904   1.6428
     1.6428   1.6473   1.6762   1.8822   2.4177   2.4916   2.5888   2.5888
     2.7390   2.7390   4.1545   4.1545   4.3771   4.3771   4.8460   4.8460
     4.8828   4.8828   4.9096   4.9096   5.0461   5.0461   5.0737   5.4422
     5.4422   5.5352   5.5352   5.5450   5.5450   5.5879   5.5879   5.8212
     5.8212   5.8981   5.8981   5.9508   5.9670   6.0588   6.0588   6.1417
     6.1417   6.2650   6.2651   6.5891   6.5891   6.8113   6.8113   6.8430
     6.8430   6.8982   7.0330   7.0358   7.1034   7.1034   7.4218   7.4218
     7.4661   7.4661   7.8060   7.8200   8.0861   8.0861   8.1536   8.1536
     9.2934   9.3010  10.0221  10.0221  10.0600  10.0600  12.2825  12.2825
    12.3147  12.3147  12.3525  12.3525  12.5267  12.5267  12.9151  12.9181
    13.2647  13.2647  13.4406  13.4406  13.8066  14.1884  14.1884  14.1929
    14.1929  14.3792  14.3792  14.8865  15.4716  15.4827  15.4922  16.0967
    16.0967  16.8419  17.0806  17.0806  17.4557

[...]

          k =-0.5000 0.0000-0.5000 ( 62308 PWs)   bands (ev):

[...]

          k =-0.5000-0.4725-0.5000 ( 62272 PWs)   bands (ev):

[...]

          k = 0.3333 0.4725 0.1667 ( 62252 PWs)   bands (ev):

   -66.0901 -66.0901 -66.0896 -66.0896 -66.0892 -66.0892 -66.0887 -66.0887
   -30.4851 -30.4851 -30.4835 -30.4835 -30.4825 -30.4825 -30.4809 -30.4808
   -30.4221 -30.4221 -30.4195 -30.4195 -30.4045 -30.4045 -30.4001 -30.4001
   -30.3541 -30.3541 -30.3501 -30.3501 -30.3349 -30.3349 -30.3326 -30.3326
   -20.2435 -20.2435 -20.2435 -20.2435 -20.2434 -20.2434 -20.2434 -20.2434
   -20.2365 -20.2365 -20.2364 -20.2364 -20.2363 -20.2363 -20.2362 -20.2362
   -20.2269 -20.2269 -20.2269 -20.2269 -20.2265 -20.2265 -20.2264 -20.2264
   -20.2254 -20.2254 -20.2253 -20.2252 -20.2250 -20.2250 -20.2249 -20.2249
   -20.2164 -20.2164 -20.2162 -20.2162 -20.2161 -20.2161 -20.2159 -20.2159
   -20.2008 -20.2008 -20.2001 -20.2001 -20.1999 -20.1999 -20.1987 -20.1987
   -20.1965 -20.1965 -20.1954 -20.1954 -20.1950 -20.1950 -20.1943 -20.1943
    -9.5076  -9.5076  -9.2768  -9.2766  -8.9907  -8.9903  -8.8113  -8.8112
    -8.5423  -8.5414  -8.4592  -8.4575  -8.4216  -8.4206  -8.4081  -8.4080
    -8.1419  -8.1413  -8.0404  -8.0399  -7.8218  -7.8214  -7.7465  -7.7462
     1.6061   1.6072   1.6262   1.6276   2.2664   2.2670   2.4495   2.4508
     2.9079   2.9130   3.2332   3.2336   3.2356   3.2374   3.2428   3.2529
     3.2863   3.3198   3.4411   3.4874   3.4962   3.5277   3.6699   3.6813
     3.7709   3.7851   3.9104   3.9790   4.4691   4.5204   4.6325   4.6360
     4.6877   4.7520   4.7583   4.8006   4.9958   5.0155   5.0250   5.0764
     5.1578   5.2123   5.3505   5.4218   5.8043   5.8196   6.2335   6.2340
     6.6347   6.6416   6.7124   6.7267   6.8762   6.8812   7.0381   7.1034
     7.1209   7.1460   7.1829   7.2111   7.2234   7.2246   7.4324   7.4436
     7.4630   7.4736   7.4759   7.5038   7.5041   7.5427   7.7906   7.7938
    10.5418  10.5453  11.4040  11.4212  11.4383  11.4511  11.7829  11.7962
    11.7989  11.8153  11.9106  11.9624  12.4492  12.5034  12.7562  12.7814
    12.9561  12.9859  13.1385  13.2196  13.4386  13.4670  13.4919  13.5463
    15.6730  15.6942  15.8815  15.9006  16.2475  16.2776  16.6463  16.6753
    16.8596  16.8640  17.3993  17.4451  17.8469

     the Fermi energy is     9.6675 ev

!    total energy              =   -6260.85773860 Ry
     Harris-Foulkes estimate   =   -6260.85773860 Ry
     estimated scf accuracy    <          9.9E-10 Ry

     The total energy is the sum of the following terms:

     one-electron contribution =   -4722.60667682 Ry
     hartree contribution      =    2599.09547652 Ry
     xc contribution           =    -966.06536730 Ry
     ewald contribution        =   -3171.28112790 Ry
     smearing contrib. (-TS)   =      -0.00004311 Ry

     convergence has been achieved in  15 iterations

     Writing output data file Landau_0.save

     General routines

     Parallel routines

   This run was terminated on:  12:34:50  17Sep2019

   JOB DONE.