     Program PWSCF v.6.4.1 starts on 16Dec2019 at 23:25:26

     K-points division:     npool     =      40
     Reading input from scf.in

     Current dimensions of program PWSCF are:
     Max number of different atomic species (ntypx) = 10
     Max number of k-points (npk) =  40000
     Max angular momentum in pseudopotentials (lmaxx) =  3

     Subspace diagonalization in iterative solution of the eigenvalue problem:
     a serial algorithm will be used

     Message from routine setup:
     using ibrav=0 with symmetry is DISCOURAGED, use correct ibrav instead

     bravais-lattice index     =            0
     lattice parameter (alat)  =      13.9206  a.u.
     unit-cell volume          =    2826.7150 (a.u.)^3
     number of atoms/cell      =           32
     number of atomic types    =            2
     number of electrons       =       368.80
     number of Kohn-Sham states=          221
     kinetic-energy cutoff     =     120.0000  Ry
     charge density cutoff     =     480.0000  Ry
     convergence threshold     =      1.0E-08
     mixing beta               =       0.7000
     number of iterations used =            8  plain     mixing
     Exchange-correlation      = SLA PW NOGX NOGC ( 1  4  0  0 0 0)

     celldm(1)=  13.920566  celldm(2)=   0.000000  celldm(3)=   0.000000
     celldm(4)=   0.000000  celldm(5)=   0.000000  celldm(6)=   0.000000

     crystal axes: (cart. coord. in units of alat)
               a(1) = (   1.000000   0.000000   0.000000 )
               a(2) = (   0.000000   1.047747   0.000000 )
               a(3) = (   0.000000   0.000000   1.000127 )

     reciprocal axes: (cart. coord. in units 2 pi/alat)
               b(1) = (  1.000000  0.000000  0.000000 )
               b(2) = (  0.000000  0.954429  0.000000 )
               b(3) = (  0.000000  0.000000  0.999873 )

     PseudoPot. # 1 for W  read from file:
     /cluster/scratch/mnoe/QE/pps/W_ONCV_LDA-4.0.upf
     MD5 check sum: ba0307d5d4cd419d6f1d13dc49d7c13a
     Pseudo is Norm-conserving + core correction, Zval = 28.0
     Generated using ONCVPSP code by D. R. Hamann
     Using radial grid of 1380 points,  8 beta functions with:
                l(1) =   0
                l(2) =   0
                l(3) =   1
                l(4) =   1
                l(5) =   2
                l(6) =   2
                l(7) =   3
                l(8) =   3

     PseudoPot. # 2 for O  read from file:
     /cluster/scratch/mnoe/QE/pps/O_ONCV_LDA-3.0.upf
     MD5 check sum: b55cdb4f45ae2203d24ad12cf8d61a31
     Pseudo is Norm-conserving + core correction, Zval =  6.0
     Generated using ONCVPSP code by D. R. Hamann
     Using radial grid of  926 points,  5 beta functions with:
                l(1) =   0
                l(2) =   0
                l(3) =   1
                l(4) =   1
                l(5) =   2

     atomic species   valence    mass     pseudopotential
        W             28.00   183.84000     W ( 1.00)
        O              6.00    15.99940     O ( 1.00)

      8 Sym. Ops., with inversion, found ( 6 have fractional translation)

   Cartesian axes

     site n.     atom                  positions (alat units)
         1           W   tau(   1) = (   0.2472300   0.2974528   0.0026203  )
         2           W   tau(   2) = (   0.7527700   0.7502940   0.9975063  )
         3           W   tau(   3) = (   0.2527700   0.2264206   0.5026836  )
         4           W   tau(   4) = (   0.7472300   0.8213262   0.4974430  )
         5           W   tau(   5) = (   0.7527700   0.2974528   0.4974430  )
         6           W   tau(   6) = (   0.2472300   0.7502940   0.5026836  )
         7           W   tau(   7) = (   0.7472300   0.2264206   0.9975063  )
         8           W   tau(   8) = (   0.2527700   0.8213262   0.0026203  )
         9           O   tau(   9) = (   0.2448800   0.0127569   0.0008201  )
        10           O   tau(  10) = (   0.7551200   1.0349899   0.9993066  )
        11           O   tau(  11) = (   0.2551200   0.5111164   0.5008834  )
        12           O   tau(  12) = (   0.7448800   0.5366303   0.4992432  )
        13           O   tau(  13) = (   0.7551200   0.0127569   0.4992432  )
        14           O   tau(  14) = (   0.2448800   1.0349899   0.5008834  )
        15           O   tau(  15) = (   0.7448800   0.5111164   0.9993066  )
        16           O   tau(  16) = (   0.2551200   0.5366303   0.0008201  )
        17           O   tau(  17) = (   0.5007600   0.2564360   0.4601301  )
        18           O   tau(  18) = (   0.4992400   0.7913108   0.5399965  )
        19           O   tau(  19) = (   0.9992399   0.2674374   0.9601934  )
        20           O   tau(  20) = (   0.0007601   0.7803095   0.0399333  )
        21           O   tau(  21) = (   0.4992400   0.2564360   0.0399333  )
        22           O   tau(  22) = (   0.5007600   0.7913108   0.9601934  )
        23           O   tau(  23) = (   0.0007601   0.2674374   0.5399965  )
        24           O   tau(  24) = (   0.9992399   0.7803095   0.4601301  )
        25           O   tau(  25) = (   0.7100719   0.2607318   0.7489448  )
        26           O   tau(  26) = (   0.2899282   0.7870150   0.2511818  )
        27           O   tau(  27) = (   0.7899282   0.2631416   0.2488815  )
        28           O   tau(  28) = (   0.2100718   0.7846052   0.7512451  )
        29           O   tau(  29) = (   0.2899282   0.2607318   0.7512451  )
        30           O   tau(  30) = (   0.7100719   0.7870150   0.2488815  )
        31           O   tau(  31) = (   0.2100718   0.2631416   0.2511818  )
        32           O   tau(  32) = (   0.7899282   0.7846052   0.7489448  )

     number of k points=    64  gaussian smearing, width (Ry)=  0.0007
                       cart. coord. in units 2pi/alat
        k(    1) = (   0.0000000   0.0000000   0.0000000), wk =   0.0092593
        k(    2) = (   0.0000000   0.0000000   0.1666456), wk =   0.0185185
        k(    3) = (   0.0000000   0.0000000   0.3332911), wk =   0.0185185
        k(    4) = (   0.0000000   0.0000000  -0.4999367), wk =   0.0092593
        k(    5) = (   0.0000000   0.1590715   0.0000000), wk =   0.0185185
        k(    6) = (   0.0000000   0.1590715   0.1666456), wk =   0.0370370
        k(    7) = (   0.0000000   0.1590715   0.3332911), wk =   0.0370370
        k(    8) = (   0.0000000   0.1590715  -0.4999367), wk =   0.0185185
        k(    9) = (   0.0000000   0.3181430   0.0000000), wk =   0.0185185
        k(   10) = (   0.0000000   0.3181430   0.1666456), wk =   0.0370370
        k(   11) = (   0.0000000   0.3181430   0.3332911), wk =   0.0370370
        k(   12) = (   0.0000000   0.3181430  -0.4999367), wk =   0.0185185
        k(   13) = (   0.0000000  -0.4772145   0.0000000), wk =   0.0092593
        k(   14) = (   0.0000000  -0.4772145   0.1666456), wk =   0.0185185
        k(   15) = (   0.0000000  -0.4772145   0.3332911), wk =   0.0185185
        k(   16) = (   0.0000000  -0.4772145  -0.4999367), wk =   0.0092593
        k(   17) = (   0.1666667   0.0000000   0.0000000), wk =   0.0185185
        k(   18) = (   0.1666667   0.0000000   0.1666456), wk =   0.0370370
        k(   19) = (   0.1666667   0.0000000   0.3332911), wk =   0.0370370
        k(   20) = (   0.1666667   0.0000000  -0.4999367), wk =   0.0185185
        k(   21) = (   0.1666667   0.1590715   0.0000000), wk =   0.0370370
        k(   22) = (   0.1666667   0.1590715   0.1666456), wk =   0.0740741
        k(   23) = (   0.1666667   0.1590715   0.3332911), wk =   0.0740741
        k(   24) = (   0.1666667   0.1590715  -0.4999367), wk =   0.0370370
        k(   25) = (   0.1666667   0.3181430   0.0000000), wk =   0.0370370
        k(   26) = (   0.1666667   0.3181430   0.1666456), wk =   0.0740741
        k(   27) = (   0.1666667   0.3181430   0.3332911), wk =   0.0740741
        k(   28) = (   0.1666667   0.3181430  -0.4999367), wk =   0.0370370
        k(   29) = (   0.1666667  -0.4772145   0.0000000), wk =   0.0185185
        k(   30) = (   0.1666667  -0.4772145   0.1666456), wk =   0.0370370
        k(   31) = (   0.1666667  -0.4772145   0.3332911), wk =   0.0370370
        k(   32) = (   0.1666667  -0.4772145  -0.4999367), wk =   0.0185185
        k(   33) = (   0.3333333   0.0000000   0.0000000), wk =   0.0185185
        k(   34) = (   0.3333333   0.0000000   0.1666456), wk =   0.0370370
        k(   35) = (   0.3333333   0.0000000   0.3332911), wk =   0.0370370
        k(   36) = (   0.3333333   0.0000000  -0.4999367), wk =   0.0185185
        k(   37) = (   0.3333333   0.1590715   0.0000000), wk =   0.0370370
        k(   38) = (   0.3333333   0.1590715   0.1666456), wk =   0.0740741
        k(   39) = (   0.3333333   0.1590715   0.3332911), wk =   0.0740741
        k(   40) = (   0.3333333   0.1590715  -0.4999367), wk =   0.0370370
        k(   41) = (   0.3333333   0.3181430   0.0000000), wk =   0.0370370
        k(   42) = (   0.3333333   0.3181430   0.1666456), wk =   0.0740741
        k(   43) = (   0.3333333   0.3181430   0.3332911), wk =   0.0740741
        k(   44) = (   0.3333333   0.3181430  -0.4999367), wk =   0.0370370
        k(   45) = (   0.3333333  -0.4772145   0.0000000), wk =   0.0185185
        k(   46) = (   0.3333333  -0.4772145   0.1666456), wk =   0.0370370
        k(   47) = (   0.3333333  -0.4772145   0.3332911), wk =   0.0370370
        k(   48) = (   0.3333333  -0.4772145  -0.4999367), wk =   0.0185185
        k(   49) = (  -0.5000000   0.0000000   0.0000000), wk =   0.0092593
        k(   50) = (  -0.5000000   0.0000000   0.1666456), wk =   0.0185185
        k(   51) = (  -0.5000000   0.0000000   0.3332911), wk =   0.0185185
        k(   52) = (  -0.5000000   0.0000000  -0.4999367), wk =   0.0092593
        k(   53) = (  -0.5000000   0.1590715   0.0000000), wk =   0.0185185
        k(   54) = (  -0.5000000   0.1590715   0.1666456), wk =   0.0370370
        k(   55) = (  -0.5000000   0.1590715   0.3332911), wk =   0.0370370
        k(   56) = (  -0.5000000   0.1590715  -0.4999367), wk =   0.0185185
        k(   57) = (  -0.5000000   0.3181430   0.0000000), wk =   0.0185185
        k(   58) = (  -0.5000000   0.3181430   0.1666456), wk =   0.0370370
        k(   59) = (  -0.5000000   0.3181430   0.3332911), wk =   0.0370370
        k(   60) = (  -0.5000000   0.3181430  -0.4999367), wk =   0.0185185
        k(   61) = (  -0.5000000  -0.4772145   0.0000000), wk =   0.0092593
        k(   62) = (  -0.5000000  -0.4772145   0.1666456), wk =   0.0185185
        k(   63) = (  -0.5000000  -0.4772145   0.3332911), wk =   0.0185185
        k(   64) = (  -0.5000000  -0.4772145  -0.4999367), wk =   0.0092593

     Initial potential from superposition of free atoms

     starting charge  367.99656, renormalised to  368.80000
     Starting wfcs are  232 randomized atomic wfcs

     Self-consistent Calculation

     iteration #  1     ecut=   120.00 Ry     beta= 0.70
     Davidson diagonalization with overlap
     ethr =  1.00E-02,  avg # of iterations =  5.1

     total energy              =   -6253.23927860 Ry
     Harris-Foulkes estimate   =   -6264.18319419 Ry
     estimated scf accuracy    <      13.76234412 Ry

[...]

     total energy              =   -6260.54560752 Ry
     Harris-Foulkes estimate   =   -6260.54560757 Ry
     estimated scf accuracy    <       0.00000009 Ry

     iteration # 13     ecut=   120.00 Ry     beta= 0.70
     Davidson diagonalization with overlap
     ethr =  2.38E-11,  avg # of iterations =  2.1

     End of self-consistent calculation

          k = 0.0000 0.0000 0.0000 ( 62815 PWs)   bands (ev):

   -66.1206 -66.1202 -66.1198 -66.1198 -66.1193 -66.1193 -66.1189 -66.1185
   -30.5660 -30.5629 -30.5628 -30.5599 -30.5033 -30.5006 -30.5003 -30.4977
   -30.4585 -30.4582 -30.4548 -30.4538 -30.4531 -30.4531 -30.4498 -30.4491
   -30.3627 -30.3625 -30.3598 -30.3595 -30.3585 -30.3582 -30.3555 -30.3551
   -20.2738 -20.2737 -20.2736 -20.2735 -20.2682 -20.2680 -20.2679 -20.2677
   -20.2666 -20.2665 -20.2665 -20.2665 -20.2664 -20.2664 -20.2664 -20.2663
   -20.2615 -20.2613 -20.2611 -20.2610 -20.2601 -20.2601 -20.2600 -20.2599
   -20.2584 -20.2583 -20.2582 -20.2582 -20.2572 -20.2571 -20.2570 -20.2568
   -20.2480 -20.2478 -20.2477 -20.2476 -20.2476 -20.2475 -20.2474 -20.2473
   -20.2139 -20.2139 -20.2137 -20.2136 -20.2124 -20.2123 -20.2121 -20.2121
   -20.2085 -20.2085 -20.2083 -20.2083 -20.2070 -20.2069 -20.2067 -20.2067
   -10.0220  -9.6978  -9.6175  -9.6174  -9.2998  -9.2985  -9.2176  -9.0711
    -9.0550  -8.9631  -8.9389  -8.9385  -7.9472  -7.8862  -7.8851  -7.8331
    -7.8152  -7.8143  -7.7883  -7.7879  -7.7051  -7.7046  -7.6820  -7.6819
     1.1423   1.1426   1.2224   1.2238   1.2505   1.2520   1.2551   1.4853
     1.4855   1.4877   1.5374   1.7087   2.4034   2.4647   2.4663   2.4915
     2.5840   2.5861   4.0770   4.0805   4.2915   4.2976   4.7302   4.7305
     4.7319   4.7398   4.7671   4.7685   4.8806   4.8816   4.9823   5.3715
     5.3754   5.4551   5.4738   5.4817   5.4991   5.5023   5.5041   5.7320
     5.7372   5.8105   5.8106   5.8671   5.8896   6.0345   6.0362   6.0807
     6.0826   6.2441   6.2499   6.4590   6.4596   6.6676   6.6729   6.7043
     6.7074   6.8016   6.9862   6.9925   7.0311   7.0326   7.2662   7.2696
     7.2970   7.2999   7.9639   7.9736   8.0391   8.0458   8.0892   8.0960
     9.1798   9.1817   9.8719   9.8733   9.8919   9.8927  12.3046  12.3078
    12.3380  12.3472  12.3915  12.3941  12.4567  12.4613  13.0704  13.1140
    13.2391  13.2753  13.3486  13.3553  13.6784  14.0802  14.1530  14.1533
    14.1707  14.2335  14.3026  14.6867  15.1514  15.1605  15.4808  15.8635
    15.8675  16.6788  16.9838  16.9888  17.2438

[...]

          k = 0.3333-0.4772-0.4999 ( 62716 PWs)   bands (ev):

[...]

          k =-0.5000 0.0000 0.0000 ( 62764 PWs)   bands (ev):

[...]

          k =-0.5000-0.4772-0.4999 ( 62680 PWs)   bands (ev):

   -66.1196 -66.1196 -66.1195 -66.1195 -66.1195 -66.1195 -66.1195 -66.1195
   -30.5326 -30.5326 -30.5326 -30.5326 -30.5324 -30.5324 -30.5324 -30.5324
   -30.4082 -30.4082 -30.4082 -30.4082 -30.4071 -30.4071 -30.4071 -30.4071
   -30.4056 -30.4056 -30.4056 -30.4056 -30.4045 -30.4045 -30.4045 -30.4045
   -20.2710 -20.2710 -20.2710 -20.2710 -20.2710 -20.2710 -20.2709 -20.2709
   -20.2665 -20.2665 -20.2665 -20.2665 -20.2665 -20.2665 -20.2665 -20.2665
   -20.2595 -20.2595 -20.2595 -20.2595 -20.2593 -20.2593 -20.2593 -20.2593
   -20.2590 -20.2590 -20.2590 -20.2590 -20.2588 -20.2588 -20.2588 -20.2588
   -20.2475 -20.2475 -20.2475 -20.2475 -20.2475 -20.2475 -20.2475 -20.2475
   -20.2107 -20.2106 -20.2106 -20.2106 -20.2106 -20.2106 -20.2106 -20.2106
   -20.2103 -20.2102 -20.2102 -20.2102 -20.2102 -20.2102 -20.2102 -20.2102
    -9.0179  -9.0179  -9.0179  -9.0179  -9.0127  -9.0127  -9.0127  -9.0127
    -8.4704  -8.4704  -8.4704  -8.4703  -8.4619  -8.4619  -8.4619  -8.4619
    -8.4211  -8.4210  -8.4210  -8.4210  -8.4167  -8.4167  -8.4167  -8.4167
     2.9234   2.9234   2.9234   2.9234   2.9414   2.9414   2.9414   2.9414
     3.0392   3.0392   3.0392   3.0392   3.0616   3.0616   3.0616   3.0616
     3.3441   3.3441   3.3442   3.3442   3.3839   3.3839   3.3839   3.3839
     4.0965   4.0965   4.0965   4.0965   4.1075   4.1075   4.1075   4.1075
     4.2931   4.2931   4.2931   4.2931   4.2987   4.2987   4.2987   4.2988
     4.3868   4.3868   4.3868   4.3868   4.3985   4.3985   4.3985   4.3985
     7.1051   7.1051   7.1052   7.1052   7.1597   7.1597   7.1597   7.1597
     7.2493   7.2493   7.2493   7.2493   7.2570   7.2570   7.2571   7.2571
     7.5488   7.5488   7.5488   7.5488   7.5615   7.5615   7.5615   7.5615
    11.7975  11.7975  11.7975  11.7975  11.8030  11.8030  11.8030  11.8030
    12.2163  12.2163  12.2163  12.2163  12.2677  12.2677  12.2677  12.2677
    12.4626  12.4626  12.4626  12.4626  12.4868  12.4868  12.4868  12.4868
    16.9698  16.9698  16.9698  16.9698  17.0008  17.0008  17.0008  17.0009
    17.3550  17.3550  17.3551  17.3552  17.3730

     the Fermi energy is     9.8089 ev

!    total energy              =   -6260.54560754 Ry
     Harris-Foulkes estimate   =   -6260.54560754 Ry
     estimated scf accuracy    <          2.3E-09 Ry

     The total energy is the sum of the following terms:

     one-electron contribution =   -4755.27252727 Ry
     hartree contribution      =    2615.07499194 Ry
     xc contribution           =    -966.56414291 Ry
     ewald contribution        =   -3153.78389103 Ry
     smearing contrib. (-TS)   =      -0.00003827 Ry

     convergence has been achieved in  13 iterations

     Writing output data file chempot_8.save/

     General routines

     Parallel routines

   This run was terminated on:  23:59: 6  16Dec2019

   JOB DONE.