     Program PWSCF v.6.2 (svn rev. 14038) starts on 23Mar2020 at  1: 0:30

     K-points division:     npool     =      40
     Reading input from rscf.in

     Current dimensions of program PWSCF are:
     Max number of different atomic species (ntypx) = 10
     Max number of k-points (npk) =  40000
     Max angular momentum in pseudopotentials (lmaxx) =  3

     Subspace diagonalization in iterative solution of the eigenvalue problem:
     a serial algorithm will be used

     bravais-lattice index     =            0
     lattice parameter (alat)  =      13.8397  a.u.
     unit-cell volume          =    2804.9816 (a.u.)^3
     number of atoms/cell      =           32
     number of atomic types    =            2
     number of electrons       =       368.00
     number of Kohn-Sham states=          221
     kinetic-energy cutoff     =     120.0000  Ry
     charge density cutoff     =     480.0000  Ry
     convergence threshold     =      1.0E-08
     mixing beta               =       0.7000
     number of iterations used =            8  plain     mixing
     Exchange-correlation      = SLA PW NOGX NOGC ( 1  4  0  0 0 0)
     nstep                     =           50

     celldm(1)=  13.839685  celldm(2)=   0.000000  celldm(3)=   0.000000
     celldm(4)=   0.000000  celldm(5)=   0.000000  celldm(6)=   0.000000

     crystal axes: (cart. coord. in units of alat)
               a(1) = (   1.000000   0.000000   0.000000 )
               a(2) = (   0.000000   1.058160   0.000000 )
               a(3) = (   0.000000   0.000000   1.000000 )

     reciprocal axes: (cart. coord. in units 2 pi/alat)
               b(1) = (  1.000000  0.000000  0.000000 )
               b(2) = (  0.000000  0.945037  0.000000 )
               b(3) = (  0.000000  0.000000  1.000000 )

     PseudoPot. # 1 for W  read from file:
     /cluster/scratch/mnoe/QE/pps/W_ONCV_LDA-4.0.upf
     MD5 check sum: ba0307d5d4cd419d6f1d13dc49d7c13a
     Pseudo is Norm-conserving + core correction, Zval = 28.0
     Generated using ONCVPSP code by D. R. Hamann
     Using radial grid of 1380 points,  8 beta functions with:
                l(1) =   0
                l(2) =   0
                l(3) =   1
                l(4) =   1
                l(5) =   2
                l(6) =   2
                l(7) =   3
                l(8) =   3

     PseudoPot. # 2 for O  read from file:
     /cluster/scratch/mnoe/QE/pps/O_ONCV_LDA-3.0.upf
     MD5 check sum: a1bd6164e7280c17a38c229939bfbd54
     Pseudo is Norm-conserving + core correction, Zval =  6.0
     Generated using ONCVPSP code by D. R. Hamann
     Using radial grid of  926 points,  5 beta functions with:
                l(1) =   0
                l(2) =   0
                l(3) =   1
                l(4) =   1
                l(5) =   2

     atomic species   valence    mass     pseudopotential
        W             28.00   183.84000     W ( 1.00)
        O              6.00    15.99940     O ( 1.00)

      4 Sym. Ops. (no inversion) found ( 3 have fractional translation)

   Cartesian axes

     site n.     atom                  positions (alat units)
         1           W   tau(   1) = (   0.2485660   0.2978380   0.0003345  )
         2           W   tau(   2) = (   0.7504160   0.7603221  -0.0014125  )
         3           W   tau(   3) = (   0.2514340   0.2312421   0.5003345  )
         4           W   tau(   4) = (   0.7495840   0.8269180   0.4985875  )
         5           W   tau(   5) = (   0.7514340   0.2978380   0.4996655  )
         6           W   tau(   6) = (   0.2495840   0.7603221   0.5014125  )
         7           W   tau(   7) = (   0.7485660   0.2312421  -0.0003345  )
         8           W   tau(   8) = (   0.2504160   0.8269180   0.0014125  )
         9           O   tau(   9) = (   0.2481353   0.0086908  -0.0007228  )
        10           O   tau(  10) = (   0.7515483  -0.0086908  -0.0012658  )
        11           O   tau(  11) = (   0.2518647   0.5203892   0.4992772  )
        12           O   tau(  12) = (   0.7484517   0.5377708   0.4987342  )
        13           O   tau(  13) = (   0.7518647   0.0086908   0.5007228  )
        14           O   tau(  14) = (   0.2484517  -0.0086908   0.5012658  )
        15           O   tau(  15) = (   0.7481353   0.5203892   0.0007228  )
        16           O   tau(  16) = (   0.2515483   0.5377708   0.0012658  )
        17           O   tau(  17) = (   0.5004765   0.2624522   0.4504991  )
        18           O   tau(  18) = (   0.4999705   0.7952368   0.5495009  )
        19           O   tau(  19) = (  -0.0004765   0.2666279   0.9504991  )
        20           O   tau(  20) = (   0.0000295   0.7920033   0.0495009  )
        21           O   tau(  21) = (   0.4995235   0.2624522   0.0495009  )
        22           O   tau(  22) = (   0.5000295   0.7952368   0.9504991  )
        23           O   tau(  23) = (   0.0004765   0.2666279   0.5495009  )
        24           O   tau(  24) = (  -0.0000295   0.7920033   0.4504991  )
        25           O   tau(  25) = (   0.7004991   0.2652151   0.7497639  )
        26           O   tau(  26) = (   0.2995009   0.7951036   0.2505309  )
        27           O   tau(  27) = (   0.7995009   0.2638649   0.2497639  )
        28           O   tau(  28) = (   0.2004991   0.7921365   0.7505309  )
        29           O   tau(  29) = (   0.2995009   0.2652151   0.7502361  )
        30           O   tau(  30) = (   0.7004991   0.7951036   0.2494691  )
        31           O   tau(  31) = (   0.2004991   0.2638649   0.2502361  )
        32           O   tau(  32) = (   0.7995009   0.7921365   0.7494691  )

     number of k points=    64  gaussian smearing, width (Ry)=  0.0007
                       cart. coord. in units 2pi/alat
        k(    1) = (   0.0000000   0.0000000   0.0000000), wk =   0.0092593
        k(    2) = (   0.0000000   0.0000000   0.1666667), wk =   0.0185185
        k(    3) = (   0.0000000   0.0000000   0.3333333), wk =   0.0185185
        k(    4) = (   0.0000000   0.0000000  -0.5000000), wk =   0.0092593
        k(    5) = (   0.0000000   0.1575061   0.0000000), wk =   0.0185185
        k(    6) = (   0.0000000   0.1575061   0.1666667), wk =   0.0370370
        k(    7) = (   0.0000000   0.1575061   0.3333333), wk =   0.0370370
        k(    8) = (   0.0000000   0.1575061  -0.5000000), wk =   0.0185185
        k(    9) = (   0.0000000   0.3150122   0.0000000), wk =   0.0185185
        k(   10) = (   0.0000000   0.3150122   0.1666667), wk =   0.0370370
        k(   11) = (   0.0000000   0.3150122   0.3333333), wk =   0.0370370
        k(   12) = (   0.0000000   0.3150122  -0.5000000), wk =   0.0185185
        k(   13) = (   0.0000000  -0.4725183   0.0000000), wk =   0.0092593
        k(   14) = (   0.0000000  -0.4725183   0.1666667), wk =   0.0185185
        k(   15) = (   0.0000000  -0.4725183   0.3333333), wk =   0.0185185
        k(   16) = (   0.0000000  -0.4725183  -0.5000000), wk =   0.0092593
        k(   17) = (   0.1666667   0.0000000   0.1666667), wk =   0.0370370
        k(   18) = (   0.1666667   0.0000000   0.3333333), wk =   0.0370370
        k(   19) = (   0.1666667   0.0000000  -0.5000000), wk =   0.0185185
        k(   20) = (   0.1666667   0.1575061   0.1666667), wk =   0.0740741
        k(   21) = (   0.1666667   0.1575061   0.3333333), wk =   0.0740741
        k(   22) = (   0.1666667   0.1575061  -0.5000000), wk =   0.0370370
        k(   23) = (   0.1666667   0.3150122   0.1666667), wk =   0.0740741
        k(   24) = (   0.1666667   0.3150122   0.3333333), wk =   0.0740741
        k(   25) = (   0.1666667   0.3150122  -0.5000000), wk =   0.0370370
        k(   26) = (   0.1666667  -0.4725183   0.1666667), wk =   0.0370370
        k(   27) = (   0.1666667  -0.4725183   0.3333333), wk =   0.0370370
        k(   28) = (   0.1666667  -0.4725183  -0.5000000), wk =   0.0185185
        k(   29) = (   0.3333333   0.0000000   0.3333333), wk =   0.0370370
        k(   30) = (   0.3333333   0.0000000  -0.5000000), wk =   0.0185185
        k(   31) = (   0.3333333   0.1575061   0.3333333), wk =   0.0740741
        k(   32) = (   0.3333333   0.1575061  -0.5000000), wk =   0.0370370
        k(   33) = (   0.3333333   0.3150122   0.3333333), wk =   0.0740741
        k(   34) = (   0.3333333   0.3150122  -0.5000000), wk =   0.0370370
        k(   35) = (   0.3333333  -0.4725183   0.3333333), wk =   0.0370370
        k(   36) = (   0.3333333  -0.4725183  -0.5000000), wk =   0.0185185
        k(   37) = (  -0.5000000   0.0000000  -0.5000000), wk =   0.0092593
        k(   38) = (  -0.5000000   0.1575061  -0.5000000), wk =   0.0185185
        k(   39) = (  -0.5000000   0.3150122  -0.5000000), wk =   0.0185185
        k(   40) = (  -0.5000000  -0.4725183  -0.5000000), wk =   0.0092593
        k(   41) = (   0.1666667   0.0000000   0.0000000), wk =   0.0185185
        k(   42) = (   0.3333333   0.0000000   0.0000000), wk =   0.0185185
        k(   43) = (  -0.5000000   0.0000000   0.0000000), wk =   0.0092593
        k(   44) = (   0.1666667  -0.1575061   0.0000000), wk =   0.0370370
        k(   45) = (   0.3333333  -0.1575061   0.0000000), wk =   0.0370370
        k(   46) = (  -0.5000000  -0.1575061   0.0000000), wk =   0.0185185
        k(   47) = (   0.1666667  -0.3150122   0.0000000), wk =   0.0370370
        k(   48) = (   0.3333333  -0.3150122   0.0000000), wk =   0.0370370
        k(   49) = (  -0.5000000  -0.3150122   0.0000000), wk =   0.0185185
        k(   50) = (   0.1666667   0.4725183   0.0000000), wk =   0.0185185
        k(   51) = (   0.3333333   0.4725183   0.0000000), wk =   0.0185185
        k(   52) = (  -0.5000000   0.4725183   0.0000000), wk =   0.0092593
        k(   53) = (   0.3333333   0.0000000   0.1666667), wk =   0.0370370
        k(   54) = (  -0.5000000   0.0000000   0.1666667), wk =   0.0185185
        k(   55) = (   0.3333333  -0.1575061   0.1666667), wk =   0.0740741
        k(   56) = (  -0.5000000  -0.1575061   0.1666667), wk =   0.0370370
        k(   57) = (   0.3333333  -0.3150122   0.1666667), wk =   0.0740741
        k(   58) = (  -0.5000000  -0.3150122   0.1666667), wk =   0.0370370
        k(   59) = (   0.3333333   0.4725183   0.1666667), wk =   0.0370370
        k(   60) = (  -0.5000000   0.4725183   0.1666667), wk =   0.0185185
        k(   61) = (  -0.5000000   0.0000000   0.3333333), wk =   0.0185185
        k(   62) = (  -0.5000000  -0.1575061   0.3333333), wk =   0.0370370
        k(   63) = (  -0.5000000  -0.3150122   0.3333333), wk =   0.0370370
        k(   64) = (  -0.5000000   0.4725183   0.3333333), wk =   0.0185185

     Initial potential from superposition of free atoms

     starting charge  367.99656, renormalised to  368.00000
     Starting wfc are  232 randomized atomic wfcs

     Self-consistent Calculation

     iteration #  1     ecut=   120.00 Ry     beta= 0.70
     Davidson diagonalization with overlap
     ethr =  1.00E-02,  avg # of iterations =  5.1

     total energy              =   -6253.98685065 Ry
     Harris-Foulkes estimate   =   -6264.58762426 Ry
     estimated scf accuracy    <      13.42441068 Ry

[...]

     End of self-consistent calculation

[...]
End final coordinates

     A final scf calculation at the relaxed structure.
     The G-vectors are recalculated for the final unit cell
     Results may differ from those at the preceding step.

     bravais-lattice index     =            0
     lattice parameter (alat)  =      13.8397  a.u.
     unit-cell volume          =    2808.0640 (a.u.)^3
     number of atoms/cell      =           32
     number of atomic types    =            2
     number of electrons       =       368.00
     number of Kohn-Sham states=          221
     kinetic-energy cutoff     =     120.0000  Ry
     charge density cutoff     =     480.0000  Ry
     convergence threshold     =      1.0E-10
     mixing beta               =       0.7000
     number of iterations used =            8  plain     mixing
     Exchange-correlation      = SLA PW NOGX NOGC ( 1  4  0  0 0 0)

     celldm(1)=  13.839685  celldm(2)=   0.000000  celldm(3)=   0.000000
     celldm(4)=   0.000000  celldm(5)=   0.000000  celldm(6)=   0.000000

     crystal axes: (cart. coord. in units of alat)
               a(1) = (   1.000911   0.000000   0.000000 )
               a(2) = (   0.000000   1.057381   0.000000 )
               a(3) = (   0.000000   0.000000   1.000924 )

     reciprocal axes: (cart. coord. in units 2 pi/alat)
               b(1) = (  0.999090  0.000000  0.000000 )
               b(2) = (  0.000000  0.945733  0.000000 )
               b(3) = (  0.000000  0.000000  0.999077 )

     PseudoPot. # 1 for W  read from file:
     /cluster/scratch/mnoe/QE/pps/W_ONCV_LDA-4.0.upf
     MD5 check sum: ba0307d5d4cd419d6f1d13dc49d7c13a
     Pseudo is Norm-conserving + core correction, Zval = 28.0
     Generated using ONCVPSP code by D. R. Hamann
     Using radial grid of 1380 points,  8 beta functions with:
                l(1) =   0
                l(2) =   0
                l(3) =   1
                l(4) =   1
                l(5) =   2
                l(6) =   2
                l(7) =   3
                l(8) =   3

     PseudoPot. # 2 for O  read from file:
     /cluster/scratch/mnoe/QE/pps/O_ONCV_LDA-3.0.upf
     MD5 check sum: a1bd6164e7280c17a38c229939bfbd54
     Pseudo is Norm-conserving + core correction, Zval =  6.0
     Generated using ONCVPSP code by D. R. Hamann
     Using radial grid of  926 points,  5 beta functions with:
                l(1) =   0
                l(2) =   0
                l(3) =   1
                l(4) =   1
                l(5) =   2

     atomic species   valence    mass     pseudopotential
        W             28.00   183.84000     W ( 1.00)
        O              6.00    15.99940     O ( 1.00)

      4 Sym. Ops. (no inversion) found ( 3 have fractional translation)

   Cartesian axes

     site n.     atom                  positions (alat units)
         1           W   tau(   1) = (   0.2487925   0.2976187   0.0003348  )
         2           W   tau(   2) = (   0.7510999   0.7597624  -0.0014138  )
         3           W   tau(   3) = (   0.2516631   0.2310719   0.5007970  )
         4           W   tau(   4) = (   0.7502670   0.8263092   0.4990484  )
         5           W   tau(   5) = (   0.7521187   0.2976187   0.5001273  )
         6           W   tau(   6) = (   0.2498114   0.7597624   0.5018759  )
         7           W   tau(   7) = (   0.7492482   0.2310719  -0.0003348  )
         8           W   tau(   8) = (   0.2506442   0.8263092   0.0014138  )
         9           O   tau(   9) = (   0.2483614   0.0086844  -0.0007235  )
        10           O   tau(  10) = (   0.7522332  -0.0086844  -0.0012670  )
        11           O   tau(  11) = (   0.2520942   0.5200061   0.4997386  )
        12           O   tau(  12) = (   0.7491337   0.5373750   0.4991951  )
        13           O   tau(  13) = (   0.7525498   0.0086844   0.5011856  )
        14           O   tau(  14) = (   0.2486781  -0.0086844   0.5017291  )
        15           O   tau(  15) = (   0.7488171   0.5200061   0.0007235  )
        16           O   tau(  16) = (   0.2517775   0.5373750   0.0012670  )
        17           O   tau(  17) = (   0.5009325   0.2622590   0.4509155  )
        18           O   tau(  18) = (   0.5004261   0.7946514   0.5500088  )
        19           O   tau(  19) = (  -0.0004769   0.2664316   0.9513776  )
        20           O   tau(  20) = (   0.0000296   0.7914202   0.0495467  )
        21           O   tau(  21) = (   0.4999787   0.2622590   0.0495467  )
        22           O   tau(  22) = (   0.5004852   0.7946514   0.9513776  )
        23           O   tau(  23) = (   0.0004769   0.2664316   0.5500088  )
        24           O   tau(  24) = (  -0.0000296   0.7914202   0.4509155  )
        25           O   tau(  25) = (   0.7011375   0.2650199   0.7504569  )
        26           O   tau(  26) = (   0.2997738   0.7945182   0.2507625  )
        27           O   tau(  27) = (   0.8002294   0.2636707   0.2499948  )
        28           O   tau(  28) = (   0.2006818   0.7915534   0.7512246  )
        29           O   tau(  29) = (   0.2997738   0.2650199   0.7509295  )
        30           O   tau(  30) = (   0.7011375   0.7945182   0.2496997  )
        31           O   tau(  31) = (   0.2006818   0.2636707   0.2504674  )
        32           O   tau(  32) = (   0.8002294   0.7915534   0.7501618  )

     number of k points=    64  gaussian smearing, width (Ry)=  0.0007
                       cart. coord. in units 2pi/alat
        k(    1) = (   0.0000000   0.0000000   0.0000000), wk =   0.0092593
        k(    2) = (   0.0000000   0.0000000   0.1665128), wk =   0.0185185
        k(    3) = (   0.0000000   0.0000000   0.3330255), wk =   0.0185185
        k(    4) = (   0.0000000   0.0000000  -0.4995383), wk =   0.0092593
        k(    5) = (   0.0000000   0.1576221   0.0000000), wk =   0.0185185
        k(    6) = (   0.0000000   0.1576221   0.1665128), wk =   0.0370370
        k(    7) = (   0.0000000   0.1576221   0.3330255), wk =   0.0370370
        k(    8) = (   0.0000000   0.1576221  -0.4995383), wk =   0.0185185
        k(    9) = (   0.0000000   0.3152443   0.0000000), wk =   0.0185185
        k(   10) = (   0.0000000   0.3152443   0.1665128), wk =   0.0370370
        k(   11) = (   0.0000000   0.3152443   0.3330255), wk =   0.0370370
        k(   12) = (   0.0000000   0.3152443  -0.4995383), wk =   0.0185185
        k(   13) = (   0.0000000  -0.4728664   0.0000000), wk =   0.0092593
        k(   14) = (   0.0000000  -0.4728664   0.1665128), wk =   0.0185185
        k(   15) = (   0.0000000  -0.4728664   0.3330255), wk =   0.0185185
        k(   16) = (   0.0000000  -0.4728664  -0.4995383), wk =   0.0092593
        k(   17) = (   0.1665149   0.0000000   0.1665128), wk =   0.0370370
        k(   18) = (   0.1665149   0.0000000   0.3330255), wk =   0.0370370
        k(   19) = (   0.1665149   0.0000000  -0.4995383), wk =   0.0185185
        k(   20) = (   0.1665149   0.1576221   0.1665128), wk =   0.0740741
        k(   21) = (   0.1665149   0.1576221   0.3330255), wk =   0.0740741
        k(   22) = (   0.1665149   0.1576221  -0.4995383), wk =   0.0370370
        k(   23) = (   0.1665149   0.3152443   0.1665128), wk =   0.0740741
        k(   24) = (   0.1665149   0.3152443   0.3330255), wk =   0.0740741
        k(   25) = (   0.1665149   0.3152443  -0.4995383), wk =   0.0370370
        k(   26) = (   0.1665149  -0.4728664   0.1665128), wk =   0.0370370
        k(   27) = (   0.1665149  -0.4728664   0.3330255), wk =   0.0370370
        k(   28) = (   0.1665149  -0.4728664  -0.4995383), wk =   0.0185185
        k(   29) = (   0.3330299   0.0000000   0.3330255), wk =   0.0370370
        k(   30) = (   0.3330299   0.0000000  -0.4995383), wk =   0.0185185
        k(   31) = (   0.3330299   0.1576221   0.3330255), wk =   0.0740741
        k(   32) = (   0.3330299   0.1576221  -0.4995383), wk =   0.0370370
        k(   33) = (   0.3330299   0.3152443   0.3330255), wk =   0.0740741
        k(   34) = (   0.3330299   0.3152443  -0.4995383), wk =   0.0370370
        k(   35) = (   0.3330299  -0.4728664   0.3330255), wk =   0.0370370
        k(   36) = (   0.3330299  -0.4728664  -0.4995383), wk =   0.0185185
        k(   37) = (  -0.4995448   0.0000000  -0.4995383), wk =   0.0092593
        k(   38) = (  -0.4995448   0.1576221  -0.4995383), wk =   0.0185185
        k(   39) = (  -0.4995448   0.3152443  -0.4995383), wk =   0.0185185
        k(   40) = (  -0.4995448  -0.4728664  -0.4995383), wk =   0.0092593
        k(   41) = (   0.1665149   0.0000000   0.0000000), wk =   0.0185185
        k(   42) = (   0.3330299   0.0000000   0.0000000), wk =   0.0185185
        k(   43) = (  -0.4995448   0.0000000   0.0000000), wk =   0.0092593
        k(   44) = (   0.1665149  -0.1576221   0.0000000), wk =   0.0370370
        k(   45) = (   0.3330299  -0.1576221   0.0000000), wk =   0.0370370
        k(   46) = (  -0.4995448  -0.1576221   0.0000000), wk =   0.0185185
        k(   47) = (   0.1665149  -0.3152443   0.0000000), wk =   0.0370370
        k(   48) = (   0.3330299  -0.3152443   0.0000000), wk =   0.0370370
        k(   49) = (  -0.4995448  -0.3152443   0.0000000), wk =   0.0185185
        k(   50) = (   0.1665149   0.4728664   0.0000000), wk =   0.0185185
        k(   51) = (   0.3330299   0.4728664   0.0000000), wk =   0.0185185
        k(   52) = (  -0.4995448   0.4728664   0.0000000), wk =   0.0092593
        k(   53) = (   0.3330299   0.0000000   0.1665128), wk =   0.0370370
        k(   54) = (  -0.4995448   0.0000000   0.1665128), wk =   0.0185185
        k(   55) = (   0.3330299  -0.1576221   0.1665128), wk =   0.0740741
        k(   56) = (  -0.4995448  -0.1576221   0.1665128), wk =   0.0370370
        k(   57) = (   0.3330299  -0.3152443   0.1665128), wk =   0.0740741
        k(   58) = (  -0.4995448  -0.3152443   0.1665128), wk =   0.0370370
        k(   59) = (   0.3330299   0.4728664   0.1665128), wk =   0.0370370
        k(   60) = (  -0.4995448   0.4728664   0.1665128), wk =   0.0185185
        k(   61) = (  -0.4995448   0.0000000   0.3330255), wk =   0.0185185
        k(   62) = (  -0.4995448  -0.1576221   0.3330255), wk =   0.0370370
        k(   63) = (  -0.4995448  -0.3152443   0.3330255), wk =   0.0370370
        k(   64) = (  -0.4995448   0.4728664   0.3330255), wk =   0.0185185

     Initial potential from superposition of free atoms

     starting charge  367.99656, renormalised to  368.00000
     Starting wfc are  232 randomized atomic wfcs

     Writing output data file Landau_1.save

     Self-consistent Calculation

[...]

     total energy              =   -6261.10939248 Ry
     Harris-Foulkes estimate   =   -6261.10939248 Ry
     estimated scf accuracy    <          3.2E-10 Ry

     iteration # 15     ecut=   120.00 Ry     beta= 0.70
     Davidson diagonalization with overlap
     ethr =  1.00E-13,  avg # of iterations =  2.1

     End of self-consistent calculation

[...]

          k = 0.3330 0.4729 0.1665 ( 62302 PWs)   bands (ev):

[...]

          k =-0.4995 0.4729 0.3330 ( 62284 PWs)   bands (ev):

   -66.1950 -66.1950 -66.1950 -66.1950 -66.1945 -66.1945 -66.1945 -66.1945
   -30.5581 -30.5581 -30.5580 -30.5580 -30.5562 -30.5562 -30.5562 -30.5562
   -30.5107 -30.5107 -30.5104 -30.5104 -30.4872 -30.4872 -30.4868 -30.4868
   -30.4849 -30.4849 -30.4845 -30.4845 -30.4615 -30.4615 -30.4611 -30.4611
   -20.3565 -20.3565 -20.3565 -20.3565 -20.3564 -20.3564 -20.3564 -20.3564
   -20.3358 -20.3358 -20.3358 -20.3358 -20.3357 -20.3357 -20.3357 -20.3357
   -20.3327 -20.3327 -20.3326 -20.3326 -20.3324 -20.3324 -20.3323 -20.3323
   -20.3322 -20.3322 -20.3321 -20.3321 -20.3319 -20.3319 -20.3318 -20.3318
   -20.3240 -20.3240 -20.3240 -20.3240 -20.3234 -20.3234 -20.3234 -20.3234
   -20.3215 -20.3215 -20.3214 -20.3214 -20.3196 -20.3196 -20.3196 -20.3196
   -20.3192 -20.3192 -20.3192 -20.3192 -20.3177 -20.3177 -20.3176 -20.3176
    -9.2016  -9.2016  -9.2006  -9.2006  -8.8010  -8.8010  -8.7984  -8.7984
    -8.5680  -8.5680  -8.5639  -8.5639  -8.4060  -8.4060  -8.3996  -8.3996
    -8.3590  -8.3590  -8.3537  -8.3537  -8.1255  -8.1255  -8.1240  -8.1240
     2.2417   2.2417   2.2446   2.2446   2.9794   2.9794   2.9886   2.9886
     3.1048   3.1048   3.1141   3.1141   3.2481   3.2481   3.2771   3.2771
     3.3513   3.3513   3.3807   3.3807   3.6264   3.6264   3.6348   3.6348
     3.7528   3.7528   3.7945   3.7945   4.2326   4.2326   4.2633   4.2633
     4.3161   4.3161   4.3732   4.3732   4.4391   4.4391   4.5459   4.5459
     4.6345   4.6345   4.7875   4.7875   5.0466   5.0467   5.0603   5.0603
     7.0208   7.0209   7.0448   7.0448   7.1721   7.1722   7.1748   7.1748
     7.2583   7.2583   7.3027   7.3027   7.3156   7.3156   7.3867   7.3867
     7.4662   7.4662   7.5277   7.5277   7.5935   7.5935   7.6131   7.6131
    11.3886  11.3886  11.4186  11.4186  11.7231  11.7231  11.7895  11.7895
    12.1539  12.1539  12.1968  12.1969  12.3039  12.3039  12.3114  12.3114
    12.4669  12.4669  12.5650  12.5650  12.9497  12.9497  13.0252  13.0252
    16.4540  16.4540  16.4991  16.4991  17.0683  17.0683  17.0761  17.0761
    17.3116  17.3116  17.3564  17.3566  17.3776

     the Fermi energy is     8.5339 ev

!    total energy              =   -6261.10939248 Ry
     Harris-Foulkes estimate   =   -6261.10939248 Ry
     estimated scf accuracy    <          8.1E-11 Ry

     The total energy is the sum of the following terms:

     one-electron contribution =   -4726.44717337 Ry
     hartree contribution      =    2599.66374881 Ry
     xc contribution           =    -965.66938507 Ry
     ewald contribution        =   -3168.65658286 Ry
     smearing contrib. (-TS)   =      -0.00000000 Ry

     convergence has been achieved in  15 iterations

     Forces acting on atoms (cartesian axes, Ry/au):

     atom    1 type  1   force =    -0.00058052    0.00103548    0.00004557
     atom    2 type  1   force =     0.00025261   -0.00102644   -0.00052473
     atom    3 type  1   force =     0.00058052   -0.00103548    0.00004557
     atom    4 type  1   force =    -0.00025261    0.00102644   -0.00052473
     atom    5 type  1   force =     0.00058052    0.00103548   -0.00004557
     atom    6 type  1   force =    -0.00025261   -0.00102644    0.00052473
     atom    7 type  1   force =    -0.00058052   -0.00103548   -0.00004557
     atom    8 type  1   force =     0.00025261    0.00102644    0.00052473
     atom    9 type  2   force =    -0.00008596   -0.00049325   -0.00000040
     atom   10 type  2   force =     0.00004227    0.00049299   -0.00007418
     atom   11 type  2   force =     0.00008596    0.00049325   -0.00000040
     atom   12 type  2   force =    -0.00004227   -0.00049299   -0.00007418
     atom   13 type  2   force =     0.00008596   -0.00049325    0.00000040
     atom   14 type  2   force =    -0.00004227    0.00049299    0.00007418
     atom   15 type  2   force =    -0.00008596    0.00049325    0.00000040
     atom   16 type  2   force =     0.00004227   -0.00049299    0.00007418
     atom   17 type  2   force =    -0.00029726   -0.00008495   -0.00021388
     atom   18 type  2   force =     0.00011354   -0.00010374    0.00020757
     atom   19 type  2   force =     0.00029726    0.00008495   -0.00021388
     atom   20 type  2   force =    -0.00011354    0.00010374    0.00020757
     atom   21 type  2   force =     0.00029726   -0.00008495    0.00021388
     atom   22 type  2   force =    -0.00011354   -0.00010374   -0.00020757
     atom   23 type  2   force =    -0.00029726    0.00008495    0.00021388
     atom   24 type  2   force =     0.00011354    0.00010374   -0.00020757
     atom   25 type  2   force =    -0.00021569   -0.00016700    0.00004293
     atom   26 type  2   force =     0.00022193    0.00015556   -0.00027826
     atom   27 type  2   force =     0.00021569    0.00016700    0.00004293
     atom   28 type  2   force =    -0.00022193   -0.00015556   -0.00027826
     atom   29 type  2   force =     0.00021569   -0.00016700   -0.00004293
     atom   30 type  2   force =    -0.00022193    0.00015556    0.00027826
     atom   31 type  2   force =    -0.00021569    0.00016700   -0.00004293
     atom   32 type  2   force =     0.00022193   -0.00015556    0.00027826

     Total force =     0.000000     Total SCF correction =     0.000000

     Computing stress (Cartesian axis) and pressure

          total   stress  (Ry/bohr**3)                   (kbar)     P=    0.02
   0.00000025   0.00000000   0.00000000          0.04      0.00      0.00
   0.00000000  -0.00000012   0.00000000          0.00     -0.02      0.00
   0.00000000   0.00000000   0.00000023          0.00      0.00      0.03

     Writing output data file Landau_1.save

     General routines

     Parallel routines

   This run was terminated on:   4: 0:52  23Mar2020

   JOB DONE.