     Program PWSCF v.6.2 (svn rev. 14038) starts on 24Mar2020 at  1:55: 2

     K-points division:     npool     =      40
     Reading input from rscf.in

     Current dimensions of program PWSCF are:
     Max number of different atomic species (ntypx) = 10
     Max number of k-points (npk) =  40000
     Max angular momentum in pseudopotentials (lmaxx) =  3

     Subspace diagonalization in iterative solution of the eigenvalue problem:
     a serial algorithm will be used

     bravais-lattice index     =            0
     lattice parameter (alat)  =      13.8397  a.u.
     unit-cell volume          =    2804.9816 (a.u.)^3
     number of atoms/cell      =           32
     number of atomic types    =            2
     number of electrons       =       368.00
     number of Kohn-Sham states=          221
     kinetic-energy cutoff     =     120.0000  Ry
     charge density cutoff     =     480.0000  Ry
     convergence threshold     =      1.0E-08
     mixing beta               =       0.7000
     number of iterations used =            8  plain     mixing
     Exchange-correlation      = SLA PW NOGX NOGC ( 1  4  0  0 0 0)
     nstep                     =           50

     celldm(1)=  13.839685  celldm(2)=   0.000000  celldm(3)=   0.000000
     celldm(4)=   0.000000  celldm(5)=   0.000000  celldm(6)=   0.000000

     crystal axes: (cart. coord. in units of alat)
               a(1) = (   1.000000   0.000000   0.000000 )
               a(2) = (   0.000000   1.058160   0.000000 )
               a(3) = (   0.000000   0.000000   1.000000 )

     reciprocal axes: (cart. coord. in units 2 pi/alat)
               b(1) = (  1.000000  0.000000  0.000000 )
               b(2) = (  0.000000  0.945037  0.000000 )
               b(3) = (  0.000000  0.000000  1.000000 )

     PseudoPot. # 1 for W  read from file:
     /cluster/scratch/mnoe/QE/pps/W_ONCV_LDA-4.0.upf
     MD5 check sum: ba0307d5d4cd419d6f1d13dc49d7c13a
     Pseudo is Norm-conserving + core correction, Zval = 28.0
     Generated using ONCVPSP code by D. R. Hamann
     Using radial grid of 1380 points,  8 beta functions with:
                l(1) =   0
                l(2) =   0
                l(3) =   1
                l(4) =   1
                l(5) =   2
                l(6) =   2
                l(7) =   3
                l(8) =   3

     PseudoPot. # 2 for O  read from file:
     /cluster/scratch/mnoe/QE/pps/O_ONCV_LDA-3.0.upf
     MD5 check sum: a1bd6164e7280c17a38c229939bfbd54
     Pseudo is Norm-conserving + core correction, Zval =  6.0
     Generated using ONCVPSP code by D. R. Hamann
     Using radial grid of  926 points,  5 beta functions with:
                l(1) =   0
                l(2) =   0
                l(3) =   1
                l(4) =   1
                l(5) =   2

     atomic species   valence    mass     pseudopotential
        W             28.00   183.84000     W ( 1.00)
        O              6.00    15.99940     O ( 1.00)

      4 Sym. Ops. (no inversion) found ( 3 have fractional translation)

   Cartesian axes

     site n.     atom                  positions (alat units)
         1           W   tau(   1) = (   0.2354373   0.2843117   0.0081801  )
         2           W   tau(   2) = (   0.7589999   0.7738484  -0.0140707  )
         3           W   tau(   3) = (   0.2645627   0.2447684   0.5081801  )
         4           W   tau(   4) = (   0.7410000   0.8133918   0.4859293  )
         5           W   tau(   5) = (   0.7645626   0.2843117   0.4918199  )
         6           W   tau(   6) = (   0.2410000   0.7738484   0.5140707  )
         7           W   tau(   7) = (   0.7354373   0.2447684  -0.0081800  )
         8           W   tau(   8) = (   0.2590000   0.8133918   0.0140707  )
         9           O   tau(   9) = (   0.2274006   0.0050059  -0.0019758  )
        10           O   tau(  10) = (   0.7708703  -0.0050059  -0.0088917  )
        11           O   tau(  11) = (   0.2725994   0.5240742   0.4980242  )
        12           O   tau(  12) = (   0.7291295   0.5340860   0.4911083  )
        13           O   tau(  13) = (   0.7725993   0.0050059   0.5019758  )
        14           O   tau(  14) = (   0.2291295  -0.0050059   0.5088917  )
        15           O   tau(  15) = (   0.7274005   0.5240742   0.0019757  )
        16           O   tau(  16) = (   0.2708704   0.5340860   0.0088917  )
        17           O   tau(  17) = (   0.5044435   0.2396609   0.4817556  )
        18           O   tau(  18) = (   0.4979988   0.8159251   0.5182445  )
        19           O   tau(  19) = (  -0.0044435   0.2894191   0.9817556  )
        20           O   tau(  20) = (   0.0020012   0.7713152   0.0182443  )
        21           O   tau(  21) = (   0.4955565   0.2396609   0.0182443  )
        22           O   tau(  22) = (   0.5020012   0.8159251   0.9817556  )
        23           O   tau(  23) = (   0.0044434   0.2894191   0.5182445  )
        24           O   tau(  24) = (  -0.0020013   0.7713152   0.4817556  )
        25           O   tau(  25) = (   0.7317556   0.2652897   0.7459211  )
        26           O   tau(  26) = (   0.2682443   0.8046665   0.2556900  )
        27           O   tau(  27) = (   0.7682446   0.2637903   0.2459212  )
        28           O   tau(  28) = (   0.2317556   0.7825738   0.7556900  )
        29           O   tau(  29) = (   0.2682443   0.2652897   0.7540788  )
        30           O   tau(  30) = (   0.7317556   0.8046665   0.2443100  )
        31           O   tau(  31) = (   0.2317556   0.2637903   0.2540789  )
        32           O   tau(  32) = (   0.7682446   0.7825738   0.7443099  )

     number of k points=    64  gaussian smearing, width (Ry)=  0.0007
                       cart. coord. in units 2pi/alat
        k(    1) = (   0.0000000   0.0000000   0.0000000), wk =   0.0092593
        k(    2) = (   0.0000000   0.0000000   0.1666667), wk =   0.0185185
        k(    3) = (   0.0000000   0.0000000   0.3333333), wk =   0.0185185
        k(    4) = (   0.0000000   0.0000000  -0.5000000), wk =   0.0092593
        k(    5) = (   0.0000000   0.1575061   0.0000000), wk =   0.0185185
        k(    6) = (   0.0000000   0.1575061   0.1666667), wk =   0.0370370
        k(    7) = (   0.0000000   0.1575061   0.3333333), wk =   0.0370370
        k(    8) = (   0.0000000   0.1575061  -0.5000000), wk =   0.0185185
        k(    9) = (   0.0000000   0.3150122   0.0000000), wk =   0.0185185
        k(   10) = (   0.0000000   0.3150122   0.1666667), wk =   0.0370370
        k(   11) = (   0.0000000   0.3150122   0.3333333), wk =   0.0370370
        k(   12) = (   0.0000000   0.3150122  -0.5000000), wk =   0.0185185
        k(   13) = (   0.0000000  -0.4725183   0.0000000), wk =   0.0092593
        k(   14) = (   0.0000000  -0.4725183   0.1666667), wk =   0.0185185
        k(   15) = (   0.0000000  -0.4725183   0.3333333), wk =   0.0185185
        k(   16) = (   0.0000000  -0.4725183  -0.5000000), wk =   0.0092593
        k(   17) = (   0.1666667   0.0000000   0.1666667), wk =   0.0370370
        k(   18) = (   0.1666667   0.0000000   0.3333333), wk =   0.0370370
        k(   19) = (   0.1666667   0.0000000  -0.5000000), wk =   0.0185185
        k(   20) = (   0.1666667   0.1575061   0.1666667), wk =   0.0740741
        k(   21) = (   0.1666667   0.1575061   0.3333333), wk =   0.0740741
        k(   22) = (   0.1666667   0.1575061  -0.5000000), wk =   0.0370370
        k(   23) = (   0.1666667   0.3150122   0.1666667), wk =   0.0740741
        k(   24) = (   0.1666667   0.3150122   0.3333333), wk =   0.0740741
        k(   25) = (   0.1666667   0.3150122  -0.5000000), wk =   0.0370370
        k(   26) = (   0.1666667  -0.4725183   0.1666667), wk =   0.0370370
        k(   27) = (   0.1666667  -0.4725183   0.3333333), wk =   0.0370370
        k(   28) = (   0.1666667  -0.4725183  -0.5000000), wk =   0.0185185
        k(   29) = (   0.3333333   0.0000000   0.3333333), wk =   0.0370370
        k(   30) = (   0.3333333   0.0000000  -0.5000000), wk =   0.0185185
        k(   31) = (   0.3333333   0.1575061   0.3333333), wk =   0.0740741
        k(   32) = (   0.3333333   0.1575061  -0.5000000), wk =   0.0370370
        k(   33) = (   0.3333333   0.3150122   0.3333333), wk =   0.0740741
        k(   34) = (   0.3333333   0.3150122  -0.5000000), wk =   0.0370370
        k(   35) = (   0.3333333  -0.4725183   0.3333333), wk =   0.0370370
        k(   36) = (   0.3333333  -0.4725183  -0.5000000), wk =   0.0185185
        k(   37) = (  -0.5000000   0.0000000  -0.5000000), wk =   0.0092593
        k(   38) = (  -0.5000000   0.1575061  -0.5000000), wk =   0.0185185
        k(   39) = (  -0.5000000   0.3150122  -0.5000000), wk =   0.0185185
        k(   40) = (  -0.5000000  -0.4725183  -0.5000000), wk =   0.0092593
        k(   41) = (   0.1666667   0.0000000   0.0000000), wk =   0.0185185
        k(   42) = (   0.3333333   0.0000000   0.0000000), wk =   0.0185185
        k(   43) = (  -0.5000000   0.0000000   0.0000000), wk =   0.0092593
        k(   44) = (   0.1666667  -0.1575061   0.0000000), wk =   0.0370370
        k(   45) = (   0.3333333  -0.1575061   0.0000000), wk =   0.0370370
        k(   46) = (  -0.5000000  -0.1575061   0.0000000), wk =   0.0185185
        k(   47) = (   0.1666667  -0.3150122   0.0000000), wk =   0.0370370
        k(   48) = (   0.3333333  -0.3150122   0.0000000), wk =   0.0370370
        k(   49) = (  -0.5000000  -0.3150122   0.0000000), wk =   0.0185185
        k(   50) = (   0.1666667   0.4725183   0.0000000), wk =   0.0185185
        k(   51) = (   0.3333333   0.4725183   0.0000000), wk =   0.0185185
        k(   52) = (  -0.5000000   0.4725183   0.0000000), wk =   0.0092593
        k(   53) = (   0.3333333   0.0000000   0.1666667), wk =   0.0370370
        k(   54) = (  -0.5000000   0.0000000   0.1666667), wk =   0.0185185
        k(   55) = (   0.3333333  -0.1575061   0.1666667), wk =   0.0740741
        k(   56) = (  -0.5000000  -0.1575061   0.1666667), wk =   0.0370370
        k(   57) = (   0.3333333  -0.3150122   0.1666667), wk =   0.0740741
        k(   58) = (  -0.5000000  -0.3150122   0.1666667), wk =   0.0370370
        k(   59) = (   0.3333333   0.4725183   0.1666667), wk =   0.0370370
        k(   60) = (  -0.5000000   0.4725183   0.1666667), wk =   0.0185185
        k(   61) = (  -0.5000000   0.0000000   0.3333333), wk =   0.0185185
        k(   62) = (  -0.5000000  -0.1575061   0.3333333), wk =   0.0370370
        k(   63) = (  -0.5000000  -0.3150122   0.3333333), wk =   0.0370370
        k(   64) = (  -0.5000000   0.4725183   0.3333333), wk =   0.0185185

     Initial potential from superposition of free atoms

     starting charge  367.99656, renormalised to  368.00000
     Starting wfc are  232 randomized atomic wfcs

     Self-consistent Calculation

     iteration #  1     ecut=   120.00 Ry     beta= 0.70
     Davidson diagonalization with overlap
     ethr =  1.00E-02,  avg # of iterations =  5.4

     total energy              =   -6254.00057013 Ry
     Harris-Foulkes estimate   =   -6264.50030369 Ry
     estimated scf accuracy    <      13.33105623 Ry

[...]

     End of self-consistent calculation

[...]
End final coordinates

     A final scf calculation at the relaxed structure.
     The G-vectors are recalculated for the final unit cell
     Results may differ from those at the preceding step.

     bravais-lattice index     =            0
     lattice parameter (alat)  =      13.8397  a.u.
     unit-cell volume          =    2866.3338 (a.u.)^3
     number of atoms/cell      =           32
     number of atomic types    =            2
     number of electrons       =       368.00
     number of Kohn-Sham states=          221
     kinetic-energy cutoff     =     120.0000  Ry
     charge density cutoff     =     480.0000  Ry
     convergence threshold     =      1.0E-10
     mixing beta               =       0.7000
     number of iterations used =            8  plain     mixing
     Exchange-correlation      = SLA PW NOGX NOGC ( 1  4  0  0 0 0)

     celldm(1)=  13.839685  celldm(2)=   0.000000  celldm(3)=   0.000000
     celldm(4)=   0.000000  celldm(5)=   0.000000  celldm(6)=   0.000000

     crystal axes: (cart. coord. in units of alat)
               a(1) = (   1.022667   0.000000   0.000000 )
               a(2) = (   0.000000   1.032100   0.000000 )
               a(3) = (   0.000000   0.000000   1.024453 )

     reciprocal axes: (cart. coord. in units 2 pi/alat)
               b(1) = (  0.977836  0.000000  0.000000 )
               b(2) = (  0.000000  0.968898  0.000000 )
               b(3) = (  0.000000  0.000000  0.976130 )

     PseudoPot. # 1 for W  read from file:
     /cluster/scratch/mnoe/QE/pps/W_ONCV_LDA-4.0.upf
     MD5 check sum: ba0307d5d4cd419d6f1d13dc49d7c13a
     Pseudo is Norm-conserving + core correction, Zval = 28.0
     Generated using ONCVPSP code by D. R. Hamann
     Using radial grid of 1380 points,  8 beta functions with:
                l(1) =   0
                l(2) =   0
                l(3) =   1
                l(4) =   1
                l(5) =   2
                l(6) =   2
                l(7) =   3
                l(8) =   3

     PseudoPot. # 2 for O  read from file:
     /cluster/scratch/mnoe/QE/pps/O_ONCV_LDA-3.0.upf
     MD5 check sum: a1bd6164e7280c17a38c229939bfbd54
     Pseudo is Norm-conserving + core correction, Zval =  6.0
     Generated using ONCVPSP code by D. R. Hamann
     Using radial grid of  926 points,  5 beta functions with:
                l(1) =   0
                l(2) =   0
                l(3) =   1
                l(4) =   1
                l(5) =   2

     atomic species   valence    mass     pseudopotential
        W             28.00   183.84000     W ( 1.00)
        O              6.00    15.99940     O ( 1.00)

      4 Sym. Ops. (no inversion) found ( 3 have fractional translation)

   Cartesian axes

     site n.     atom                  positions (alat units)
         1           W   tau(   1) = (   0.2407739   0.2773098   0.0083801  )
         2           W   tau(   2) = (   0.7762038   0.7547904  -0.0144148  )
         3           W   tau(   3) = (   0.2705594   0.2387403   0.5206068  )
         4           W   tau(   4) = (   0.7577959   0.7933600   0.4978119  )
         5           W   tau(   5) = (   0.7818926   0.2773098   0.5038466  )
         6           W   tau(   6) = (   0.2464627   0.7547904   0.5266415  )
         7           W   tau(   7) = (   0.7521071   0.2387403  -0.0083801  )
         8           W   tau(   8) = (   0.2648706   0.7933600   0.0144148  )
         9           O   tau(   9) = (   0.2325550   0.0048826  -0.0020241  )
        10           O   tau(  10) = (   0.7883434  -0.0048827  -0.0091091  )
        11           O   tau(  11) = (   0.2787783   0.5111675   0.5102026  )
        12           O   tau(  12) = (   0.7456564   0.5209327   0.5031175  )
        13           O   tau(  13) = (   0.7901115   0.0048826   0.5142508  )
        14           O   tau(  14) = (   0.2343231  -0.0048827   0.5213358  )
        15           O   tau(  15) = (   0.7438882   0.5111675   0.0020241  )
        16           O   tau(  16) = (   0.2770101   0.5209327   0.0091091  )
        17           O   tau(  17) = (   0.5158775   0.2337586   0.4935362  )
        18           O   tau(  18) = (   0.5092867   0.7958308   0.5309174  )
        19           O   tau(  19) = (  -0.0045442   0.2822914   1.0057629  )
        20           O   tau(  20) = (   0.0020466   0.7523196   0.0186904  )
        21           O   tau(  21) = (   0.5067891   0.2337586   0.0186904  )
        22           O   tau(  22) = (   0.5133799   0.7958308   1.0057629  )
        23           O   tau(  23) = (   0.0045442   0.2822914   0.5309174  )
        24           O   tau(  24) = (  -0.0020466   0.7523196   0.4935362  )
        25           O   tau(  25) = (   0.7483420   0.2587562   0.7641614  )
        26           O   tau(  26) = (   0.2743245   0.7848495   0.2619425  )
        27           O   tau(  27) = (   0.7856581   0.2572938   0.2519348  )
        28           O   tau(  28) = (   0.2370087   0.7633009   0.7741692  )
        29           O   tau(  29) = (   0.2743245   0.2587562   0.7725186  )
        30           O   tau(  30) = (   0.7483420   0.7848495   0.2502842  )
        31           O   tau(  31) = (   0.2370087   0.2572938   0.2602920  )
        32           O   tau(  32) = (   0.7856581   0.7633009   0.7625108  )

     number of k points=    64  gaussian smearing, width (Ry)=  0.0007
                       cart. coord. in units 2pi/alat
        k(    1) = (   0.0000000   0.0000000   0.0000000), wk =   0.0092593
        k(    2) = (   0.0000000   0.0000000   0.1626884), wk =   0.0185185
        k(    3) = (   0.0000000   0.0000000   0.3253768), wk =   0.0185185
        k(    4) = (   0.0000000   0.0000000  -0.4880652), wk =   0.0092593
        k(    5) = (   0.0000000   0.1614830   0.0000000), wk =   0.0185185
        k(    6) = (   0.0000000   0.1614830   0.1626884), wk =   0.0370370
        k(    7) = (   0.0000000   0.1614830   0.3253768), wk =   0.0370370
        k(    8) = (   0.0000000   0.1614830  -0.4880652), wk =   0.0185185
        k(    9) = (   0.0000000   0.3229661   0.0000000), wk =   0.0185185
        k(   10) = (   0.0000000   0.3229661   0.1626884), wk =   0.0370370
        k(   11) = (   0.0000000   0.3229661   0.3253768), wk =   0.0370370
        k(   12) = (   0.0000000   0.3229661  -0.4880652), wk =   0.0185185
        k(   13) = (   0.0000000  -0.4844491   0.0000000), wk =   0.0092593
        k(   14) = (   0.0000000  -0.4844491   0.1626884), wk =   0.0185185
        k(   15) = (   0.0000000  -0.4844491   0.3253768), wk =   0.0185185
        k(   16) = (   0.0000000  -0.4844491  -0.4880652), wk =   0.0092593
        k(   17) = (   0.1629726   0.0000000   0.1626884), wk =   0.0370370
        k(   18) = (   0.1629726   0.0000000   0.3253768), wk =   0.0370370
        k(   19) = (   0.1629726   0.0000000  -0.4880652), wk =   0.0185185
        k(   20) = (   0.1629726   0.1614830   0.1626884), wk =   0.0740741
        k(   21) = (   0.1629726   0.1614830   0.3253768), wk =   0.0740741
        k(   22) = (   0.1629726   0.1614830  -0.4880652), wk =   0.0370370
        k(   23) = (   0.1629726   0.3229661   0.1626884), wk =   0.0740741
        k(   24) = (   0.1629726   0.3229661   0.3253768), wk =   0.0740741
        k(   25) = (   0.1629726   0.3229661  -0.4880652), wk =   0.0370370
        k(   26) = (   0.1629726  -0.4844491   0.1626884), wk =   0.0370370
        k(   27) = (   0.1629726  -0.4844491   0.3253768), wk =   0.0370370
        k(   28) = (   0.1629726  -0.4844491  -0.4880652), wk =   0.0185185
        k(   29) = (   0.3259453   0.0000000   0.3253768), wk =   0.0370370
        k(   30) = (   0.3259453   0.0000000  -0.4880652), wk =   0.0185185
        k(   31) = (   0.3259453   0.1614830   0.3253768), wk =   0.0740741
        k(   32) = (   0.3259453   0.1614830  -0.4880652), wk =   0.0370370
        k(   33) = (   0.3259453   0.3229661   0.3253768), wk =   0.0740741
        k(   34) = (   0.3259453   0.3229661  -0.4880652), wk =   0.0370370
        k(   35) = (   0.3259453  -0.4844491   0.3253768), wk =   0.0370370
        k(   36) = (   0.3259453  -0.4844491  -0.4880652), wk =   0.0185185
        k(   37) = (  -0.4889179   0.0000000  -0.4880652), wk =   0.0092593
        k(   38) = (  -0.4889179   0.1614830  -0.4880652), wk =   0.0185185
        k(   39) = (  -0.4889179   0.3229661  -0.4880652), wk =   0.0185185
        k(   40) = (  -0.4889179  -0.4844491  -0.4880652), wk =   0.0092593
        k(   41) = (   0.1629726   0.0000000   0.0000000), wk =   0.0185185
        k(   42) = (   0.3259453   0.0000000   0.0000000), wk =   0.0185185
        k(   43) = (  -0.4889179   0.0000000   0.0000000), wk =   0.0092593
        k(   44) = (   0.1629726  -0.1614830   0.0000000), wk =   0.0370370
        k(   45) = (   0.3259453  -0.1614830   0.0000000), wk =   0.0370370
        k(   46) = (  -0.4889179  -0.1614830   0.0000000), wk =   0.0185185
        k(   47) = (   0.1629726  -0.3229661   0.0000000), wk =   0.0370370
        k(   48) = (   0.3259453  -0.3229661   0.0000000), wk =   0.0370370
        k(   49) = (  -0.4889179  -0.3229661   0.0000000), wk =   0.0185185
        k(   50) = (   0.1629726   0.4844491   0.0000000), wk =   0.0185185
        k(   51) = (   0.3259453   0.4844491   0.0000000), wk =   0.0185185
        k(   52) = (  -0.4889179   0.4844491   0.0000000), wk =   0.0092593
        k(   53) = (   0.3259453   0.0000000   0.1626884), wk =   0.0370370
        k(   54) = (  -0.4889179   0.0000000   0.1626884), wk =   0.0185185
        k(   55) = (   0.3259453  -0.1614830   0.1626884), wk =   0.0740741
        k(   56) = (  -0.4889179  -0.1614830   0.1626884), wk =   0.0370370
        k(   57) = (   0.3259453  -0.3229661   0.1626884), wk =   0.0740741
        k(   58) = (  -0.4889179  -0.3229661   0.1626884), wk =   0.0370370
        k(   59) = (   0.3259453   0.4844491   0.1626884), wk =   0.0370370
        k(   60) = (  -0.4889179   0.4844491   0.1626884), wk =   0.0185185
        k(   61) = (  -0.4889179   0.0000000   0.3253768), wk =   0.0185185
        k(   62) = (  -0.4889179  -0.1614830   0.3253768), wk =   0.0370370
        k(   63) = (  -0.4889179  -0.3229661   0.3253768), wk =   0.0370370
        k(   64) = (  -0.4889179   0.4844491   0.3253768), wk =   0.0185185

     Initial potential from superposition of free atoms

     starting charge  367.99656, renormalised to  368.00000
     Starting wfc are  232 randomized atomic wfcs

     Writing output data file Landau_17.save

     Self-consistent Calculation

[...]

     total energy              =   -6261.09681533 Ry
     Harris-Foulkes estimate   =   -6261.09681533 Ry
     estimated scf accuracy    <          3.2E-10 Ry

     iteration # 16     ecut=   120.00 Ry     beta= 0.70
     Davidson diagonalization with overlap
     ethr =  1.00E-13,  avg # of iterations =  2.0

     End of self-consistent calculation

[...]

          k = 0.3259 0.4844 0.1627 ( 63656 PWs)   bands (ev):

[...]

          k =-0.4889 0.4844 0.3254 ( 63592 PWs)   bands (ev):

   -66.5662 -66.5662 -66.5658 -66.5658 -66.5646 -66.5646 -66.5642 -66.5642
   -30.9011 -30.9011 -30.8906 -30.8906 -30.8880 -30.8880 -30.8771 -30.8771
   -30.8751 -30.8751 -30.8730 -30.8730 -30.8668 -30.8668 -30.8606 -30.8606
   -30.8588 -30.8587 -30.8496 -30.8496 -30.8442 -30.8441 -30.8280 -30.8280
   -20.7377 -20.7377 -20.7375 -20.7375 -20.7360 -20.7360 -20.7358 -20.7358
   -20.7146 -20.7145 -20.7142 -20.7142 -20.7115 -20.7115 -20.7110 -20.7110
   -20.7076 -20.7076 -20.7074 -20.7074 -20.7065 -20.7065 -20.7064 -20.7064
   -20.7051 -20.7051 -20.7049 -20.7049 -20.7025 -20.7025 -20.7022 -20.7022
   -20.7018 -20.7018 -20.7010 -20.7010 -20.7008 -20.7008 -20.7003 -20.7002
   -20.6996 -20.6996 -20.6992 -20.6992 -20.6976 -20.6976 -20.6973 -20.6973
   -20.6963 -20.6963 -20.6951 -20.6951 -20.6936 -20.6936 -20.6929 -20.6929
    -9.5159  -9.5159  -9.4818  -9.4818  -9.1411  -9.1410  -9.1101  -9.1101
    -8.8933  -8.8932  -8.8782  -8.8782  -8.7531  -8.7531  -8.7362  -8.7361
    -8.7198  -8.7197  -8.7003  -8.7002  -8.4718  -8.4718  -8.4191  -8.4191
     1.8579   1.8579   1.9003   1.9003   2.6795   2.6795   2.7080   2.7081
     2.7842   2.7842   2.8328   2.8328   2.8509   2.8509   2.9039   2.9039
     3.0843   3.0843   3.1051   3.1052   3.3078   3.3078   3.4059   3.4059
     3.4492   3.4492   3.6054   3.6054   3.8132   3.8132   3.8640   3.8640
     3.9288   3.9288   3.9434   3.9434   4.0337   4.0337   4.0700   4.0700
     4.3258   4.3259   4.3904   4.3904   4.6845   4.6845   4.6900   4.6900
     6.7032   6.7032   6.7665   6.7666   6.7974   6.7975   6.8106   6.8106
     6.9729   6.9729   7.0575   7.0575   7.0857   7.0857   7.1197   7.1198
     7.1784   7.1784   7.2345   7.2346   7.3299   7.3300   7.3796   7.3796
    11.0811  11.0811  11.1340  11.1340  11.2529  11.2529  11.3235  11.3235
    11.6870  11.6870  11.7558  11.7558  11.8000  11.8000  11.8440  11.8440
    12.1529  12.1529  12.2798  12.2798  12.3213  12.3213  12.4091  12.4091
    16.2491  16.2491  16.3211  16.3211  16.6630  16.6631  16.7205  16.7205
    17.1701  17.1702  17.2343  17.2343  17.3950

     the Fermi energy is     8.5049 ev

!    total energy              =   -6261.09681533 Ry
     Harris-Foulkes estimate   =   -6261.09681533 Ry
     estimated scf accuracy    <          6.0E-11 Ry

     The total energy is the sum of the following terms:

     one-electron contribution =   -4813.76661989 Ry
     hartree contribution      =    2638.64897690 Ry
     xc contribution           =    -965.68017990 Ry
     ewald contribution        =   -3120.29899243 Ry
     smearing contrib. (-TS)   =      -0.00000000 Ry

     convergence has been achieved in  16 iterations

     Forces acting on atoms (cartesian axes, Ry/au):

     atom    1 type  1   force =    -0.00795052    0.01573829    0.00899807
     atom    2 type  1   force =     0.00966075   -0.01641293   -0.00832568
     atom    3 type  1   force =     0.00795052   -0.01573829    0.00899807
     atom    4 type  1   force =    -0.00966075    0.01641293   -0.00832568
     atom    5 type  1   force =     0.00795052    0.01573829   -0.00899807
     atom    6 type  1   force =    -0.00966075   -0.01641293    0.00832568
     atom    7 type  1   force =    -0.00795052   -0.01573829   -0.00899807
     atom    8 type  1   force =     0.00966075    0.01641293    0.00832568
     atom    9 type  2   force =    -0.00002231   -0.00871137   -0.00114348
     atom   10 type  2   force =    -0.00056936    0.00857088    0.00130765
     atom   11 type  2   force =     0.00002231    0.00871137   -0.00114348
     atom   12 type  2   force =     0.00056936   -0.00857088    0.00130765
     atom   13 type  2   force =     0.00002231   -0.00871137    0.00114348
     atom   14 type  2   force =     0.00056936    0.00857088   -0.00130765
     atom   15 type  2   force =    -0.00002231    0.00871137    0.00114348
     atom   16 type  2   force =    -0.00056936   -0.00857088   -0.00130765
     atom   17 type  2   force =    -0.00475358   -0.00068817    0.00015293
     atom   18 type  2   force =     0.00524096    0.00180895    0.00038317
     atom   19 type  2   force =     0.00475358    0.00068817    0.00015293
     atom   20 type  2   force =    -0.00524096   -0.00180895    0.00038317
     atom   21 type  2   force =     0.00475358   -0.00068817   -0.00015293
     atom   22 type  2   force =    -0.00524096    0.00180895   -0.00038317
     atom   23 type  2   force =    -0.00475358    0.00068817   -0.00015293
     atom   24 type  2   force =     0.00524096   -0.00180895   -0.00038317
     atom   25 type  2   force =    -0.00270763    0.00439917    0.00820927
     atom   26 type  2   force =     0.00167111   -0.00380429   -0.00719602
     atom   27 type  2   force =     0.00270763   -0.00439917    0.00820927
     atom   28 type  2   force =    -0.00167111    0.00380429   -0.00719602
     atom   29 type  2   force =     0.00270763    0.00439917   -0.00820927
     atom   30 type  2   force =    -0.00167111   -0.00380429    0.00719602
     atom   31 type  2   force =    -0.00270763   -0.00439917   -0.00820927
     atom   32 type  2   force =     0.00167111    0.00380429    0.00719602

     Total force =     0.000000     Total SCF correction =     0.000000

     Computing stress (Cartesian axis) and pressure

          total   stress  (Ry/bohr**3)                   (kbar)     P=    1.59
   0.00001513   0.00000000   0.00000000          2.23      0.00      0.00
   0.00000000   0.00000075   0.00000000          0.00      0.11      0.00
   0.00000000   0.00000000   0.00001646          0.00      0.00      2.42

     Writing output data file Landau_17.save

     General routines

     Parallel routines

   This run was terminated on:   6:25:35  24Mar2020

   JOB DONE.