     Program PWSCF v.6.2 (svn rev. 14038) starts on 29Apr2019 at 16:55:56

     K-points division:     npool     =      64
     Reading input from rscf.in

     Current dimensions of program PWSCF are:
     Max number of different atomic species (ntypx) = 10
     Max number of k-points (npk) =  40000
     Max angular momentum in pseudopotentials (lmaxx) =  3

     Subspace diagonalization in iterative solution of the eigenvalue problem:
     a serial algorithm will be used

     bravais-lattice index     =            0
     lattice parameter (alat)  =      13.8397  a.u.
     unit-cell volume          =    2804.9816 (a.u.)^3
     number of atoms/cell      =           32
     number of atomic types    =            2
     number of electrons       =       368.00
     number of Kohn-Sham states=          221
     kinetic-energy cutoff     =     120.0000  Ry
     charge density cutoff     =     480.0000  Ry
     convergence threshold     =      1.0E-08
     mixing beta               =       0.7000
     number of iterations used =            8  plain     mixing
     Exchange-correlation      = SLA PW NOGX NOGC ( 1  4  0  0 0 0)
     nstep                     =           50

     celldm(1)=  13.839685  celldm(2)=   0.000000  celldm(3)=   0.000000
     celldm(4)=   0.000000  celldm(5)=   0.000000  celldm(6)=   0.000000

     crystal axes: (cart. coord. in units of alat)
               a(1) = (   1.000000   0.000000   0.000000 )
               a(2) = (   0.000000   1.058160   0.000000 )
               a(3) = (   0.000000   0.000000   1.000000 )

     reciprocal axes: (cart. coord. in units 2 pi/alat)
               b(1) = (  1.000000  0.000000  0.000000 )
               b(2) = (  0.000000  0.945037  0.000000 )
               b(3) = (  0.000000  0.000000  1.000000 )

     PseudoPot. # 1 for W  read from file:
     /cluster/scratch/mnoe/QE/pps/W_ONCV_LDA-4.0.upf
     MD5 check sum: ba0307d5d4cd419d6f1d13dc49d7c13a
     Pseudo is Norm-conserving + core correction, Zval = 28.0
     Generated using ONCVPSP code by D. R. Hamann
     Using radial grid of 1380 points,  8 beta functions with:
                l(1) =   0
                l(2) =   0
                l(3) =   1
                l(4) =   1
                l(5) =   2
                l(6) =   2
                l(7) =   3
                l(8) =   3

     PseudoPot. # 2 for O  read from file:
     /cluster/scratch/mnoe/QE/pps/O_ONCV_LDA-3.0.upf
     MD5 check sum: a1bd6164e7280c17a38c229939bfbd54
     Pseudo is Norm-conserving + core correction, Zval =  6.0
     Generated using ONCVPSP code by D. R. Hamann
     Using radial grid of  926 points,  5 beta functions with:
                l(1) =   0
                l(2) =   0
                l(3) =   1
                l(4) =   1
                l(5) =   2

     atomic species   valence    mass     pseudopotential
        W             28.00   183.84000     W ( 1.00)
        O              6.00    15.99940     O ( 1.00)

      8 Sym. Ops., with inversion, found ( 6 have fractional translation)

   Cartesian axes

     site n.     atom                  positions (alat units)
         1           W   tau(   1) = (   0.2430600   0.2982530   0.0065500  )
         2           W   tau(   2) = (   0.7569400   0.7599071   0.9934500  )
         3           W   tau(   3) = (   0.2569400   0.2308271   0.5065500  )
         4           W   tau(   4) = (   0.7430600   0.8273330   0.4934500  )
         5           W   tau(   5) = (   0.7569400   0.2982530   0.4934500  )
         6           W   tau(   6) = (   0.2430600   0.7599071   0.5065500  )
         7           W   tau(   7) = (   0.7430600   0.2308271   0.9934500  )
         8           W   tau(   8) = (   0.2569400   0.8273330   0.0065500  )
         9           O   tau(   9) = (   0.2372000   0.0088039   0.0020400  )
        10           O   tau(  10) = (   0.7628000   1.0493562   0.9979600  )
        11           O   tau(  11) = (   0.2628000   0.5202761   0.5020400  )
        12           O   tau(  12) = (   0.7372000   0.5378839   0.4979600  )
        13           O   tau(  13) = (   0.7628000   0.0088039   0.4979600  )
        14           O   tau(  14) = (   0.2372000   1.0493562   0.5020400  )
        15           O   tau(  15) = (   0.7372000   0.5202761   0.9979600  )
        16           O   tau(  16) = (   0.2628000   0.5378839   0.0020400  )
        17           O   tau(  17) = (   0.5019000   0.2506464   0.4495400  )
        18           O   tau(  18) = (   0.4981000   0.8075137   0.5504600  )
        19           O   tau(  19) = (   0.9981000   0.2784337   0.9495400  )
        20           O   tau(  20) = (   0.0019000   0.7797264   0.0504600  )
        21           O   tau(  21) = (   0.4981000   0.2506464   0.0504600  )
        22           O   tau(  22) = (   0.5019000   0.8075137   0.9495400  )
        23           O   tau(  23) = (   0.0019000   0.2784337   0.5504600  )
        24           O   tau(  24) = (   0.9981000   0.7797264   0.4495400  )
        25           O   tau(  25) = (   0.6995400   0.2615031   0.7471200  )
        26           O   tau(  26) = (   0.3004600   0.7966570   0.2528800  )
        27           O   tau(  27) = (   0.8004600   0.2675769   0.2471200  )
        28           O   tau(  28) = (   0.1995400   0.7905832   0.7528800  )
        29           O   tau(  29) = (   0.3004600   0.2615031   0.7528800  )
        30           O   tau(  30) = (   0.6995400   0.7966570   0.2471200  )
        31           O   tau(  31) = (   0.1995400   0.2675769   0.2528800  )
        32           O   tau(  32) = (   0.8004600   0.7905832   0.7471200  )

     number of k points=    64  gaussian smearing, width (Ry)=  0.0007
                       cart. coord. in units 2pi/alat
        k(    1) = (   0.0000000   0.0000000   0.0000000), wk =   0.0092593
        k(    2) = (   0.0000000   0.0000000   0.1666667), wk =   0.0185185
        k(    3) = (   0.0000000   0.0000000   0.3333333), wk =   0.0185185
        k(    4) = (   0.0000000   0.0000000  -0.5000000), wk =   0.0092593
        k(    5) = (   0.0000000   0.1575061   0.0000000), wk =   0.0185185
        k(    6) = (   0.0000000   0.1575061   0.1666667), wk =   0.0370370
        k(    7) = (   0.0000000   0.1575061   0.3333333), wk =   0.0370370
        k(    8) = (   0.0000000   0.1575061  -0.5000000), wk =   0.0185185
        k(    9) = (   0.0000000   0.3150122   0.0000000), wk =   0.0185185
        k(   10) = (   0.0000000   0.3150122   0.1666667), wk =   0.0370370
        k(   11) = (   0.0000000   0.3150122   0.3333333), wk =   0.0370370
        k(   12) = (   0.0000000   0.3150122  -0.5000000), wk =   0.0185185
        k(   13) = (   0.0000000  -0.4725183   0.0000000), wk =   0.0092593
        k(   14) = (   0.0000000  -0.4725183   0.1666667), wk =   0.0185185
        k(   15) = (   0.0000000  -0.4725183   0.3333333), wk =   0.0185185
        k(   16) = (   0.0000000  -0.4725183  -0.5000000), wk =   0.0092593
        k(   17) = (   0.1666667   0.0000000   0.1666667), wk =   0.0370370
        k(   18) = (   0.1666667   0.0000000   0.3333333), wk =   0.0370370
        k(   19) = (   0.1666667   0.0000000  -0.5000000), wk =   0.0185185
        k(   20) = (   0.1666667   0.1575061   0.1666667), wk =   0.0740741
        k(   21) = (   0.1666667   0.1575061   0.3333333), wk =   0.0740741
        k(   22) = (   0.1666667   0.1575061  -0.5000000), wk =   0.0370370
        k(   23) = (   0.1666667   0.3150122   0.1666667), wk =   0.0740741
        k(   24) = (   0.1666667   0.3150122   0.3333333), wk =   0.0740741
        k(   25) = (   0.1666667   0.3150122  -0.5000000), wk =   0.0370370
        k(   26) = (   0.1666667  -0.4725183   0.1666667), wk =   0.0370370
        k(   27) = (   0.1666667  -0.4725183   0.3333333), wk =   0.0370370
        k(   28) = (   0.1666667  -0.4725183  -0.5000000), wk =   0.0185185
        k(   29) = (   0.3333333   0.0000000   0.3333333), wk =   0.0370370
        k(   30) = (   0.3333333   0.0000000  -0.5000000), wk =   0.0185185
        k(   31) = (   0.3333333   0.1575061   0.3333333), wk =   0.0740741
        k(   32) = (   0.3333333   0.1575061  -0.5000000), wk =   0.0370370
        k(   33) = (   0.3333333   0.3150122   0.3333333), wk =   0.0740741
        k(   34) = (   0.3333333   0.3150122  -0.5000000), wk =   0.0370370
        k(   35) = (   0.3333333  -0.4725183   0.3333333), wk =   0.0370370
        k(   36) = (   0.3333333  -0.4725183  -0.5000000), wk =   0.0185185
        k(   37) = (  -0.5000000   0.0000000  -0.5000000), wk =   0.0092593
        k(   38) = (  -0.5000000   0.1575061  -0.5000000), wk =   0.0185185
        k(   39) = (  -0.5000000   0.3150122  -0.5000000), wk =   0.0185185
        k(   40) = (  -0.5000000  -0.4725183  -0.5000000), wk =   0.0092593
        k(   41) = (   0.1666667   0.0000000   0.0000000), wk =   0.0185185
        k(   42) = (   0.3333333   0.0000000   0.0000000), wk =   0.0185185
        k(   43) = (  -0.5000000   0.0000000   0.0000000), wk =   0.0092593
        k(   44) = (   0.1666667  -0.1575061   0.0000000), wk =   0.0370370
        k(   45) = (   0.3333333  -0.1575061   0.0000000), wk =   0.0370370
        k(   46) = (  -0.5000000  -0.1575061   0.0000000), wk =   0.0185185
        k(   47) = (   0.1666667  -0.3150122   0.0000000), wk =   0.0370370
        k(   48) = (   0.3333333  -0.3150122   0.0000000), wk =   0.0370370
        k(   49) = (  -0.5000000  -0.3150122   0.0000000), wk =   0.0185185
        k(   50) = (   0.1666667   0.4725183   0.0000000), wk =   0.0185185
        k(   51) = (   0.3333333   0.4725183   0.0000000), wk =   0.0185185
        k(   52) = (  -0.5000000   0.4725183   0.0000000), wk =   0.0092593
        k(   53) = (   0.3333333   0.0000000   0.1666667), wk =   0.0370370
        k(   54) = (  -0.5000000   0.0000000   0.1666667), wk =   0.0185185
        k(   55) = (   0.3333333  -0.1575061   0.1666667), wk =   0.0740741
        k(   56) = (  -0.5000000  -0.1575061   0.1666667), wk =   0.0370370
        k(   57) = (   0.3333333  -0.3150122   0.1666667), wk =   0.0740741
        k(   58) = (  -0.5000000  -0.3150122   0.1666667), wk =   0.0370370
        k(   59) = (   0.3333333   0.4725183   0.1666667), wk =   0.0370370
        k(   60) = (  -0.5000000   0.4725183   0.1666667), wk =   0.0185185
        k(   61) = (  -0.5000000   0.0000000   0.3333333), wk =   0.0185185
        k(   62) = (  -0.5000000  -0.1575061   0.3333333), wk =   0.0370370
        k(   63) = (  -0.5000000  -0.3150122   0.3333333), wk =   0.0370370
        k(   64) = (  -0.5000000   0.4725183   0.3333333), wk =   0.0185185

     Initial potential from superposition of free atoms

     starting charge  367.99656, renormalised to  368.00000
     Starting wfc are  232 randomized atomic wfcs

     Self-consistent Calculation

     iteration #  1     ecut=   120.00 Ry     beta= 0.70
     Davidson diagonalization with overlap
     ethr =  1.00E-02,  avg # of iterations =  5.0

     total energy              =   -6253.97219290 Ry
     Harris-Foulkes estimate   =   -6264.58142061 Ry
     estimated scf accuracy    <      13.43110918 Ry

[...]

     End of self-consistent calculation

[...]
End final coordinates

     A final scf calculation at the relaxed structure.
     The G-vectors are recalculated for the final unit cell
     Results may differ from those at the preceding step.

     bravais-lattice index     =            0
     lattice parameter (alat)  =      13.8397  a.u.
     unit-cell volume          =    2799.1083 (a.u.)^3
     number of atoms/cell      =           32
     number of atomic types    =            2
     number of electrons       =       368.00
     number of Kohn-Sham states=          221
     kinetic-energy cutoff     =     120.0000  Ry
     charge density cutoff     =     480.0000  Ry
     convergence threshold     =      1.0E-10
     mixing beta               =       0.7000
     number of iterations used =            8  plain     mixing
     Exchange-correlation      = SLA PW NOGX NOGC ( 1  4  0  0 0 0)

     celldm(1)=  13.839685  celldm(2)=   0.000000  celldm(3)=   0.000000
     celldm(4)=   0.000000  celldm(5)=   0.000000  celldm(6)=   0.000000

     crystal axes: (cart. coord. in units of alat)
               a(1) = (   0.999755   0.000000   0.000000 )
               a(2) = (   0.000000   1.055264   0.000000 )
               a(3) = (   0.000000   0.000000   1.000890 )

     reciprocal axes: (cart. coord. in units 2 pi/alat)
               b(1) = (  1.000245  0.000000  0.000000 )
               b(2) = (  0.000000  0.947630  0.000000 )
               b(3) = (  0.000000  0.000000  0.999111 )

     PseudoPot. # 1 for W  read from file:
     /cluster/scratch/mnoe/QE/pps/W_ONCV_LDA-4.0.upf
     MD5 check sum: ba0307d5d4cd419d6f1d13dc49d7c13a
     Pseudo is Norm-conserving + core correction, Zval = 28.0
     Generated using ONCVPSP code by D. R. Hamann
     Using radial grid of 1380 points,  8 beta functions with:
                l(1) =   0
                l(2) =   0
                l(3) =   1
                l(4) =   1
                l(5) =   2
                l(6) =   2
                l(7) =   3
                l(8) =   3

     PseudoPot. # 2 for O  read from file:
     /cluster/scratch/mnoe/QE/pps/O_ONCV_LDA-3.0.upf
     MD5 check sum: a1bd6164e7280c17a38c229939bfbd54
     Pseudo is Norm-conserving + core correction, Zval =  6.0
     Generated using ONCVPSP code by D. R. Hamann
     Using radial grid of  926 points,  5 beta functions with:
                l(1) =   0
                l(2) =   0
                l(3) =   1
                l(4) =   1
                l(5) =   2

     atomic species   valence    mass     pseudopotential
        W             28.00   183.84000     W ( 1.00)
        O              6.00    15.99940     O ( 1.00)

      8 Sym. Ops., with inversion, found ( 6 have fractional translation)

   Cartesian axes

     site n.     atom                  positions (alat units)
         1           W   tau(   1) = (   0.2430004   0.2974367   0.0065558  )
         2           W   tau(   2) = (   0.7567543   0.7578274   0.9943344  )
         3           W   tau(   3) = (   0.2568770   0.2301953   0.5070010  )
         4           W   tau(   4) = (   0.7428777   0.8250688   0.4938892  )
         5           W   tau(   5) = (   0.7567543   0.2974367   0.4938892  )
         6           W   tau(   6) = (   0.2430004   0.7578274   0.5070010  )
         7           W   tau(   7) = (   0.7428777   0.2301953   0.9943344  )
         8           W   tau(   8) = (   0.2568770   0.8250688   0.0065558  )
         9           O   tau(   9) = (   0.2371418   0.0087798   0.0020418  )
        10           O   tau(  10) = (   0.7626128   1.0464843   0.9988484  )
        11           O   tau(  11) = (   0.2627355   0.5188522   0.5024869  )
        12           O   tau(  12) = (   0.7370192   0.5364118   0.4984033  )
        13           O   tau(  13) = (   0.7626128   0.0087798   0.4984033  )
        14           O   tau(  14) = (   0.2371418   1.0464843   0.5024869  )
        15           O   tau(  15) = (   0.7370192   0.5188522   0.9988484  )
        16           O   tau(  16) = (   0.2627355   0.5364118   0.0020418  )
        17           O   tau(  17) = (   0.5017769   0.2499604   0.4499402  )
        18           O   tau(  18) = (   0.4979778   0.8053037   0.5509500  )
        19           O   tau(  19) = (   0.9978551   0.2776717   0.9503853  )
        20           O   tau(  20) = (   0.0018995   0.7775925   0.0505049  )
        21           O   tau(  21) = (   0.4979778   0.2499604   0.0505049  )
        22           O   tau(  22) = (   0.5017769   0.8053037   0.9503853  )
        23           O   tau(  23) = (   0.0018995   0.2776717   0.5509500  )
        24           O   tau(  24) = (   0.9978551   0.7775925   0.4499402  )
        25           O   tau(  25) = (   0.6993684   0.2607874   0.7477851  )
        26           O   tau(  26) = (   0.3003863   0.7944767   0.2531051  )
        27           O   tau(  27) = (   0.8002636   0.2668446   0.2473400  )
        28           O   tau(  28) = (   0.1994911   0.7884195   0.7535502  )
        29           O   tau(  29) = (   0.3003863   0.2607874   0.7535502  )
        30           O   tau(  30) = (   0.6993684   0.7944767   0.2473400  )
        31           O   tau(  31) = (   0.1994911   0.2668446   0.2531051  )
        32           O   tau(  32) = (   0.8002636   0.7884195   0.7477851  )

     number of k points=    64  gaussian smearing, width (Ry)=  0.0007
                       cart. coord. in units 2pi/alat
        k(    1) = (   0.0000000   0.0000000   0.0000000), wk =   0.0092593
        k(    2) = (   0.0000000   0.0000000   0.1665184), wk =   0.0185185
        k(    3) = (   0.0000000   0.0000000   0.3330369), wk =   0.0185185
        k(    4) = (   0.0000000   0.0000000  -0.4995553), wk =   0.0092593
        k(    5) = (   0.0000000   0.1579383   0.0000000), wk =   0.0185185
        k(    6) = (   0.0000000   0.1579383   0.1665184), wk =   0.0370370
        k(    7) = (   0.0000000   0.1579383   0.3330369), wk =   0.0370370
        k(    8) = (   0.0000000   0.1579383  -0.4995553), wk =   0.0185185
        k(    9) = (   0.0000000   0.3158767   0.0000000), wk =   0.0185185
        k(   10) = (   0.0000000   0.3158767   0.1665184), wk =   0.0370370
        k(   11) = (   0.0000000   0.3158767   0.3330369), wk =   0.0370370
        k(   12) = (   0.0000000   0.3158767  -0.4995553), wk =   0.0185185
        k(   13) = (   0.0000000  -0.4738150   0.0000000), wk =   0.0092593
        k(   14) = (   0.0000000  -0.4738150   0.1665184), wk =   0.0185185
        k(   15) = (   0.0000000  -0.4738150   0.3330369), wk =   0.0185185
        k(   16) = (   0.0000000  -0.4738150  -0.4995553), wk =   0.0092593
        k(   17) = (   0.1667076   0.0000000   0.1665184), wk =   0.0370370
        k(   18) = (   0.1667076   0.0000000   0.3330369), wk =   0.0370370
        k(   19) = (   0.1667076   0.0000000  -0.4995553), wk =   0.0185185
        k(   20) = (   0.1667076   0.1579383   0.1665184), wk =   0.0740741
        k(   21) = (   0.1667076   0.1579383   0.3330369), wk =   0.0740741
        k(   22) = (   0.1667076   0.1579383  -0.4995553), wk =   0.0370370
        k(   23) = (   0.1667076   0.3158767   0.1665184), wk =   0.0740741
        k(   24) = (   0.1667076   0.3158767   0.3330369), wk =   0.0740741
        k(   25) = (   0.1667076   0.3158767  -0.4995553), wk =   0.0370370
        k(   26) = (   0.1667076  -0.4738150   0.1665184), wk =   0.0370370
        k(   27) = (   0.1667076  -0.4738150   0.3330369), wk =   0.0370370
        k(   28) = (   0.1667076  -0.4738150  -0.4995553), wk =   0.0185185
        k(   29) = (   0.3334151   0.0000000   0.3330369), wk =   0.0370370
        k(   30) = (   0.3334151   0.0000000  -0.4995553), wk =   0.0185185
        k(   31) = (   0.3334151   0.1579383   0.3330369), wk =   0.0740741
        k(   32) = (   0.3334151   0.1579383  -0.4995553), wk =   0.0370370
        k(   33) = (   0.3334151   0.3158767   0.3330369), wk =   0.0740741
        k(   34) = (   0.3334151   0.3158767  -0.4995553), wk =   0.0370370
        k(   35) = (   0.3334151  -0.4738150   0.3330369), wk =   0.0370370
        k(   36) = (   0.3334151  -0.4738150  -0.4995553), wk =   0.0185185
        k(   37) = (  -0.5001227   0.0000000  -0.4995553), wk =   0.0092593
        k(   38) = (  -0.5001227   0.1579383  -0.4995553), wk =   0.0185185
        k(   39) = (  -0.5001227   0.3158767  -0.4995553), wk =   0.0185185
        k(   40) = (  -0.5001227  -0.4738150  -0.4995553), wk =   0.0092593
        k(   41) = (   0.1667076   0.0000000   0.0000000), wk =   0.0185185
        k(   42) = (   0.3334151   0.0000000   0.0000000), wk =   0.0185185
        k(   43) = (  -0.5001227   0.0000000   0.0000000), wk =   0.0092593
        k(   44) = (   0.1667076  -0.1579383   0.0000000), wk =   0.0370370
        k(   45) = (   0.3334151  -0.1579383   0.0000000), wk =   0.0370370
        k(   46) = (  -0.5001227  -0.1579383   0.0000000), wk =   0.0185185
        k(   47) = (   0.1667076  -0.3158767   0.0000000), wk =   0.0370370
        k(   48) = (   0.3334151  -0.3158767   0.0000000), wk =   0.0370370
        k(   49) = (  -0.5001227  -0.3158767   0.0000000), wk =   0.0185185
        k(   50) = (   0.1667076   0.4738150   0.0000000), wk =   0.0185185
        k(   51) = (   0.3334151   0.4738150   0.0000000), wk =   0.0185185
        k(   52) = (  -0.5001227   0.4738150   0.0000000), wk =   0.0092593
        k(   53) = (   0.3334151   0.0000000   0.1665184), wk =   0.0370370
        k(   54) = (  -0.5001227   0.0000000   0.1665184), wk =   0.0185185
        k(   55) = (   0.3334151  -0.1579383   0.1665184), wk =   0.0740741
        k(   56) = (  -0.5001227  -0.1579383   0.1665184), wk =   0.0370370
        k(   57) = (   0.3334151  -0.3158767   0.1665184), wk =   0.0740741
        k(   58) = (  -0.5001227  -0.3158767   0.1665184), wk =   0.0370370
        k(   59) = (   0.3334151   0.4738150   0.1665184), wk =   0.0370370
        k(   60) = (  -0.5001227   0.4738150   0.1665184), wk =   0.0185185
        k(   61) = (  -0.5001227   0.0000000   0.3330369), wk =   0.0185185
        k(   62) = (  -0.5001227  -0.1579383   0.3330369), wk =   0.0370370
        k(   63) = (  -0.5001227  -0.3158767   0.3330369), wk =   0.0370370
        k(   64) = (  -0.5001227   0.4738150   0.3330369), wk =   0.0185185

     Initial potential from superposition of free atoms

     starting charge  367.99656, renormalised to  368.00000
     Starting wfc are  232 randomized atomic wfcs

     Writing output data file Landau_15.save

     Self-consistent Calculation

[...]

     total energy              =   -6261.11097966 Ry
     Harris-Foulkes estimate   =   -6261.11097967 Ry
     estimated scf accuracy    <          8.4E-10 Ry

     iteration # 14     ecut=   120.00 Ry     beta= 0.70
     Davidson diagonalization with overlap
     ethr =  2.28E-13,  avg # of iterations =  3.0

     End of self-consistent calculation

[...]

          k = 0.3334 0.4738 0.1665 ( 62136 PWs)   bands (ev):

[...]

          k =-0.5001 0.4738 0.3330 ( 62044 PWs)   bands (ev):

   -66.1319 -66.1319 -66.1319 -66.1319 -66.1314 -66.1314 -66.1314 -66.1314
   -30.4972 -30.4972 -30.4968 -30.4968 -30.4945 -30.4945 -30.4940 -30.4940
   -30.4532 -30.4532 -30.4531 -30.4531 -30.4265 -30.4265 -30.4260 -30.4260
   -30.4246 -30.4246 -30.4239 -30.4239 -30.4035 -30.4035 -30.4034 -30.4034
   -20.2928 -20.2928 -20.2928 -20.2928 -20.2927 -20.2927 -20.2927 -20.2926
   -20.2718 -20.2718 -20.2718 -20.2718 -20.2714 -20.2714 -20.2714 -20.2714
   -20.2695 -20.2695 -20.2695 -20.2695 -20.2693 -20.2693 -20.2692 -20.2692
   -20.2685 -20.2685 -20.2684 -20.2684 -20.2682 -20.2682 -20.2682 -20.2682
   -20.2583 -20.2583 -20.2583 -20.2583 -20.2568 -20.2568 -20.2568 -20.2568
   -20.2562 -20.2562 -20.2562 -20.2562 -20.2545 -20.2545 -20.2545 -20.2545
   -20.2519 -20.2519 -20.2518 -20.2518 -20.2508 -20.2508 -20.2508 -20.2507
    -9.1553  -9.1553  -9.1485  -9.1485  -8.7570  -8.7569  -8.7398  -8.7398
    -8.5171  -8.5171  -8.5010  -8.5010  -8.3584  -8.3584  -8.3367  -8.3367
    -8.3028  -8.3028  -8.2853  -8.2853  -8.0794  -8.0794  -8.0784  -8.0784
     2.2943   2.2943   2.3039   2.3039   2.9965   2.9966   3.0413   3.0413
     3.1494   3.1494   3.1555   3.1555   3.2784   3.2784   3.2864   3.2864
     3.4407   3.4407   3.4877   3.4877   3.6450   3.6450   3.6901   3.6901
     3.8047   3.8047   3.9192   3.9192   4.2797   4.2797   4.3055   4.3055
     4.3640   4.3640   4.4331   4.4331   4.5121   4.5121   4.6207   4.6208
     4.7003   4.7003   4.8534   4.8534   5.0900   5.0900   5.1166   5.1166
     7.0275   7.0275   7.1073   7.1073   7.2010   7.2011   7.2186   7.2186
     7.2978   7.2979   7.3407   7.3407   7.4029   7.4029   7.4291   7.4291
     7.5094   7.5094   7.5853   7.5853   7.6245   7.6245   7.6610   7.6610
    11.4782  11.4782  11.5067  11.5067  11.7743  11.7743  11.8511  11.8511
    12.2171  12.2171  12.2589  12.2589  12.3488  12.3488  12.4101  12.4101
    12.5463  12.5463  12.6504  12.6504  13.0015  13.0015  13.0775  13.0775
    16.4780  16.4780  16.5256  16.5256  17.0873  17.0874  17.1488  17.1489
    17.3103  17.3104  17.3874  17.3880  17.4267

     the Fermi energy is     8.9930 ev

!    total energy              =   -6261.11097966 Ry
     Harris-Foulkes estimate   =   -6261.11097966 Ry
     estimated scf accuracy    <          8.8E-11 Ry

     The total energy is the sum of the following terms:

     one-electron contribution =   -4710.84448318 Ry
     hartree contribution      =    2592.63257833 Ry
     xc contribution           =    -965.66763775 Ry
     ewald contribution        =   -3177.23143707 Ry
     smearing contrib. (-TS)   =      -0.00000000 Ry

     convergence has been achieved in  14 iterations

     Forces acting on atoms (cartesian axes, Ry/au):

     atom    1 type  1   force =    -0.00175057   -0.00161558    0.00096344
     atom    2 type  1   force =     0.00175057    0.00161558   -0.00096344
     atom    3 type  1   force =     0.00175057    0.00161558    0.00096344
     atom    4 type  1   force =    -0.00175057   -0.00161558   -0.00096344
     atom    5 type  1   force =     0.00175057   -0.00161558   -0.00096344
     atom    6 type  1   force =    -0.00175057    0.00161558    0.00096344
     atom    7 type  1   force =    -0.00175057    0.00161558   -0.00096344
     atom    8 type  1   force =     0.00175057   -0.00161558    0.00096344
     atom    9 type  2   force =    -0.00041504    0.00097458    0.00030928
     atom   10 type  2   force =     0.00041504   -0.00097458   -0.00030928
     atom   11 type  2   force =     0.00041504   -0.00097458    0.00030928
     atom   12 type  2   force =    -0.00041504    0.00097458   -0.00030928
     atom   13 type  2   force =     0.00041504    0.00097458   -0.00030928
     atom   14 type  2   force =    -0.00041504   -0.00097458    0.00030928
     atom   15 type  2   force =    -0.00041504   -0.00097458   -0.00030928
     atom   16 type  2   force =     0.00041504    0.00097458    0.00030928
     atom   17 type  2   force =    -0.00088876    0.00017783    0.00071908
     atom   18 type  2   force =     0.00088876   -0.00017783   -0.00071908
     atom   19 type  2   force =     0.00088876   -0.00017783    0.00071908
     atom   20 type  2   force =    -0.00088876    0.00017783   -0.00071908
     atom   21 type  2   force =     0.00088876    0.00017783   -0.00071908
     atom   22 type  2   force =    -0.00088876   -0.00017783    0.00071908
     atom   23 type  2   force =    -0.00088876   -0.00017783   -0.00071908
     atom   24 type  2   force =     0.00088876    0.00017783    0.00071908
     atom   25 type  2   force =     0.00006261   -0.00111063    0.00037976
     atom   26 type  2   force =    -0.00006261    0.00111063   -0.00037976
     atom   27 type  2   force =    -0.00006261    0.00111063    0.00037976
     atom   28 type  2   force =     0.00006261   -0.00111063   -0.00037976
     atom   29 type  2   force =    -0.00006261   -0.00111063   -0.00037976
     atom   30 type  2   force =     0.00006261    0.00111063    0.00037976
     atom   31 type  2   force =     0.00006261    0.00111063   -0.00037976
     atom   32 type  2   force =    -0.00006261   -0.00111063    0.00037976

     Total force =     0.000000     Total SCF correction =     0.000000

     Computing stress (Cartesian axis) and pressure

          total   stress  (Ry/bohr**3)                   (kbar)     P=   -0.04
  -0.00000023   0.00000000   0.00000000         -0.03      0.00      0.00
   0.00000000  -0.00000062   0.00000000          0.00     -0.09      0.00
   0.00000000   0.00000000  -0.00000003          0.00      0.00     -0.00

     Writing output data file Landau_15.save

     General routines

     Parallel routines

   This run was terminated on:  19: 0: 9  29Apr2019

   JOB DONE.