     Program PWSCF v.6.2 (svn rev. 14038) starts on 23Mar2020 at  4: 2: 5

     K-points division:     npool     =      40
     Reading input from rscf.in

     Current dimensions of program PWSCF are:
     Max number of different atomic species (ntypx) = 10
     Max number of k-points (npk) =  40000
     Max angular momentum in pseudopotentials (lmaxx) =  3

     Subspace diagonalization in iterative solution of the eigenvalue problem:
     a serial algorithm will be used

     bravais-lattice index     =            0
     lattice parameter (alat)  =      13.8397  a.u.
     unit-cell volume          =    2804.9816 (a.u.)^3
     number of atoms/cell      =           32
     number of atomic types    =            2
     number of electrons       =       368.00
     number of Kohn-Sham states=          221
     kinetic-energy cutoff     =     120.0000  Ry
     charge density cutoff     =     480.0000  Ry
     convergence threshold     =      1.0E-08
     mixing beta               =       0.7000
     number of iterations used =            8  plain     mixing
     Exchange-correlation      = SLA PW NOGX NOGC ( 1  4  0  0 0 0)
     nstep                     =           50

     celldm(1)=  13.839685  celldm(2)=   0.000000  celldm(3)=   0.000000
     celldm(4)=   0.000000  celldm(5)=   0.000000  celldm(6)=   0.000000

     crystal axes: (cart. coord. in units of alat)
               a(1) = (   1.000000   0.000000   0.000000 )
               a(2) = (   0.000000   1.058160   0.000000 )
               a(3) = (   0.000000   0.000000   1.000000 )

     reciprocal axes: (cart. coord. in units 2 pi/alat)
               b(1) = (  1.000000  0.000000  0.000000 )
               b(2) = (  0.000000  0.945037  0.000000 )
               b(3) = (  0.000000  0.000000  1.000000 )

     PseudoPot. # 1 for W  read from file:
     /cluster/scratch/mnoe/QE/pps/W_ONCV_LDA-4.0.upf
     MD5 check sum: ba0307d5d4cd419d6f1d13dc49d7c13a
     Pseudo is Norm-conserving + core correction, Zval = 28.0
     Generated using ONCVPSP code by D. R. Hamann
     Using radial grid of 1380 points,  8 beta functions with:
                l(1) =   0
                l(2) =   0
                l(3) =   1
                l(4) =   1
                l(5) =   2
                l(6) =   2
                l(7) =   3
                l(8) =   3

     PseudoPot. # 2 for O  read from file:
     /cluster/scratch/mnoe/QE/pps/O_ONCV_LDA-3.0.upf
     MD5 check sum: a1bd6164e7280c17a38c229939bfbd54
     Pseudo is Norm-conserving + core correction, Zval =  6.0
     Generated using ONCVPSP code by D. R. Hamann
     Using radial grid of  926 points,  5 beta functions with:
                l(1) =   0
                l(2) =   0
                l(3) =   1
                l(4) =   1
                l(5) =   2

     atomic species   valence    mass     pseudopotential
        W             28.00   183.84000     W ( 1.00)
        O              6.00    15.99940     O ( 1.00)

      8 Sym. Ops. (no inversion) found ( 7 have fractional translation)

   Cartesian axes

     site n.     atom                  positions (alat units)
         1           W   tau(   1) = (   0.2194255   0.2964573  -0.0008755  )
         2           W   tau(   2) = (   0.7508755   0.7617028  -0.0305745  )
         3           W   tau(   3) = (   0.2805745   0.2326228   0.4991245  )
         4           W   tau(   4) = (   0.7491245   0.8255373   0.4694255  )
         5           W   tau(   5) = (   0.7805745   0.2964573   0.5008755  )
         6           W   tau(   6) = (   0.2491245   0.7617028   0.5305745  )
         7           W   tau(   7) = (   0.7194255   0.2326228   0.0008755  )
         8           W   tau(   8) = (   0.2508755   0.8255373   0.0305745  )
         9           O   tau(   9) = (   0.2163740   0.0083147  -0.0243950  )
        10           O   tau(  10) = (   0.7743950  -0.0083147  -0.0336260  )
        11           O   tau(  11) = (   0.2836260   0.5207654   0.4756050  )
        12           O   tau(  12) = (   0.7256050   0.5373947   0.4663740  )
        13           O   tau(  13) = (   0.7836260   0.0083147   0.5243950  )
        14           O   tau(  14) = (   0.2256050  -0.0083147   0.5336260  )
        15           O   tau(  15) = (   0.7163740   0.5207654   0.0243950  )
        16           O   tau(  16) = (   0.2743950   0.5373947   0.0336260  )
        17           O   tau(  17) = (   0.5108205   0.2261791   0.4536896  )
        18           O   tau(  18) = (   0.5022185   0.8182376   0.5463104  )
        19           O   tau(  19) = (  -0.0108205   0.3029009   0.9536897  )
        20           O   tau(  20) = (  -0.0022185   0.7690026   0.0463104  )
        21           O   tau(  21) = (   0.4891795   0.2261791   0.0463104  )
        22           O   tau(  22) = (   0.4977815   0.8182376   0.9536897  )
        23           O   tau(  23) = (   0.0108205   0.3029009   0.5463104  )
        24           O   tau(  24) = (   0.0022185   0.7690026   0.4536896  )
        25           O   tau(  25) = (   0.7036896   0.2891576   0.7477815  )
        26           O   tau(  26) = (   0.2963104   0.8319811   0.2608205  )
        27           O   tau(  27) = (   0.7963104   0.2399225   0.2477816  )
        28           O   tau(  28) = (   0.2036896   0.7552592   0.7608205  )
        29           O   tau(  29) = (   0.2963104   0.2891576   0.7522185  )
        30           O   tau(  30) = (   0.7036896   0.8319811   0.2391796  )
        31           O   tau(  31) = (   0.2036896   0.2399225   0.2522185  )
        32           O   tau(  32) = (   0.7963104   0.7552592   0.7391795  )

     number of k points=    40  gaussian smearing, width (Ry)=  0.0007
                       cart. coord. in units 2pi/alat
        k(    1) = (   0.0000000   0.0000000   0.0000000), wk =   0.0092593
        k(    2) = (   0.0000000   0.0000000   0.1666667), wk =   0.0370370
        k(    3) = (   0.0000000   0.0000000   0.3333333), wk =   0.0370370
        k(    4) = (   0.0000000   0.0000000  -0.5000000), wk =   0.0185185
        k(    5) = (   0.0000000   0.1575061   0.0000000), wk =   0.0185185
        k(    6) = (   0.0000000   0.1575061   0.1666667), wk =   0.0740741
        k(    7) = (   0.0000000   0.1575061   0.3333333), wk =   0.0740741
        k(    8) = (   0.0000000   0.1575061  -0.5000000), wk =   0.0370370
        k(    9) = (   0.0000000   0.3150122   0.0000000), wk =   0.0185185
        k(   10) = (   0.0000000   0.3150122   0.1666667), wk =   0.0740741
        k(   11) = (   0.0000000   0.3150122   0.3333333), wk =   0.0740741
        k(   12) = (   0.0000000   0.3150122  -0.5000000), wk =   0.0370370
        k(   13) = (   0.0000000  -0.4725183   0.0000000), wk =   0.0092593
        k(   14) = (   0.0000000  -0.4725183   0.1666667), wk =   0.0370370
        k(   15) = (   0.0000000  -0.4725183   0.3333333), wk =   0.0370370
        k(   16) = (   0.0000000  -0.4725183  -0.5000000), wk =   0.0185185
        k(   17) = (   0.1666667   0.0000000   0.1666667), wk =   0.0370370
        k(   18) = (   0.1666667   0.0000000   0.3333333), wk =   0.0740741
        k(   19) = (   0.1666667   0.0000000  -0.5000000), wk =   0.0370370
        k(   20) = (   0.1666667   0.1575061   0.1666667), wk =   0.0740741
        k(   21) = (   0.1666667   0.1575061   0.3333333), wk =   0.1481481
        k(   22) = (   0.1666667   0.1575061  -0.5000000), wk =   0.0740741
        k(   23) = (   0.1666667   0.3150122   0.1666667), wk =   0.0740741
        k(   24) = (   0.1666667   0.3150122   0.3333333), wk =   0.1481481
        k(   25) = (   0.1666667   0.3150122  -0.5000000), wk =   0.0740741
        k(   26) = (   0.1666667  -0.4725183   0.1666667), wk =   0.0370370
        k(   27) = (   0.1666667  -0.4725183   0.3333333), wk =   0.0740741
        k(   28) = (   0.1666667  -0.4725183  -0.5000000), wk =   0.0370370
        k(   29) = (   0.3333333   0.0000000   0.3333333), wk =   0.0370370
        k(   30) = (   0.3333333   0.0000000  -0.5000000), wk =   0.0370370
        k(   31) = (   0.3333333   0.1575061   0.3333333), wk =   0.0740741
        k(   32) = (   0.3333333   0.1575061  -0.5000000), wk =   0.0740741
        k(   33) = (   0.3333333   0.3150122   0.3333333), wk =   0.0740741
        k(   34) = (   0.3333333   0.3150122  -0.5000000), wk =   0.0740741
        k(   35) = (   0.3333333  -0.4725183   0.3333333), wk =   0.0370370
        k(   36) = (   0.3333333  -0.4725183  -0.5000000), wk =   0.0370370
        k(   37) = (  -0.5000000   0.0000000  -0.5000000), wk =   0.0092593
        k(   38) = (  -0.5000000   0.1575061  -0.5000000), wk =   0.0185185
        k(   39) = (  -0.5000000   0.3150122  -0.5000000), wk =   0.0185185
        k(   40) = (  -0.5000000  -0.4725183  -0.5000000), wk =   0.0092593

     Initial potential from superposition of free atoms

     starting charge  367.99656, renormalised to  368.00000
     Starting wfc are  232 randomized atomic wfcs

     Self-consistent Calculation

     iteration #  1     ecut=   120.00 Ry     beta= 0.70
     Davidson diagonalization with overlap
     ethr =  1.00E-02,  avg # of iterations =  4.6

     total energy              =   -6253.79840027 Ry
     Harris-Foulkes estimate   =   -6264.46833476 Ry
     estimated scf accuracy    <      13.49471464 Ry

[...]

     End of self-consistent calculation

          k = 0.0000 0.0000 0.0000 ( 62239 PWs)   bands (ev):

   -66.1793 -66.1789 -66.1783 -66.1783 -66.1779 -66.1779 -66.1773 -66.1769
   -30.7077 -30.7071 -30.7030 -30.7030 -30.6113 -30.6113 -30.6069 -30.6064
   -30.4813 -30.4806 -30.4730 -30.4730 -30.4192 -30.4168 -30.4168 -30.4150
   -30.3901 -30.3901 -30.3875 -30.3823 -30.3667 -30.3631 -30.3631 -30.3592
   -20.3443 -20.3442 -20.3439 -20.3439 -20.3437 -20.3437 -20.3434 -20.3433
   -20.3314 -20.3314 -20.3314 -20.3313 -20.3300 -20.3298 -20.3297 -20.3297
   -20.3274 -20.3274 -20.3272 -20.3272 -20.3225 -20.3225 -20.3224 -20.3222
   -20.3117 -20.3116 -20.3115 -20.3115 -20.3099 -20.3099 -20.3096 -20.3095
   -20.3092 -20.3091 -20.3091 -20.3089 -20.3052 -20.3048 -20.3048 -20.3044
   -20.3026 -20.3026 -20.3017 -20.3017 -20.2982 -20.2982 -20.2976 -20.2974
   -20.2949 -20.2948 -20.2944 -20.2944 -20.2917 -20.2917 -20.2912 -20.2911
    -9.9985  -9.8095  -9.5984  -9.5984  -9.1709  -9.1709  -9.0083  -9.0070
    -8.5759  -8.5051  -8.4908  -8.4908  -8.1493  -8.1046  -7.9899  -7.9899
    -7.7581  -7.7472  -7.6304  -7.6304  -7.5838  -7.5096  -7.5096  -7.4436
     1.1458   1.1611   1.2241   1.2241   1.4935   1.4935   1.6485   1.6780
     2.1117   2.1482   2.1483   2.2027   2.2201   2.3066   2.6385   2.8568
     2.8923   2.8923   4.2080   4.2080   4.3492   4.4063   4.4609   4.4609
     4.6546   4.6546   4.7942   4.9521   5.1541   5.3062   5.3063   5.3342
     5.3495   5.4555   5.4555   5.6144   5.6144   5.6235   5.7503   5.7503
     5.7683   5.7976   5.8880   5.8915   5.9494   5.9494   6.0098   6.0892
     6.2510   6.4569   6.5392   6.5734   6.5945   6.5945   6.7893   6.7893
     6.8355   7.0234   7.0234   7.1165   7.1354   7.1354   7.1970   7.2299
     7.3828   7.3828   7.6385   7.6824   7.9504   8.0231   8.0231   8.1713
     9.8418   9.9504  10.1302  10.1302  10.1646  10.2109  12.1377  12.1377
[...]
W        0.280574509   0.219837062   0.499124509    0   0   0
W        0.749124506   0.780162941   0.469425491    0   0   0
W        0.780574477   0.280162954   0.500875491    0   0   0
W        0.249124509   0.719837046   0.530574509    0   0   0
W        0.719425524   0.219837062   0.000875504    0   0   0
W        0.250875491   0.780162941   0.030574486    0   0   0
O        0.216373983   0.007857674  -0.024394969    0   0   0
O        0.774394954  -0.007857662  -0.033625975    0   0   0
O        0.283625975   0.492142324   0.475604980    0   0   0
O        0.725605022   0.507857662   0.466373997    0   0   0
O        0.783625960   0.007857674   0.524395005    0   0   0
O        0.225604967  -0.007857662   0.533625989    0   0   0
O        0.716374016   0.492142324   0.024394963    0   0   0
O        0.274394992   0.507857662   0.033625969    0   0   0
O        0.510820495   0.213747503   0.453689623    0   0   0
O        0.502218481   0.773264520   0.546310363    0   0   0
O       -0.010820468   0.286252472   0.953689656    0   0   0
O       -0.002218469   0.726735570   0.046310378    0   0   0
O        0.489179505   0.213747503   0.046310378    0   0   0
O        0.497781519   0.773264520   0.953689656    0   0   0
O        0.010820452   0.286252472   0.546310363    0   0   0
O        0.002218453   0.726735570   0.453689623    0   0   0
O        0.703689646   0.273264475   0.747781538    0   0   0
O        0.296310368   0.786252543   0.260820495    0   0   0
O        0.796310372   0.226735499   0.247781574    0   0   0
O        0.203689639   0.713747547   0.760820514    0   0   0
O        0.296310368   0.273264475   0.752218515    0   0   0
O        0.703689646   0.786252543   0.239179560    0   0   0
O        0.203689639   0.226735499   0.252218481    0   0   0
O        0.796310372   0.713747547   0.739179539    0   0   0
End final coordinates

     A final scf calculation at the relaxed structure.
     The G-vectors are recalculated for the final unit cell
     Results may differ from those at the preceding step.

     bravais-lattice index     =            0
     lattice parameter (alat)  =      13.8397  a.u.
     unit-cell volume          =    2761.9654 (a.u.)^3
     number of atoms/cell      =           32
     number of atomic types    =            2
     number of electrons       =       368.00
     number of Kohn-Sham states=          221
     kinetic-energy cutoff     =     120.0000  Ry
     charge density cutoff     =     480.0000  Ry
     convergence threshold     =      1.0E-10
     mixing beta               =       0.7000
     number of iterations used =            8  plain     mixing
     Exchange-correlation      = SLA PW NOGX NOGC ( 1  4  0  0 0 0)

     celldm(1)=  13.839685  celldm(2)=   0.000000  celldm(3)=   0.000000
     celldm(4)=   0.000000  celldm(5)=   0.000000  celldm(6)=   0.000000

     crystal axes: (cart. coord. in units of alat)
               a(1) = (   1.007387   0.000000   0.000000 )
               a(2) = (   0.000000   1.026707   0.000000 )
               a(3) = (   0.000000   0.000000   1.007387 )

     reciprocal axes: (cart. coord. in units 2 pi/alat)
               b(1) = (  0.992667  0.000000  0.000000 )
               b(2) = (  0.000000  0.973987  0.000000 )
               b(3) = (  0.000000  0.000000  0.992667 )

     PseudoPot. # 1 for W  read from file:
     /cluster/scratch/mnoe/QE/pps/W_ONCV_LDA-4.0.upf
     MD5 check sum: ba0307d5d4cd419d6f1d13dc49d7c13a
     Pseudo is Norm-conserving + core correction, Zval = 28.0
     Generated using ONCVPSP code by D. R. Hamann
     Using radial grid of 1380 points,  8 beta functions with:
                l(1) =   0
                l(2) =   0
                l(3) =   1
                l(4) =   1
                l(5) =   2
                l(6) =   2
                l(7) =   3
                l(8) =   3

     PseudoPot. # 2 for O  read from file:
     /cluster/scratch/mnoe/QE/pps/O_ONCV_LDA-3.0.upf
     MD5 check sum: a1bd6164e7280c17a38c229939bfbd54
     Pseudo is Norm-conserving + core correction, Zval =  6.0
     Generated using ONCVPSP code by D. R. Hamann
     Using radial grid of  926 points,  5 beta functions with:
                l(1) =   0
                l(2) =   0
                l(3) =   1
                l(4) =   1
                l(5) =   2

     atomic species   valence    mass     pseudopotential
        W             28.00   183.84000     W ( 1.00)
        O              6.00    15.99940     O ( 1.00)

      8 Sym. Ops. (no inversion) found ( 7 have fractional translation)

   Cartesian axes

     site n.     atom                  positions (alat units)
         1           W   tau(   1) = (   0.2210464   0.2876454  -0.0008820  )
         2           W   tau(   2) = (   0.7564224   0.7390621  -0.0308003  )
         3           W   tau(   3) = (   0.2826472   0.2257084   0.5028116  )
         4           W   tau(   4) = (   0.7546584   0.8009991   0.4728932  )
         5           W   tau(   5) = (   0.7863407   0.2876454   0.5045756  )
         6           W   tau(   6) = (   0.2509648   0.7390621   0.5344940  )
         7           W   tau(   7) = (   0.7247401   0.2257084   0.0008820  )
         8           W   tau(   8) = (   0.2527288   0.8009991   0.0308003  )
         9           O   tau(   9) = (   0.2179724   0.0080675  -0.0245752  )
        10           O   tau(  10) = (   0.7801156  -0.0080675  -0.0338744  )
        11           O   tau(  11) = (   0.2857212   0.5052862   0.4791184  )
        12           O   tau(  12) = (   0.7309652   0.5214213   0.4698192  )
        13           O   tau(  13) = (   0.7894148   0.0080675   0.5282688  )
        14           O   tau(  14) = (   0.2272716  -0.0080675   0.5375680  )
        15           O   tau(  15) = (   0.7216660   0.5052862   0.0245752  )
        16           O   tau(  16) = (   0.2764220   0.5214213   0.0338744  )
        17           O   tau(  17) = (   0.5145940   0.2194562   0.4570411  )
        18           O   tau(  18) = (   0.5059285   0.7939165   0.5503461  )
        19           O   tau(  19) = (  -0.0109004   0.2938976   0.9607348  )
        20           O   tau(  20) = (  -0.0022349   0.7461448   0.0466525  )
        21           O   tau(  21) = (   0.4927932   0.2194562   0.0466525  )
        22           O   tau(  22) = (   0.5014587   0.7939165   0.9607348  )
        23           O   tau(  23) = (   0.0109004   0.2938976   0.5503461  )
        24           O   tau(  24) = (   0.0022348   0.7461448   0.4570411  )
        25           O   tau(  25) = (   0.7088879   0.2805627   0.7533056  )
        26           O   tau(  26) = (   0.2984993   0.8072514   0.2627472  )
        27           O   tau(  27) = (   0.8021929   0.2327910   0.2496120  )
        28           O   tau(  28) = (   0.2051943   0.7328099   0.7664408  )
        29           O   tau(  29) = (   0.2984993   0.2805627   0.7577753  )
        30           O   tau(  30) = (   0.7088879   0.8072514   0.2409464  )
        31           O   tau(  31) = (   0.2051943   0.2327910   0.2540817  )
        32           O   tau(  32) = (   0.8021929   0.7328099   0.7446400  )

     number of k points=    40  gaussian smearing, width (Ry)=  0.0007
                       cart. coord. in units 2pi/alat
        k(    1) = (   0.0000000   0.0000000   0.0000000), wk =   0.0092593
        k(    2) = (   0.0000000   0.0000000   0.1654445), wk =   0.0370370
        k(    3) = (   0.0000000   0.0000000   0.3308890), wk =   0.0370370
        k(    4) = (   0.0000000   0.0000000  -0.4963335), wk =   0.0185185
        k(    5) = (   0.0000000   0.1623312   0.0000000), wk =   0.0185185
        k(    6) = (   0.0000000   0.1623312   0.1654445), wk =   0.0740741
        k(    7) = (   0.0000000   0.1623312   0.3308890), wk =   0.0740741
        k(    8) = (   0.0000000   0.1623312  -0.4963335), wk =   0.0370370
        k(    9) = (   0.0000000   0.3246624   0.0000000), wk =   0.0185185
        k(   10) = (   0.0000000   0.3246624   0.1654445), wk =   0.0740741
        k(   11) = (   0.0000000   0.3246624   0.3308890), wk =   0.0740741
        k(   12) = (   0.0000000   0.3246624  -0.4963335), wk =   0.0370370
        k(   13) = (   0.0000000  -0.4869936   0.0000000), wk =   0.0092593
        k(   14) = (   0.0000000  -0.4869936   0.1654445), wk =   0.0370370
        k(   15) = (   0.0000000  -0.4869936   0.3308890), wk =   0.0370370
        k(   16) = (   0.0000000  -0.4869936  -0.4963335), wk =   0.0185185
        k(   17) = (   0.1654445   0.0000000   0.1654445), wk =   0.0370370
        k(   18) = (   0.1654445   0.0000000   0.3308890), wk =   0.0740741
        k(   19) = (   0.1654445   0.0000000  -0.4963335), wk =   0.0370370
        k(   20) = (   0.1654445   0.1623312   0.1654445), wk =   0.0740741
        k(   21) = (   0.1654445   0.1623312   0.3308890), wk =   0.1481481
        k(   22) = (   0.1654445   0.1623312  -0.4963335), wk =   0.0740741
        k(   23) = (   0.1654445   0.3246624   0.1654445), wk =   0.0740741
        k(   24) = (   0.1654445   0.3246624   0.3308890), wk =   0.1481481
        k(   25) = (   0.1654445   0.3246624  -0.4963335), wk =   0.0740741
        k(   26) = (   0.1654445  -0.4869936   0.1654445), wk =   0.0370370
        k(   27) = (   0.1654445  -0.4869936   0.3308890), wk =   0.0740741
        k(   28) = (   0.1654445  -0.4869936  -0.4963335), wk =   0.0370370
        k(   29) = (   0.3308890   0.0000000   0.3308890), wk =   0.0370370
        k(   30) = (   0.3308890   0.0000000  -0.4963335), wk =   0.0370370
        k(   31) = (   0.3308890   0.1623312   0.3308890), wk =   0.0740741
        k(   32) = (   0.3308890   0.1623312  -0.4963335), wk =   0.0740741
        k(   33) = (   0.3308890   0.3246624   0.3308890), wk =   0.0740741
        k(   34) = (   0.3308890   0.3246624  -0.4963335), wk =   0.0740741
        k(   35) = (   0.3308890  -0.4869936   0.3308890), wk =   0.0370370
        k(   36) = (   0.3308890  -0.4869936  -0.4963335), wk =   0.0370370
        k(   37) = (  -0.4963335   0.0000000  -0.4963335), wk =   0.0092593
        k(   38) = (  -0.4963335   0.1623312  -0.4963335), wk =   0.0185185
        k(   39) = (  -0.4963335   0.3246624  -0.4963335), wk =   0.0185185
        k(   40) = (  -0.4963335  -0.4869936  -0.4963335), wk =   0.0092593

     Initial potential from superposition of free atoms

     starting charge  367.99656, renormalised to  368.00000
     Starting wfc are  232 randomized atomic wfcs

     Writing output data file Landau_17.save

     Self-consistent Calculation

[...]

     total energy              =   -6261.06997305 Ry
     Harris-Foulkes estimate   =   -6261.06997305 Ry
     estimated scf accuracy    <          6.9E-10 Ry

     iteration # 14     ecut=   120.00 Ry     beta= 0.70
     Davidson diagonalization with overlap
     ethr =  1.87E-13,  avg # of iterations =  2.0

     End of self-consistent calculation

[...]

          k = 0.3309-0.4870-0.4963 ( 61320 PWs)   bands (ev):

[...]

          k =-0.4963-0.4870-0.4963 ( 61352 PWs)   bands (ev):

   -65.8826 -65.8826 -65.8826 -65.8826 -65.8826 -65.8826 -65.8826 -65.8826
   -30.3360 -30.3360 -30.3350 -30.3350 -30.3349 -30.3349 -30.3349 -30.3349
   -30.1979 -30.1979 -30.1979 -30.1979 -30.1979 -30.1979 -30.1971 -30.1971
   -30.1186 -30.1186 -30.1185 -30.1185 -30.1185 -30.1185 -30.1183 -30.1183
   -20.0410 -20.0410 -20.0410 -20.0410 -20.0410 -20.0410 -20.0410 -20.0409
   -20.0284 -20.0284 -20.0284 -20.0284 -20.0283 -20.0283 -20.0283 -20.0283
   -20.0157 -20.0157 -20.0157 -20.0157 -20.0157 -20.0157 -20.0155 -20.0155
   -20.0042 -20.0042 -20.0042 -20.0042 -20.0040 -20.0040 -20.0040 -20.0040
   -20.0024 -20.0024 -20.0023 -20.0023 -20.0022 -20.0022 -20.0021 -20.0021
   -19.9928 -19.9928 -19.9928 -19.9928 -19.9927 -19.9927 -19.9927 -19.9927
   -19.9853 -19.9853 -19.9853 -19.9853 -19.9853 -19.9853 -19.9852 -19.9852
    -8.7942  -8.7942  -8.7285  -8.7285  -8.7140  -8.7140  -8.7140  -8.7140
    -8.2462  -8.2462  -8.1592  -8.1592  -8.1592  -8.1592  -8.1124  -8.1124
    -8.0004  -8.0004  -8.0004  -8.0004  -7.9386  -7.9386  -7.9187  -7.9187
     3.0939   3.0939   3.0939   3.0939   3.1085   3.1085   3.1479   3.1479
     3.2873   3.2873   3.4407   3.4407   3.4407   3.4408   3.5593   3.5593
     3.6449   3.6449   3.7552   3.7552   3.7552   3.7552   3.7610   3.7610
     4.3450   4.3450   4.3461   4.3462   4.4425   4.4425   4.4425   4.4425
     4.6231   4.6231   4.6323   4.6323   4.6323   4.6323   4.7374   4.7374
     4.7829   4.7829   4.8721   4.8721   4.8721   4.8721   4.8751   4.8751
     7.2062   7.2062   7.3375   7.3375   7.3375   7.3375   7.4996   7.4996
     7.5801   7.5801   7.5801   7.5801   7.6239   7.6239   7.7193   7.7193
     7.8624   7.8624   7.8624   7.8624   7.8692   7.8692   7.9323   7.9323
    12.0922  12.0922  12.1454  12.1454  12.1454  12.1454  12.2031  12.2031
    12.5061  12.5061  12.5061  12.5061  12.5247  12.5247  12.7157  12.7157
    12.7580  12.7580  12.9049  12.9049  12.9049  12.9049  12.9451  12.9451
    17.0570  17.0570  17.0570  17.0570  17.1744  17.1744  17.2336  17.2336
    17.6251  17.6251  17.6251  17.6251  17.6610

     the Fermi energy is     9.2295 ev

!    total energy              =   -6261.06997305 Ry
     Harris-Foulkes estimate   =   -6261.06997305 Ry
     estimated scf accuracy    <          4.8E-11 Ry

     The total energy is the sum of the following terms:

     one-electron contribution =   -4636.66267806 Ry
     hartree contribution      =    2558.69531262 Ry
     xc contribution           =    -965.62707094 Ry
     ewald contribution        =   -3217.47553668 Ry
     smearing contrib. (-TS)   =      -0.00000000 Ry

     convergence has been achieved in  14 iterations

     Forces acting on atoms (cartesian axes, Ry/au):

     atom    1 type  1   force =     0.06490351   -0.01756253    0.00876089
     atom    2 type  1   force =    -0.00876089    0.01756253    0.06490351
     atom    3 type  1   force =    -0.06490351    0.01756253    0.00876089
     atom    4 type  1   force =     0.00876089   -0.01756253    0.06490351
     atom    5 type  1   force =    -0.06490351   -0.01756253   -0.00876089
     atom    6 type  1   force =     0.00876089    0.01756253   -0.06490351
     atom    7 type  1   force =     0.06490351    0.01756253   -0.00876089
     atom    8 type  1   force =    -0.00876089   -0.01756253   -0.06490351
     atom    9 type  2   force =    -0.00195629    0.00392581    0.00474713
     atom   10 type  2   force =    -0.00474713   -0.00392581   -0.00195629
     atom   11 type  2   force =     0.00195629   -0.00392581    0.00474713
     atom   12 type  2   force =     0.00474713    0.00392581   -0.00195629
     atom   13 type  2   force =     0.00195629    0.00392581   -0.00474713
     atom   14 type  2   force =     0.00474713   -0.00392581    0.00195629
     atom   15 type  2   force =    -0.00195629   -0.00392581   -0.00474713
     atom   16 type  2   force =    -0.00474713    0.00392581    0.00195629
     atom   17 type  2   force =     0.04202359   -0.00450527   -0.00282436
     atom   18 type  2   force =     0.00073118   -0.00578433   -0.00428504
     atom   19 type  2   force =    -0.04202359    0.00450527   -0.00282436
     atom   20 type  2   force =    -0.00073118    0.00578433   -0.00428504
     atom   21 type  2   force =    -0.04202359   -0.00450527    0.00282436
     atom   22 type  2   force =    -0.00073118   -0.00578433    0.00428504
     atom   23 type  2   force =     0.04202359    0.00450527    0.00282436
     atom   24 type  2   force =     0.00073118    0.00578433    0.00428504
     atom   25 type  2   force =     0.00428504   -0.00578433   -0.00073118
     atom   26 type  2   force =     0.00282436    0.00450527    0.04202359
     atom   27 type  2   force =    -0.00428504    0.00578433   -0.00073118
     atom   28 type  2   force =    -0.00282436   -0.00450527    0.04202359
     atom   29 type  2   force =    -0.00428504   -0.00578433    0.00073118
     atom   30 type  2   force =    -0.00282436    0.00450527   -0.04202359
     atom   31 type  2   force =     0.00428504    0.00578433    0.00073118
     atom   32 type  2   force =     0.00282436   -0.00450527   -0.04202359

     Total force =     0.000000     Total SCF correction =     0.000000

     Computing stress (Cartesian axis) and pressure

          total   stress  (Ry/bohr**3)                   (kbar)     P=   -0.03
   0.00000110   0.00000000   0.00000000          0.16      0.00      0.00
   0.00000000  -0.00000287   0.00000000          0.00     -0.42      0.00
   0.00000000   0.00000000   0.00000110          0.00      0.00      0.16

     Writing output data file Landau_17.save

     General routines

     Parallel routines

   This run was terminated on:   7:35: 4  23Mar2020

   JOB DONE.