     Program PWSCF v.6.2 (svn rev. 14038) starts on 21Mar2020 at 21:31: 7

     K-points division:     npool     =      40
     Reading input from scf.in

     Current dimensions of program PWSCF are:
     Max number of different atomic species (ntypx) = 10
     Max number of k-points (npk) =  40000
     Max angular momentum in pseudopotentials (lmaxx) =  3

     Subspace diagonalization in iterative solution of the eigenvalue problem:
     a serial algorithm will be used

     bravais-lattice index     =            0
     lattice parameter (alat)  =      13.8487  a.u.
     unit-cell volume          =    2806.4590 (a.u.)^3
     number of atoms/cell      =           32
     number of atomic types    =            2
     number of electrons       =       369.00
     number of Kohn-Sham states=          222
     kinetic-energy cutoff     =     120.0000  Ry
     charge density cutoff     =     480.0000  Ry
     convergence threshold     =      1.0E-08
     mixing beta               =       0.7000
     number of iterations used =            8  plain     mixing
     Exchange-correlation      = SLA PW NOGX NOGC ( 1  4  0  0 0 0)

     celldm(1)=  13.848651  celldm(2)=   0.000000  celldm(3)=   0.000000
     celldm(4)=   0.000000  celldm(5)=   0.000000  celldm(6)=   0.000000

     crystal axes: (cart. coord. in units of alat)
               a(1) = (   1.000000   0.000000   0.000000 )
               a(2) = (   0.000000   1.056472   0.000000 )
               a(3) = (   0.000000   0.000000   1.000180 )

     reciprocal axes: (cart. coord. in units 2 pi/alat)
               b(1) = (  1.000000  0.000000  0.000000 )
               b(2) = (  0.000000  0.946546  0.000000 )
               b(3) = (  0.000000  0.000000  0.999820 )

     PseudoPot. # 1 for W  read from file:
     /cluster/scratch/mnoe/QE/pps/W_ONCV_LDA-4.0.upf
     MD5 check sum: ba0307d5d4cd419d6f1d13dc49d7c13a
     Pseudo is Norm-conserving + core correction, Zval = 28.0
     Generated using ONCVPSP code by D. R. Hamann
     Using radial grid of 1380 points,  8 beta functions with:
                l(1) =   0
                l(2) =   0
                l(3) =   1
                l(4) =   1
                l(5) =   2
                l(6) =   2
                l(7) =   3
                l(8) =   3

     PseudoPot. # 2 for O  read from file:
     /cluster/scratch/mnoe/QE/pps/O_ONCV_LDA-3.0.upf
     MD5 check sum: a1bd6164e7280c17a38c229939bfbd54
     Pseudo is Norm-conserving + core correction, Zval =  6.0
     Generated using ONCVPSP code by D. R. Hamann
     Using radial grid of  926 points,  5 beta functions with:
                l(1) =   0
                l(2) =   0
                l(3) =   1
                l(4) =   1
                l(5) =   2

     atomic species   valence    mass     pseudopotential
        W             28.00   183.84000     W ( 1.00)
        O              6.00    15.99940     O ( 1.00)

      8 Sym. Ops., with inversion, found ( 6 have fractional translation)

   Cartesian axes

     site n.     atom                  positions (alat units)
         1           W   tau(   1) = (   0.2472300   0.2974634   0.0026205  )
         2           W   tau(   2) = (   0.7527700   0.7590090   0.9975596  )
         3           W   tau(   3) = (   0.2527700   0.2307728   0.5027105  )
         4           W   tau(   4) = (   0.7472300   0.8256996   0.4974695  )
         5           W   tau(   5) = (   0.7527700   0.2974634   0.4974695  )
         6           W   tau(   6) = (   0.2472300   0.7590090   0.5027105  )
         7           W   tau(   7) = (   0.7472300   0.2307728   0.9975596  )
         8           W   tau(   8) = (   0.2527700   0.8256996   0.0026205  )
         9           O   tau(   9) = (   0.2448800   0.0087043   0.0008201  )
        10           O   tau(  10) = (   0.7551200   1.0477681   0.9993599  )
        11           O   tau(  11) = (   0.2551200   0.5195319   0.5009101  )
        12           O   tau(  12) = (   0.7448800   0.5369405   0.4992698  )
        13           O   tau(  13) = (   0.7551200   0.0087043   0.4992698  )
        14           O   tau(  14) = (   0.2448800   1.0477681   0.5009101  )
        15           O   tau(  15) = (   0.7448800   0.5195319   0.9993599  )
        16           O   tau(  16) = (   0.2551200   0.5369405   0.0008201  )
        17           O   tau(  17) = (   0.5007600   0.2585716   0.4503476  )
        18           O   tau(  18) = (   0.4992400   0.7979008   0.5498324  )
        19           O   tau(  19) = (   0.9992399   0.2696646   0.9504377  )
        20           O   tau(  20) = (   0.0007601   0.7868079   0.0497424  )
        21           O   tau(  21) = (   0.4992400   0.2585716   0.0497424  )
        22           O   tau(  22) = (   0.5007600   0.7979008   0.9504377  )
        23           O   tau(  23) = (   0.0007601   0.2696646   0.5498324  )
        24           O   tau(  24) = (   0.9992399   0.7868079   0.4503476  )
        25           O   tau(  25) = (   0.7002666   0.2629032   0.7489848  )
        26           O   tau(  26) = (   0.2997334   0.7935693   0.2511952  )
        27           O   tau(  27) = (   0.7997334   0.2653331   0.2488948  )
        28           O   tau(  28) = (   0.2002666   0.7911394   0.7512852  )
        29           O   tau(  29) = (   0.2997334   0.2629032   0.7512852  )
        30           O   tau(  30) = (   0.7002666   0.7935693   0.2488948  )
        31           O   tau(  31) = (   0.2002666   0.2653331   0.2511952  )
        32           O   tau(  32) = (   0.7997334   0.7911394   0.7489848  )

     number of k points=    64  gaussian smearing, width (Ry)=  0.0007
                       cart. coord. in units 2pi/alat
        k(    1) = (   0.0000000   0.0000000   0.0000000), wk =   0.0092593
        k(    2) = (   0.0000000   0.0000000   0.1666367), wk =   0.0185185
        k(    3) = (   0.0000000   0.0000000   0.3332733), wk =   0.0185185
        k(    4) = (   0.0000000   0.0000000  -0.4999100), wk =   0.0092593
        k(    5) = (   0.0000000   0.1577577   0.0000000), wk =   0.0185185
        k(    6) = (   0.0000000   0.1577577   0.1666367), wk =   0.0370370
        k(    7) = (   0.0000000   0.1577577   0.3332733), wk =   0.0370370
        k(    8) = (   0.0000000   0.1577577  -0.4999100), wk =   0.0185185
        k(    9) = (   0.0000000   0.3155154   0.0000000), wk =   0.0185185
        k(   10) = (   0.0000000   0.3155154   0.1666367), wk =   0.0370370
        k(   11) = (   0.0000000   0.3155154   0.3332733), wk =   0.0370370
        k(   12) = (   0.0000000   0.3155154  -0.4999100), wk =   0.0185185
        k(   13) = (   0.0000000  -0.4732731   0.0000000), wk =   0.0092593
        k(   14) = (   0.0000000  -0.4732731   0.1666367), wk =   0.0185185
        k(   15) = (   0.0000000  -0.4732731   0.3332733), wk =   0.0185185
        k(   16) = (   0.0000000  -0.4732731  -0.4999100), wk =   0.0092593
        k(   17) = (   0.1666667   0.0000000   0.0000000), wk =   0.0185185
        k(   18) = (   0.1666667   0.0000000   0.1666367), wk =   0.0370370
        k(   19) = (   0.1666667   0.0000000   0.3332733), wk =   0.0370370
        k(   20) = (   0.1666667   0.0000000  -0.4999100), wk =   0.0185185
        k(   21) = (   0.1666667   0.1577577   0.0000000), wk =   0.0370370
        k(   22) = (   0.1666667   0.1577577   0.1666367), wk =   0.0740741
        k(   23) = (   0.1666667   0.1577577   0.3332733), wk =   0.0740741
        k(   24) = (   0.1666667   0.1577577  -0.4999100), wk =   0.0370370
        k(   25) = (   0.1666667   0.3155154   0.0000000), wk =   0.0370370
        k(   26) = (   0.1666667   0.3155154   0.1666367), wk =   0.0740741
        k(   27) = (   0.1666667   0.3155154   0.3332733), wk =   0.0740741
        k(   28) = (   0.1666667   0.3155154  -0.4999100), wk =   0.0370370
        k(   29) = (   0.1666667  -0.4732731   0.0000000), wk =   0.0185185
        k(   30) = (   0.1666667  -0.4732731   0.1666367), wk =   0.0370370
        k(   31) = (   0.1666667  -0.4732731   0.3332733), wk =   0.0370370
        k(   32) = (   0.1666667  -0.4732731  -0.4999100), wk =   0.0185185
        k(   33) = (   0.3333333   0.0000000   0.0000000), wk =   0.0185185
        k(   34) = (   0.3333333   0.0000000   0.1666367), wk =   0.0370370
        k(   35) = (   0.3333333   0.0000000   0.3332733), wk =   0.0370370
        k(   36) = (   0.3333333   0.0000000  -0.4999100), wk =   0.0185185
        k(   37) = (   0.3333333   0.1577577   0.0000000), wk =   0.0370370
        k(   38) = (   0.3333333   0.1577577   0.1666367), wk =   0.0740741
        k(   39) = (   0.3333333   0.1577577   0.3332733), wk =   0.0740741
        k(   40) = (   0.3333333   0.1577577  -0.4999100), wk =   0.0370370
        k(   41) = (   0.3333333   0.3155154   0.0000000), wk =   0.0370370
        k(   42) = (   0.3333333   0.3155154   0.1666367), wk =   0.0740741
        k(   43) = (   0.3333333   0.3155154   0.3332733), wk =   0.0740741
        k(   44) = (   0.3333333   0.3155154  -0.4999100), wk =   0.0370370
        k(   45) = (   0.3333333  -0.4732731   0.0000000), wk =   0.0185185
        k(   46) = (   0.3333333  -0.4732731   0.1666367), wk =   0.0370370
        k(   47) = (   0.3333333  -0.4732731   0.3332733), wk =   0.0370370
        k(   48) = (   0.3333333  -0.4732731  -0.4999100), wk =   0.0185185
        k(   49) = (  -0.5000000   0.0000000   0.0000000), wk =   0.0092593
        k(   50) = (  -0.5000000   0.0000000   0.1666367), wk =   0.0185185
        k(   51) = (  -0.5000000   0.0000000   0.3332733), wk =   0.0185185
        k(   52) = (  -0.5000000   0.0000000  -0.4999100), wk =   0.0092593
        k(   53) = (  -0.5000000   0.1577577   0.0000000), wk =   0.0185185
        k(   54) = (  -0.5000000   0.1577577   0.1666367), wk =   0.0370370
        k(   55) = (  -0.5000000   0.1577577   0.3332733), wk =   0.0370370
        k(   56) = (  -0.5000000   0.1577577  -0.4999100), wk =   0.0185185
        k(   57) = (  -0.5000000   0.3155154   0.0000000), wk =   0.0185185
        k(   58) = (  -0.5000000   0.3155154   0.1666367), wk =   0.0370370
        k(   59) = (  -0.5000000   0.3155154   0.3332733), wk =   0.0370370
        k(   60) = (  -0.5000000   0.3155154  -0.4999100), wk =   0.0185185
        k(   61) = (  -0.5000000  -0.4732731   0.0000000), wk =   0.0092593
        k(   62) = (  -0.5000000  -0.4732731   0.1666367), wk =   0.0185185
        k(   63) = (  -0.5000000  -0.4732731   0.3332733), wk =   0.0185185
        k(   64) = (  -0.5000000  -0.4732731  -0.4999100), wk =   0.0092593

     Initial potential from superposition of free atoms

     starting charge  367.99656, renormalised to  369.00000
     Starting wfc are  232 randomized atomic wfcs

     Self-consistent Calculation

     iteration #  1     ecut=   120.00 Ry     beta= 0.70
     Davidson diagonalization with overlap
     ethr =  1.00E-02,  avg # of iterations =  5.5

     total energy              =   -6253.08200017 Ry
     Harris-Foulkes estimate   =   -6264.05408426 Ry
     estimated scf accuracy    <      13.77541295 Ry

[...]

     total energy              =   -6260.39264796 Ry
     Harris-Foulkes estimate   =   -6260.39264800 Ry
     estimated scf accuracy    <       0.00000007 Ry

     iteration # 13     ecut=   120.00 Ry     beta= 0.70
     Davidson diagonalization with overlap
     ethr =  1.88E-11,  avg # of iterations =  2.8

     End of self-consistent calculation

          k = 0.0000 0.0000 0.0000 ( 62271 PWs)   bands (ev):

   -65.9541 -65.9537 -65.9531 -65.9531 -65.9527 -65.9527 -65.9521 -65.9517
   -30.4286 -30.4252 -30.4251 -30.4218 -30.3679 -30.3650 -30.3649 -30.3620
   -30.2917 -30.2911 -30.2882 -30.2871 -30.2862 -30.2857 -30.2829 -30.2821
   -30.1897 -30.1891 -30.1870 -30.1862 -30.1854 -30.1847 -30.1826 -30.1818
   -20.1117 -20.1114 -20.1114 -20.1112 -20.1063 -20.1060 -20.1060 -20.1057
   -20.0981 -20.0979 -20.0978 -20.0977 -20.0971 -20.0970 -20.0969 -20.0967
   -20.0961 -20.0959 -20.0958 -20.0956 -20.0956 -20.0956 -20.0954 -20.0952
   -20.0943 -20.0941 -20.0940 -20.0939 -20.0930 -20.0930 -20.0929 -20.0928
   -20.0768 -20.0767 -20.0765 -20.0765 -20.0764 -20.0764 -20.0761 -20.0760
   -20.0292 -20.0292 -20.0290 -20.0290 -20.0276 -20.0276 -20.0274 -20.0274
   -20.0234 -20.0234 -20.0232 -20.0232 -20.0219 -20.0219 -20.0217 -20.0217
    -9.9009  -9.5982  -9.4700  -9.4700  -9.1650  -9.1634  -9.0801  -8.9699
    -8.9573  -8.8578  -8.8183  -8.8179  -7.8554  -7.7951  -7.7941  -7.7421
    -7.7029  -7.7019  -7.6759  -7.6756  -7.5499  -7.5490  -7.5278  -7.5271
     1.3081   1.3082   1.3692   1.3707   1.3960   1.3991   1.4167   1.6499
     1.6544   1.6566   1.7331   1.9194   2.4707   2.5482   2.5955   2.5967
     2.7479   2.7500   4.1907   4.1943   4.4164   4.4229   4.8405   4.8499
     4.9319   4.9354   4.9607   4.9609   5.0558   5.0564   5.0922   5.4398
     5.4444   5.5461   5.5595   5.5713   5.5718   5.5980   5.6093   5.8444
     5.8496   5.9170   5.9171   5.9516   5.9746   6.1019   6.1035   6.1989
     6.1994   6.2978   6.3003   6.5967   6.5980   6.8221   6.8277   6.8647
     6.8680   6.9120   7.0476   7.0547   7.1187   7.1216   7.4580   7.4622
     7.4995   7.5035   7.8630   7.8778   8.0953   8.1012   8.1591   8.1650
     9.4125   9.4177  10.0649  10.0668  10.0965  10.0987  12.3608  12.3645
    12.3932  12.4026  12.4568  12.4634  12.5839  12.5878  13.0115  13.0357
    13.3136  13.3276  13.4832  13.4880  13.8663  14.2157  14.2465  14.2519
    14.2661  14.4602  14.4939  14.8294  15.5589  15.5695  15.5812  16.1811
    16.1847  16.8993  17.1236  17.1286  17.3577  17.3993

[...]

          k = 0.3333-0.4733-0.4999 ( 62232 PWs)   bands (ev):

[...]

          k =-0.5000 0.0000 0.0000 ( 62320 PWs)   bands (ev):

[...]

          k =-0.5000-0.4733-0.4999 ( 62296 PWs)   bands (ev):

   -65.9529 -65.9529 -65.9529 -65.9529 -65.9529 -65.9529 -65.9529 -65.9529
   -30.3958 -30.3958 -30.3958 -30.3958 -30.3957 -30.3957 -30.3957 -30.3957
   -30.2383 -30.2383 -30.2383 -30.2383 -30.2371 -30.2371 -30.2371 -30.2370
   -30.2358 -30.2358 -30.2358 -30.2358 -30.2345 -30.2345 -30.2345 -30.2345
   -20.1089 -20.1089 -20.1089 -20.1089 -20.1089 -20.1089 -20.1089 -20.1089
   -20.0967 -20.0967 -20.0967 -20.0967 -20.0967 -20.0966 -20.0966 -20.0966
   -20.0954 -20.0954 -20.0954 -20.0954 -20.0954 -20.0954 -20.0953 -20.0953
   -20.0945 -20.0945 -20.0945 -20.0945 -20.0945 -20.0945 -20.0945 -20.0945
   -20.0764 -20.0763 -20.0763 -20.0763 -20.0763 -20.0763 -20.0763 -20.0763
   -20.0258 -20.0258 -20.0258 -20.0258 -20.0257 -20.0257 -20.0257 -20.0257
   -20.0254 -20.0254 -20.0254 -20.0254 -20.0253 -20.0253 -20.0253 -20.0253
    -8.8872  -8.8872  -8.8872  -8.8872  -8.8825  -8.8825  -8.8825  -8.8825
    -8.3633  -8.3633  -8.3633  -8.3633  -8.3533  -8.3533  -8.3533  -8.3533
    -8.2928  -8.2928  -8.2928  -8.2928  -8.2902  -8.2902  -8.2902  -8.2902
     3.0652   3.0652   3.0652   3.0652   3.0793   3.0793   3.0793   3.0793
     3.2134   3.2134   3.2134   3.2134   3.2298   3.2298   3.2298   3.2298
     3.4812   3.4812   3.4812   3.4812   3.5222   3.5222   3.5222   3.5222
     4.2104   4.2104   4.2104   4.2104   4.2145   4.2145   4.2145   4.2145
     4.4104   4.4104   4.4104   4.4104   4.4161   4.4161   4.4162   4.4162
     4.5034   4.5034   4.5034   4.5034   4.5140   4.5140   4.5140   4.5140
     7.1948   7.1948   7.1948   7.1949   7.2499   7.2499   7.2499   7.2499
     7.3616   7.3616   7.3616   7.3616   7.3699   7.3700   7.3700   7.3700
     7.6566   7.6566   7.6566   7.6566   7.6691   7.6691   7.6691   7.6691
    11.9365  11.9365  11.9365  11.9365  11.9412  11.9412  11.9412  11.9412
    12.3419  12.3419  12.3419  12.3419  12.3917  12.3917  12.3917  12.3917
    12.6205  12.6205  12.6205  12.6205  12.6417  12.6417  12.6417  12.6417
    17.1431  17.1431  17.1431  17.1431  17.1713  17.1713  17.1713  17.1714
    17.4309  17.4309  17.4310  17.4311  17.4446  17.4446

     the Fermi energy is    10.0569 ev

!    total energy              =   -6260.39264798 Ry
     Harris-Foulkes estimate   =   -6260.39264798 Ry
     estimated scf accuracy    <          2.5E-09 Ry

     The total energy is the sum of the following terms:

     one-electron contribution =   -4726.13860205 Ry
     hartree contribution      =    2602.67048055 Ry
     xc contribution           =    -966.77870524 Ry
     ewald contribution        =   -3170.14580901 Ry
     smearing contrib. (-TS)   =      -0.00001223 Ry

     convergence has been achieved in  13 iterations

     Writing output data file Landau_3.save

     General routines

     Parallel routines

   This run was terminated on:  22: 5:26  21Mar2020

   JOB DONE.