     Program PWSCF v.6.2 (svn rev. 14038) starts on  4Mar2020 at 22:25:40

     K-points division:     npool     =      64
     Reading input from rscf.in

     Current dimensions of program PWSCF are:
     Max number of different atomic species (ntypx) = 10
     Max number of k-points (npk) =  40000
     Max angular momentum in pseudopotentials (lmaxx) =  3

     Subspace diagonalization in iterative solution of the eigenvalue problem:
     a serial algorithm will be used

     Found symmetry operation: I + (  0.5000  0.0000 -0.5000)
     This is a supercell, fractional translations are disabled

     bravais-lattice index     =            0
     lattice parameter (alat)  =      13.8397  a.u.
     unit-cell volume          =    2804.9816 (a.u.)^3
     number of atoms/cell      =           32
     number of atomic types    =            2
     number of electrons       =       368.00
     number of Kohn-Sham states=          221
     kinetic-energy cutoff     =     120.0000  Ry
     charge density cutoff     =     480.0000  Ry
     convergence threshold     =      1.0E-08
     mixing beta               =       0.7000
     number of iterations used =            8  plain     mixing
     Exchange-correlation      = SLA PW NOGX NOGC ( 1  4  0  0 0 0)
     nstep                     =           50

     celldm(1)=  13.839685  celldm(2)=   0.000000  celldm(3)=   0.000000
     celldm(4)=   0.000000  celldm(5)=   0.000000  celldm(6)=   0.000000

     crystal axes: (cart. coord. in units of alat)
               a(1) = (   1.000000   0.000000   0.000000 )
               a(2) = (   0.000000   1.058160   0.000000 )
               a(3) = (   0.000000   0.000000   1.000000 )

     reciprocal axes: (cart. coord. in units 2 pi/alat)
               b(1) = (  1.000000  0.000000  0.000000 )
               b(2) = (  0.000000  0.945037  0.000000 )
               b(3) = (  0.000000  0.000000  1.000000 )

     PseudoPot. # 1 for W  read from file:
     /cluster/scratch/mnoe/QE/pps/W_ONCV_LDA-4.0.upf
     MD5 check sum: ba0307d5d4cd419d6f1d13dc49d7c13a
     Pseudo is Norm-conserving + core correction, Zval = 28.0
     Generated using ONCVPSP code by D. R. Hamann
     Using radial grid of 1380 points,  8 beta functions with:
                l(1) =   0
                l(2) =   0
                l(3) =   1
                l(4) =   1
                l(5) =   2
                l(6) =   2
                l(7) =   3
                l(8) =   3

     PseudoPot. # 2 for O  read from file:
     /cluster/scratch/mnoe/QE/pps/O_ONCV_LDA-3.0.upf
     MD5 check sum: a1bd6164e7280c17a38c229939bfbd54
     Pseudo is Norm-conserving + core correction, Zval =  6.0
     Generated using ONCVPSP code by D. R. Hamann
     Using radial grid of  926 points,  5 beta functions with:
                l(1) =   0
                l(2) =   0
                l(3) =   1
                l(4) =   1
                l(5) =   2

     atomic species   valence    mass     pseudopotential
        W             28.00   183.84000     W ( 1.00)
        O              6.00    15.99940     O ( 1.00)

      2 Sym. Ops., with inversion, found

   Cartesian axes

     site n.     atom                  positions (alat units)
         1           W   tau(   1) = (   0.2500000   0.2885670   0.0000000  )
         2           W   tau(   2) = (   0.7500000   0.7695930   0.0000000  )
         3           W   tau(   3) = (   0.2500000   0.2405130   0.5000000  )
         4           W   tau(   4) = (   0.7500000   0.8176471   0.5000000  )
         5           W   tau(   5) = (   0.7500000   0.2885670   0.5000000  )
         6           W   tau(   6) = (   0.2500000   0.7695930   0.5000000  )
         7           W   tau(   7) = (   0.7500000   0.2405130   0.0000000  )
         8           W   tau(   8) = (   0.2500000   0.8176471   0.0000000  )
         9           O   tau(   9) = (   0.2500000   0.0061651   0.0000000  )
        10           O   tau(  10) = (   0.7500000   1.0519949   0.0000000  )
        11           O   tau(  11) = (   0.2500000   0.5229149   0.5000000  )
        12           O   tau(  12) = (   0.7500000   0.5352452   0.5000000  )
        13           O   tau(  13) = (   0.7500000   0.0061651   0.5000000  )
        14           O   tau(  14) = (   0.2500000   1.0519949   0.5000000  )
        15           O   tau(  15) = (   0.7500000   0.5229149   0.0000000  )
        16           O   tau(  16) = (   0.2500000   0.5352452   0.0000000  )
        17           O   tau(  17) = (   0.5000000   0.2645400   0.4719223  )
        18           O   tau(  18) = (   0.5000000   0.7936201   0.5280777  )
        19           O   tau(  19) = (   0.0000000   0.2645400   0.9719224  )
        20           O   tau(  20) = (   0.0000000   0.7936201   0.0280776  )
        21           O   tau(  21) = (   0.5000000   0.2645400   0.0280776  )
        22           O   tau(  22) = (   0.5000000   0.7936201   0.9719224  )
        23           O   tau(  23) = (   0.0000000   0.2645400   0.5280777  )
        24           O   tau(  24) = (   0.0000000   0.7936201   0.4719223  )
        25           O   tau(  25) = (   0.7219223   0.2645400   0.7500000  )
        26           O   tau(  26) = (   0.2780776   0.7936201   0.2500000  )
        27           O   tau(  27) = (   0.7780778   0.2645400   0.2500000  )
        28           O   tau(  28) = (   0.2219224   0.7936201   0.7500000  )
        29           O   tau(  29) = (   0.2780776   0.2645400   0.7500000  )
        30           O   tau(  30) = (   0.7219223   0.7936201   0.2500000  )
        31           O   tau(  31) = (   0.2219224   0.2645400   0.2500000  )
        32           O   tau(  32) = (   0.7780778   0.7936201   0.7500000  )

     number of k points=   112  gaussian smearing, width (Ry)=  0.0007

     Number of k-points >= 100: set verbosity='high' to print them.

     Initial potential from superposition of free atoms

     starting charge  367.99656, renormalised to  368.00000
     Starting wfc are  232 randomized atomic wfcs

     Self-consistent Calculation

     iteration #  1     ecut=   120.00 Ry     beta= 0.70
     Davidson diagonalization with overlap
     ethr =  1.00E-02,  avg # of iterations =  5.2

     total energy              =   -6254.04561926 Ry
     Harris-Foulkes estimate   =   -6264.55623343 Ry
     estimated scf accuracy    <      13.34204690 Ry

[...]

     End of self-consistent calculation

     Number of k-points >= 100: set verbosity='high' to print the bands.

     the Fermi energy is     8.7391 ev

!    total energy              =   -6261.04034853 Ry
     Harris-Foulkes estimate   =   -6261.04034853 Ry
     estimated scf accuracy    <          3.5E-09 Ry

     The total energy is the sum of the following terms:

     one-electron contribution =   -4788.64585154 Ry
     hartree contribution      =    2631.16274756 Ry
     xc contribution           =    -966.40826904 Ry
     ewald contribution        =   -3137.14897550 Ry
     smearing contrib. (-TS)   =      -0.00000000 Ry

     convergence has been achieved in  14 iterations

     Forces acting on atoms (cartesian axes, Ry/au):

     atom    1 type  1   force =    -0.00002672    0.05752625    0.00000332
     atom    2 type  1   force =     0.00002672   -0.05752625   -0.00000332
     atom    3 type  1   force =    -0.00002400   -0.05747803   -0.00000448
     atom    4 type  1   force =     0.00002400    0.05747803    0.00000448
     atom    5 type  1   force =     0.00002233    0.05754126   -0.00000913
     atom    6 type  1   force =    -0.00002233   -0.05754126    0.00000913
     atom    7 type  1   force =     0.00002182   -0.05750639    0.00001797
     atom    8 type  1   force =    -0.00002182    0.05750639   -0.00001797
     atom    9 type  2   force =     0.00000037   -0.02840093   -0.00000051
     atom   10 type  2   force =    -0.00000037    0.02840093    0.00000051
     atom   11 type  2   force =    -0.00000004    0.02839582    0.00000048
     atom   12 type  2   force =     0.00000004   -0.02839582   -0.00000048
     atom   13 type  2   force =    -0.00000010   -0.02840401   -0.00000009
     atom   14 type  2   force =     0.00000010    0.02840401    0.00000009
     atom   15 type  2   force =    -0.00000041    0.02839975    0.00000008
     atom   16 type  2   force =     0.00000041   -0.02839975   -0.00000008
     atom   17 type  2   force =    -0.00000097    0.00000120   -0.01151767
     atom   18 type  2   force =     0.00000097   -0.00000120    0.01151767
     atom   19 type  2   force =     0.00000057    0.00000020   -0.01151726
     atom   20 type  2   force =    -0.00000057   -0.00000020    0.01151726
     atom   21 type  2   force =    -0.00000050    0.00000030    0.01151833
     atom   22 type  2   force =     0.00000050   -0.00000030   -0.01151833
     atom   23 type  2   force =     0.00000093    0.00000052    0.01151732
     atom   24 type  2   force =    -0.00000093   -0.00000052   -0.01151732
     atom   25 type  2   force =    -0.01151777    0.00000030    0.00000078
     atom   26 type  2   force =     0.01151777   -0.00000030   -0.00000078
     atom   27 type  2   force =     0.01151644    0.00000049   -0.00000117
     atom   28 type  2   force =    -0.01151644   -0.00000049    0.00000117
     atom   29 type  2   force =     0.01151785    0.00000067    0.00000045
     atom   30 type  2   force =    -0.01151785   -0.00000067   -0.00000045
     atom   31 type  2   force =    -0.01151622    0.00000062   -0.00000048
     atom   32 type  2   force =     0.01151622   -0.00000062    0.00000048

     Total force =     0.000000     Total SCF correction =     0.000000

     Computing stress (Cartesian axis) and pressure

          total   stress  (Ry/bohr**3)                   (kbar)     P=   68.75
   0.00092330   0.00000000   0.00000000        135.82      0.00      0.00
   0.00000000  -0.00044459  -0.00000000          0.00    -65.40     -0.00
   0.00000000  -0.00000000   0.00092329          0.00     -0.00    135.82

     BFGS Geometry Optimization

     number of scf cycles    =   1
     number of bfgs steps    =   0

     enthalpy new            =   -6261.0403485254 Ry

     new trust radius        =       0.2444987002 bohr
     new conv_thr            =       0.0000000100 Ry

     new unit-cell volume =   2903.33435 a.u.^3 (   430.22976 Ang^3 )
     density =      7.15853 g/cm^3

CELL_PARAMETERS (angstrom)
   7.492693626   0.000000063   0.000000036
   0.000000067   7.663454912  -0.000000612
   0.000000036  -0.000000579   7.492691711

ATOMIC_POSITIONS (crystal)
W        0.250000000   0.272706412  -0.000000000    0   0   0
W        0.749999951   0.727293588  -0.000000000    0   0   0
W        0.250000000   0.227293606   0.500000000    0   0   0
W        0.749999951   0.772706475   0.500000000    0   0   0
W        0.749999951   0.272706412   0.500000000    0   0   0
W        0.250000000   0.727293588   0.500000000    0   0   0
W        0.749999951   0.227293606   0.000000000    0   0   0
W        0.250000000   0.772706475  -0.000000000    0   0   0
O        0.250000000   0.005826290   0.000000000    0   0   0
O        0.749999951   0.994173669  -0.000000000    0   0   0
[...]
O        0.749999951   0.494173732   0.000000000    0   0   0
O        0.250000000   0.505826331  -0.000000000    0   0   0
O        0.500000000   0.250000000   0.471922335    0   0   0
O        0.500000000   0.750000031   0.528077733    0   0   0
O       -0.000000000   0.250000000   0.971922368    0   0   0
O       -0.000000000   0.750000031   0.028077596    0   0   0
O        0.500000000   0.250000000   0.028077596    0   0   0
O        0.500000000   0.750000031   0.971922368    0   0   0
O       -0.000000000   0.250000000   0.528077733    0   0   0
O        0.000000000   0.750000031   0.471922335    0   0   0
O        0.721922316   0.250000000   0.749999951    0   0   0
O        0.278077617   0.750000031   0.250000000    0   0   0
O        0.778077781   0.250000000   0.250000000    0   0   0
O        0.221922351   0.750000031   0.749999951    0   0   0
O        0.278077617   0.250000000   0.749999951    0   0   0
O        0.721922316   0.750000031   0.250000000    0   0   0
O        0.221922351   0.250000000   0.250000000    0   0   0
O        0.778077781   0.750000031   0.749999951    0   0   0

     Writing output data file Landau_23.save
     NEW-OLD atomic charge density approx. for the potential
     extrapolated charge  380.46617, renormalised to  368.00000

[...]

     enthalpy old            =   -6261.0403485254 Ry
     enthalpy new            =   -6261.0901270174 Ry

     CASE: enthalpy_new < enthalpy_old

[...]

     Threshold (ethr) on eigenvalues was too large:
     Diagonalizing with lowered threshold

     Davidson diagonalization with overlap
     ethr =  5.36E-09,  avg # of iterations =  3.0

[...]

     number of scf cycles    =   5
     number of bfgs steps    =   4

     enthalpy old            =   -6261.0940681640 Ry
     enthalpy new            =   -6261.0940706215 Ry

     CASE: enthalpy_new < enthalpy_old

     small trust_radius: resetting bfgs history

     new trust radius        =       0.0000114545 bohr
     new conv_thr            =            1.0E-10 Ry

     new unit-cell volume =   2869.45383 a.u.^3 (   425.20918 Ang^3 )
     density =      7.24305 g/cm^3

[...]

ATOMIC_POSITIONS (crystal)
W        0.250000000   0.272706412  -0.000000000    0   0   0
W        0.749999951   0.727293588   0.000000000    0   0   0
W        0.250000000   0.227293606   0.500000000    0   0   0
W        0.749999951   0.772706475   0.500000000    0   0   0
W        0.749999951   0.272706412   0.500000000    0   0   0
W        0.250000000   0.727293588   0.500000000    0   0   0
W        0.749999951   0.227293606   0.000000000    0   0   0
W        0.250000000   0.772706475   0.000000000    0   0   0
O        0.250000000   0.005826290   0.000000000    0   0   0
O        0.749999951   0.994173669   0.000000000    0   0   0
O        0.250000000   0.494173732   0.500000000    0   0   0
O        0.749999951   0.505826331   0.500000000    0   0   0
O        0.749999951   0.005826290   0.500000000    0   0   0
O        0.250000000   0.994173669   0.500000000    0   0   0
O        0.749999951   0.494173732   0.000000000    0   0   0
O        0.250000000   0.505826331   0.000000000    0   0   0
O        0.500000000   0.250000000   0.471922335    0   0   0
O        0.500000000   0.750000031   0.528077733    0   0   0
O        0.000000000   0.250000000   0.971922368    0   0   0
O        0.000000000   0.750000031   0.028077596    0   0   0
O        0.500000000   0.250000000   0.028077596    0   0   0
O        0.500000000   0.750000031   0.971922368    0   0   0
O       -0.000000000   0.250000000   0.528077733    0   0   0
O        0.000000000   0.750000031   0.471922335    0   0   0
O        0.721922316   0.250000000   0.749999951    0   0   0
O        0.278077617   0.750000031   0.250000000    0   0   0
O        0.778077781   0.250000000   0.250000000    0   0   0
O        0.221922351   0.750000031   0.749999951    0   0   0
O        0.278077617   0.250000000   0.749999951    0   0   0
O        0.721922316   0.750000031   0.250000000    0   0   0
O        0.221922351   0.250000000   0.250000000    0   0   0
O        0.778077781   0.750000031   0.749999951    0   0   0

     Writing output data file Landau_23.save
     NEW-OLD atomic charge density approx. for the potential
     extrapolated charge  368.00086, renormalised to  368.00000

[...]

     Threshold (ethr) on eigenvalues was too large:
     Diagonalizing with lowered threshold

     Davidson diagonalization with overlap
     ethr =  1.11E-11,  avg # of iterations =  2.4

[...]

     bfgs converged in   6 scf cycles and   5 bfgs steps
     (criteria: energy <  1.0E-07 Ry, force <  1.0E-07Ry/Bohr, cell <  5.0E-01kbar)

     End of BFGS Geometry Optimization

     Final enthalpy =   -6261.0940706218 Ry
Begin final coordinates
     new unit-cell volume =   2869.45383 a.u.^3 (   425.20918 Ang^3 )
     density =      7.24305 g/cm^3

CELL_PARAMETERS (angstrom)
   7.455721562  -0.000000061   0.000000002
  -0.000000070   7.649327811  -0.000000346
   0.000000002  -0.000000326   7.455721565

ATOMIC_POSITIONS (crystal)
W        0.250000000   0.272706412   0.000000000    0   0   0
W        0.749999951   0.727293588   0.000000000    0   0   0
W        0.250000000   0.227293606   0.500000000    0   0   0
W        0.749999951   0.772706475   0.500000000    0   0   0
W        0.749999951   0.272706412   0.500000000    0   0   0
W        0.250000000   0.727293588   0.500000000    0   0   0
W        0.749999951   0.227293606   0.000000000    0   0   0
W        0.250000000   0.772706475   0.000000000    0   0   0
O        0.250000000   0.005826290   0.000000000    0   0   0
O        0.749999951   0.994173669   0.000000000    0   0   0
O        0.250000000   0.494173732   0.500000000    0   0   0
O        0.749999951   0.505826331   0.500000000    0   0   0
O        0.749999951   0.005826290   0.500000000    0   0   0
O        0.250000000   0.994173669   0.500000000    0   0   0
O        0.749999951   0.494173732   0.000000000    0   0   0
O        0.250000000   0.505826331   0.000000000    0   0   0
O        0.500000000   0.250000000   0.471922335    0   0   0
O        0.500000000   0.750000031   0.528077733    0   0   0
O        0.000000000   0.250000000   0.971922368    0   0   0
O        0.000000000   0.750000031   0.028077596    0   0   0
O        0.500000000   0.250000000   0.028077596    0   0   0
O        0.500000000   0.750000031   0.971922368    0   0   0
O       -0.000000000   0.250000000   0.528077733    0   0   0
O        0.000000000   0.750000031   0.471922335    0   0   0
O        0.721922316   0.250000000   0.749999951    0   0   0
O        0.278077617   0.750000031   0.250000000    0   0   0
O        0.778077781   0.250000000   0.250000000    0   0   0
O        0.221922351   0.750000031   0.749999951    0   0   0
O        0.278077617   0.250000000   0.749999951    0   0   0
O        0.721922316   0.750000031   0.250000000    0   0   0
O        0.221922351   0.250000000   0.250000000    0   0   0
O        0.778077781   0.750000031   0.749999951    0   0   0
End final coordinates

     A final scf calculation at the relaxed structure.
     The G-vectors are recalculated for the final unit cell
     Results may differ from those at the preceding step.

     bravais-lattice index     =            0
     lattice parameter (alat)  =      13.8397  a.u.
     unit-cell volume          =    2869.4538 (a.u.)^3
     number of atoms/cell      =           32
     number of atomic types    =            2
     number of electrons       =       368.00
     number of Kohn-Sham states=          221
     kinetic-energy cutoff     =     120.0000  Ry
     charge density cutoff     =     480.0000  Ry
     convergence threshold     =      1.0E-10
     mixing beta               =       0.7000
     number of iterations used =            8  plain     mixing
     Exchange-correlation      = SLA PW NOGX NOGC ( 1  4  0  0 0 0)

     celldm(1)=  13.839685  celldm(2)=   0.000000  celldm(3)=   0.000000
     celldm(4)=   0.000000  celldm(5)=   0.000000  celldm(6)=   0.000000

     crystal axes: (cart. coord. in units of alat)
               a(1) = (   1.018034  -0.000000   0.000000 )
               a(2) = (  -0.000000   1.044470  -0.000000 )
               a(3) = (   0.000000  -0.000000   1.018034 )

     reciprocal axes: (cart. coord. in units 2 pi/alat)
               b(1) = (  0.982285  0.000000 -0.000000 )
               b(2) = (  0.000000  0.957423  0.000000 )
               b(3) = ( -0.000000  0.000000  0.982285 )

     PseudoPot. # 1 for W  read from file:
     /cluster/scratch/mnoe/QE/pps/W_ONCV_LDA-4.0.upf
     MD5 check sum: ba0307d5d4cd419d6f1d13dc49d7c13a
     Pseudo is Norm-conserving + core correction, Zval = 28.0
     Generated using ONCVPSP code by D. R. Hamann
     Using radial grid of 1380 points,  8 beta functions with:
                l(1) =   0
                l(2) =   0
                l(3) =   1
                l(4) =   1
                l(5) =   2
                l(6) =   2
                l(7) =   3
                l(8) =   3

     PseudoPot. # 2 for O  read from file:
     /cluster/scratch/mnoe/QE/pps/O_ONCV_LDA-3.0.upf
     MD5 check sum: a1bd6164e7280c17a38c229939bfbd54
     Pseudo is Norm-conserving + core correction, Zval =  6.0
     Generated using ONCVPSP code by D. R. Hamann
     Using radial grid of  926 points,  5 beta functions with:
                l(1) =   0
                l(2) =   0
                l(3) =   1
                l(4) =   1
                l(5) =   2

     atomic species   valence    mass     pseudopotential
        W             28.00   183.84000     W ( 1.00)
        O              6.00    15.99940     O ( 1.00)

      2 Sym. Ops., with inversion, found

   Cartesian axes

     site n.     atom                  positions (alat units)
         1           W   tau(   1) = (   0.2545085   0.2848336  -0.0000000  )
         2           W   tau(   2) = (   0.7635255   0.7596362  -0.0000000  )
         3           W   tau(   3) = (   0.2545085   0.2374013   0.5090170  )
         4           W   tau(   4) = (   0.7635255   0.8070686   0.5090170  )
         5           W   tau(   5) = (   0.7635255   0.2848336   0.5090170  )
         6           W   tau(   6) = (   0.2545085   0.7596362   0.5090170  )
         7           W   tau(   7) = (   0.7635255   0.2374013  -0.0000000  )
         8           W   tau(   8) = (   0.2545085   0.8070686  -0.0000000  )
         9           O   tau(   9) = (   0.2545085   0.0060854  -0.0000000  )
        10           O   tau(  10) = (   0.7635255   1.0383845  -0.0000000  )
        11           O   tau(  11) = (   0.2545085   0.5161496   0.5090170  )
        12           O   tau(  12) = (   0.7635255   0.5283203   0.5090170  )
        13           O   tau(  13) = (   0.7635255   0.0060854   0.5090171  )
        14           O   tau(  14) = (   0.2545085   1.0383844   0.5090170  )
        15           O   tau(  15) = (   0.7635255   0.5161496  -0.0000000  )
        16           O   tau(  16) = (   0.2545085   0.5283204  -0.0000000  )
        17           O   tau(  17) = (   0.5090171   0.2611174   0.4804330  )
        18           O   tau(  18) = (   0.5090171   0.7833524   0.5376011  )
        19           O   tau(  19) = (  -0.0000000   0.2611174   0.9894501  )
        20           O   tau(  20) = (  -0.0000000   0.7833524   0.0285839  )
        21           O   tau(  21) = (   0.5090171   0.2611175   0.0285839  )
        22           O   tau(  22) = (   0.5090171   0.7833524   0.9894501  )
        23           O   tau(  23) = (  -0.0000000   0.2611174   0.5376011  )
        24           O   tau(  24) = (  -0.0000000   0.7833524   0.4804330  )
        25           O   tau(  25) = (   0.7349415   0.2611174   0.7635255  )
        26           O   tau(  26) = (   0.2830925   0.7833524   0.2545085  )
        27           O   tau(  27) = (   0.7921097   0.2611175   0.2545085  )
        28           O   tau(  28) = (   0.2259245   0.7833524   0.7635255  )
        29           O   tau(  29) = (   0.2830925   0.2611174   0.7635255  )
        30           O   tau(  30) = (   0.7349415   0.7833524   0.2545085  )
        31           O   tau(  31) = (   0.2259245   0.2611175   0.2545085  )
        32           O   tau(  32) = (   0.7921097   0.7833524   0.7635255  )

     number of k points=   112  gaussian smearing, width (Ry)=  0.0007

     Number of k-points >= 100: set verbosity='high' to print them.

     Initial potential from superposition of free atoms

     starting charge  367.99656, renormalised to  368.00000
     Starting wfc are  232 randomized atomic wfcs

     Writing output data file Landau_23.save

     Self-consistent Calculation

[...]

     total energy              =   -6261.09475742 Ry
     Harris-Foulkes estimate   =   -6261.09475742 Ry
     estimated scf accuracy    <          3.0E-10 Ry

     iteration # 17     ecut=   120.00 Ry     beta= 0.70
     Davidson diagonalization with overlap
     ethr =  1.00E-13,  avg # of iterations =  2.0

     End of self-consistent calculation

     Number of k-points >= 100: set verbosity='high' to print the bands.

     the Fermi energy is     8.5698 ev

!    total energy              =   -6261.09475742 Ry
     Harris-Foulkes estimate   =   -6261.09475742 Ry
     estimated scf accuracy    <          7.5E-11 Ry

     The total energy is the sum of the following terms:

     one-electron contribution =   -4820.03793945 Ry
     hartree contribution      =    2641.49127242 Ry
     xc contribution           =    -965.67414387 Ry
     ewald contribution        =   -3116.87394652 Ry
     smearing contrib. (-TS)   =      -0.00000000 Ry

     convergence has been achieved in  17 iterations

     Forces acting on atoms (cartesian axes, Ry/au):

     atom    1 type  1   force =     0.00000754    0.01807226    0.00000312
     atom    2 type  1   force =    -0.00000754   -0.01807226   -0.00000312
     atom    3 type  1   force =     0.00000445   -0.01808387   -0.00000316
     atom    4 type  1   force =    -0.00000445    0.01808387    0.00000316
     atom    5 type  1   force =    -0.00000364    0.01806891    0.00000030
     atom    6 type  1   force =     0.00000364   -0.01806891   -0.00000030
     atom    7 type  1   force =    -0.00000701   -0.01808003   -0.00000009
     atom    8 type  1   force =     0.00000701    0.01808003    0.00000009
     atom    9 type  2   force =     0.00000011   -0.00974275   -0.00000001
     atom   10 type  2   force =    -0.00000011    0.00974275    0.00000001
     atom   11 type  2   force =     0.00000007    0.00974271    0.00000002
     atom   12 type  2   force =    -0.00000007   -0.00974271   -0.00000002
     atom   13 type  2   force =    -0.00000017   -0.00974329   -0.00000000
     atom   14 type  2   force =     0.00000017    0.00974329    0.00000000
     atom   15 type  2   force =    -0.00000016    0.00974360    0.00000002
     atom   16 type  2   force =     0.00000016   -0.00974360   -0.00000002
     atom   17 type  2   force =    -0.00000028   -0.00000002   -0.00153900
     atom   18 type  2   force =     0.00000028    0.00000002    0.00153900
     atom   19 type  2   force =     0.00000014   -0.00000014   -0.00153915
     atom   20 type  2   force =    -0.00000014    0.00000014    0.00153915
     atom   21 type  2   force =    -0.00000013   -0.00000000    0.00153916
     atom   22 type  2   force =     0.00000013    0.00000000   -0.00153916
     atom   23 type  2   force =     0.00000038   -0.00000004    0.00153895
     atom   24 type  2   force =    -0.00000038    0.00000004   -0.00153895
     atom   25 type  2   force =    -0.00153898    0.00000004    0.00000018
     atom   26 type  2   force =     0.00153898   -0.00000004   -0.00000018
     atom   27 type  2   force =     0.00153884   -0.00000000   -0.00000017
     atom   28 type  2   force =    -0.00153884    0.00000000    0.00000017
     atom   29 type  2   force =     0.00153916   -0.00000006   -0.00000012
     atom   30 type  2   force =    -0.00153916    0.00000006    0.00000012
     atom   31 type  2   force =    -0.00153875   -0.00000004    0.00000007
     atom   32 type  2   force =     0.00153875    0.00000004   -0.00000007

     Total force =     0.000000     Total SCF correction =     0.000000

     Computing stress (Cartesian axis) and pressure

          total   stress  (Ry/bohr**3)                   (kbar)     P=    1.08
   0.00001049   0.00000000  -0.00000000          1.54      0.00     -0.00
   0.00000000   0.00000100   0.00000000          0.00      0.15      0.00
  -0.00000000   0.00000000   0.00001049         -0.00      0.00      1.54

     Writing output data file Landau_23.save

     General routines

     Parallel routines

   This run was terminated on:   3:42:18   5Mar2020

   JOB DONE.