     Program PWSCF v.6.4.1 starts on 19Nov2019 at 18:46:38

     K-points division:     npool     =      40
     Reading input from rscf.in

     Current dimensions of program PWSCF are:
     Max number of different atomic species (ntypx) = 10
     Max number of k-points (npk) =  40000
     Max angular momentum in pseudopotentials (lmaxx) =  3

     Subspace diagonalization in iterative solution of the eigenvalue problem:
     a serial algorithm will be used

     Message from routine setup:
     using ibrav=0 with symmetry is DISCOURAGED, use correct ibrav instead

     bravais-lattice index     =            0
     lattice parameter (alat)  =       9.7849  a.u.
     unit-cell volume          =    1402.1515 (a.u.)^3
     number of atoms/cell      =           16
     number of atomic types    =            2
     number of electrons       =       184.00
     number of Kohn-Sham states=          110
     kinetic-energy cutoff     =     120.0000  Ry
     charge density cutoff     =     480.0000  Ry
     convergence threshold     =      1.0E-08
     mixing beta               =       0.7000
     number of iterations used =            8  plain     mixing
     Exchange-correlation      = SLA PW NOGX NOGC ( 1  4  0  0 0 0)
     nstep                     =           50

     celldm(1)=   9.784926  celldm(2)=   0.000000  celldm(3)=   0.000000
     celldm(4)=   0.000000  celldm(5)=   0.000000  celldm(6)=   0.000000

     crystal axes: (cart. coord. in units of alat)
               a(1) = (   1.000000   0.000000   0.000000 )
               a(2) = (   0.000000   1.000000   0.000000 )
               a(3) = (   0.000000   0.000000   1.496657 )

     reciprocal axes: (cart. coord. in units 2 pi/alat)
               b(1) = (  1.000000  0.000000  0.000000 )
               b(2) = (  0.000000  1.000000  0.000000 )
               b(3) = (  0.000000  0.000000  0.668156 )

     PseudoPot. # 1 for W  read from file:
     /cluster/scratch/mnoe/QE/pps/W_ONCV_LDA-4.0.upf
     MD5 check sum: ba0307d5d4cd419d6f1d13dc49d7c13a
     Pseudo is Norm-conserving + core correction, Zval = 28.0
     Generated using ONCVPSP code by D. R. Hamann
     Using radial grid of 1380 points,  8 beta functions with:
                l(1) =   0
                l(2) =   0
                l(3) =   1
                l(4) =   1
                l(5) =   2
                l(6) =   2
                l(7) =   3
                l(8) =   3

     PseudoPot. # 2 for O  read from file:
     /cluster/scratch/mnoe/QE/pps/O_ONCV_LDA-3.0.upf
     MD5 check sum: b55cdb4f45ae2203d24ad12cf8d61a31
     Pseudo is Norm-conserving + core correction, Zval =  6.0
     Generated using ONCVPSP code by D. R. Hamann
     Using radial grid of  926 points,  5 beta functions with:
                l(1) =   0
                l(2) =   0
                l(3) =   1
                l(4) =   1
                l(5) =   2

     atomic species   valence    mass     pseudopotential
        W             28.00   183.84000     W ( 1.00)
        O              6.00    15.99940     O ( 1.00)

     16 Sym. Ops., with inversion, found (14 have fractional translation)

   Cartesian axes

     site n.     atom                  positions (alat units)
         1           W   tau(   1) = (   0.2500000   0.2500000   0.3147643  )
         2           W   tau(   2) = (   0.7500000   0.7500000   1.1818927  )
         3           W   tau(   3) = (   0.7500000   0.7500000   0.4335642  )
         4           W   tau(   4) = (   0.2500000   0.2500000   1.0630928  )
         5           O   tau(   5) = (   0.2500000   0.2500000   0.7137457  )
         6           O   tau(   6) = (   0.7500000   0.7500000   0.7829113  )
         7           O   tau(   7) = (   0.7500000   0.7500000   0.0345828  )
         8           O   tau(   8) = (   0.2500000   0.2500000   1.4620742  )
         9           O   tau(   9) = (   0.4897845   0.5102155   0.3741643  )
        10           O   tau(  10) = (   0.5102155   0.4897845   1.1224928  )
        11           O   tau(  11) = (   0.0102155   0.9897845   0.3741643  )
        12           O   tau(  12) = (   0.9897844   0.0102155   1.1224928  )
        13           O   tau(  13) = (   0.9897845   0.4897845   0.3741643  )
        14           O   tau(  14) = (   0.0102155   0.5102155   1.1224928  )
        15           O   tau(  15) = (   0.5102155   0.0102155   0.3741643  )
        16           O   tau(  16) = (   0.4897845   0.9897844   1.1224928  )

     number of k points=    40  gaussian smearing, width (Ry)=  0.0007
                       cart. coord. in units 2pi/alat
        k(    1) = (   0.0000000   0.0000000   0.0000000), wk =   0.0092593
        k(    2) = (   0.0000000   0.0000000   0.1113593), wk =   0.0185185
        k(    3) = (   0.0000000   0.0000000   0.2227186), wk =   0.0185185
        k(    4) = (   0.0000000   0.0000000  -0.3340779), wk =   0.0092593
        k(    5) = (   0.0000000   0.1666667   0.0000000), wk =   0.0370370
        k(    6) = (   0.0000000   0.1666667   0.1113593), wk =   0.0740741
        k(    7) = (   0.0000000   0.1666667   0.2227186), wk =   0.0740741
        k(    8) = (   0.0000000   0.1666667  -0.3340779), wk =   0.0370370
        k(    9) = (   0.0000000   0.3333333   0.0000000), wk =   0.0370370
        k(   10) = (   0.0000000   0.3333333   0.1113593), wk =   0.0740741
        k(   11) = (   0.0000000   0.3333333   0.2227186), wk =   0.0740741
        k(   12) = (   0.0000000   0.3333333  -0.3340779), wk =   0.0370370
        k(   13) = (   0.0000000  -0.5000000   0.0000000), wk =   0.0185185
        k(   14) = (   0.0000000  -0.5000000   0.1113593), wk =   0.0370370
        k(   15) = (   0.0000000  -0.5000000   0.2227186), wk =   0.0370370
        k(   16) = (   0.0000000  -0.5000000  -0.3340779), wk =   0.0185185
        k(   17) = (   0.1666667   0.1666667   0.0000000), wk =   0.0370370
        k(   18) = (   0.1666667   0.1666667   0.1113593), wk =   0.0740741
        k(   19) = (   0.1666667   0.1666667   0.2227186), wk =   0.0740741
        k(   20) = (   0.1666667   0.1666667  -0.3340779), wk =   0.0370370
        k(   21) = (   0.1666667   0.3333333   0.0000000), wk =   0.0740741
        k(   22) = (   0.1666667   0.3333333   0.1113593), wk =   0.1481481
        k(   23) = (   0.1666667   0.3333333   0.2227186), wk =   0.1481481
        k(   24) = (   0.1666667   0.3333333  -0.3340779), wk =   0.0740741
        k(   25) = (   0.1666667  -0.5000000   0.0000000), wk =   0.0370370
        k(   26) = (   0.1666667  -0.5000000   0.1113593), wk =   0.0740741
        k(   27) = (   0.1666667  -0.5000000   0.2227186), wk =   0.0740741
        k(   28) = (   0.1666667  -0.5000000  -0.3340779), wk =   0.0370370
        k(   29) = (   0.3333333   0.3333333   0.0000000), wk =   0.0370370
        k(   30) = (   0.3333333   0.3333333   0.1113593), wk =   0.0740741
        k(   31) = (   0.3333333   0.3333333   0.2227186), wk =   0.0740741
        k(   32) = (   0.3333333   0.3333333  -0.3340779), wk =   0.0370370
        k(   33) = (   0.3333333  -0.5000000   0.0000000), wk =   0.0370370
        k(   34) = (   0.3333333  -0.5000000   0.1113593), wk =   0.0740741
        k(   35) = (   0.3333333  -0.5000000   0.2227186), wk =   0.0740741
        k(   36) = (   0.3333333  -0.5000000  -0.3340779), wk =   0.0370370
        k(   37) = (  -0.5000000  -0.5000000   0.0000000), wk =   0.0092593
        k(   38) = (  -0.5000000  -0.5000000   0.1113593), wk =   0.0185185
        k(   39) = (  -0.5000000  -0.5000000   0.2227186), wk =   0.0185185
        k(   40) = (  -0.5000000  -0.5000000  -0.3340779), wk =   0.0092593

     Initial potential from superposition of free atoms

     starting charge  183.99828, renormalised to  184.00000
     Starting wfcs are  116 randomized atomic wfcs

     Self-consistent Calculation

     iteration #  1     ecut=   120.00 Ry     beta= 0.70
     Davidson diagonalization with overlap
     ethr =  1.00E-02,  avg # of iterations =  4.2

     total energy              =   -3126.91835702 Ry
     Harris-Foulkes estimate   =   -3132.27500203 Ry
     estimated scf accuracy    <       6.78980313 Ry

[...]

     End of self-consistent calculation

          k = 0.0000 0.0000 0.0000 ( 31095 PWs)   bands (ev):

   -66.1430 -66.1426 -66.1414 -66.1410 -30.5500 -30.5500 -30.5466 -30.5466
   -30.4558 -30.4558 -30.4532 -30.4532 -30.4436 -30.4386 -30.3841 -30.3803
   -20.2932 -20.2931 -20.2931 -20.2930 -20.2822 -20.2822 -20.2822 -20.2822
   -20.2798 -20.2798 -20.2798 -20.2798 -20.2645 -20.2644 -20.2643 -20.2643
   -20.2642 -20.2642 -20.2594 -20.2594 -20.2587 -20.2586 -20.2582 -20.2582
   -20.2560 -20.2560 -20.2548 -20.2548 -10.0826  -9.8298  -9.1901  -9.1704
    -8.8880  -8.6837  -7.7526  -7.7526  -7.7328  -7.7328  -7.6354  -7.5024
     0.8367   0.8386   1.2430   1.3090   1.6536   1.7376   2.2360   2.3311
     2.5459   2.5459   3.9353   3.9353   4.9612   5.1474   5.1474   5.6111
     5.6111   5.7654   5.7654   5.9437   6.1086   6.1086   6.1672   6.8077
     6.8077   6.8174   7.0626   7.1536   7.1536   7.1941   7.1941   7.2433
     8.3782   8.3841   8.3841   8.3850   8.9761   8.9792   9.7109   9.7109
    12.3840  12.3840  13.6080  13.6313  13.6313  14.0452  14.0580  14.3548
    14.3548  14.6893  14.6900  14.6940  15.4570  16.7462

[...]

          k =-0.5000-0.5000 0.0000 ( 31144 PWs)   bands (ev):

[...]

     the Fermi energy is     8.6211 ev

!    total energy              =   -3130.50370245 Ry
     Harris-Foulkes estimate   =   -3130.50370246 Ry
     estimated scf accuracy    <          9.0E-09 Ry

     The total energy is the sum of the following terms:

     one-electron contribution =   -2384.03154020 Ry
     hartree contribution      =    1310.59813118 Ry
     xc contribution           =    -483.10840513 Ry
     ewald contribution        =   -1573.96188829 Ry
     smearing contrib. (-TS)   =      -0.00000000 Ry

     convergence has been achieved in  12 iterations

     Forces acting on atoms (cartesian axes, Ry/au):

     atom    1 type  1   force =     0.00000000    0.00000000   -0.05567387
     atom    2 type  1   force =     0.00000000    0.00000000    0.05567387
     atom    3 type  1   force =     0.00000000    0.00000000    0.05567387
     atom    4 type  1   force =     0.00000000    0.00000000   -0.05567387
     atom    5 type  2   force =     0.00000000    0.00000000    0.09022049
     atom    6 type  2   force =     0.00000000    0.00000000   -0.09022049
     atom    7 type  2   force =     0.00000000    0.00000000   -0.09022049
     atom    8 type  2   force =     0.00000000    0.00000000    0.09022049
     atom    9 type  2   force =    -0.00266237    0.00266237    0.00000000
     atom   10 type  2   force =     0.00266237   -0.00266237    0.00000000
     atom   11 type  2   force =     0.00266237   -0.00266237    0.00000000
     atom   12 type  2   force =    -0.00266237    0.00266237    0.00000000
     atom   13 type  2   force =    -0.00266237   -0.00266237    0.00000000
     atom   14 type  2   force =     0.00266237    0.00266237    0.00000000
     atom   15 type  2   force =     0.00266237    0.00266237    0.00000000
[...]
   0.00000000   0.00000000  -0.00040539          0.00      0.00    -59.64

     BFGS Geometry Optimization

     number of scf cycles    =   1
     number of bfgs steps    =   0

     enthalpy new            =   -3130.5037024507 Ry

     new trust radius        =       0.1253302802 bohr
     new conv_thr            =       0.0000000100 Ry

     new unit-cell volume =   1434.78437 a.u.^3 (   212.61310 Ang^3 )
     density =      7.24276 g/cm^3

CELL_PARAMETERS (angstrom)
   5.264613643   0.000000000   0.000000000
   0.000000000   5.264613643   0.000000000
   0.000000000   0.000000000   7.671088955

ATOMIC_POSITIONS (crystal)
W        0.250000000   0.250000000   0.210311576    0   0   0
W        0.750000023   0.750000023   0.789688439    0   0   0
W        0.750000023   0.750000023   0.289688439    0   0   0
W        0.250000000   0.250000000   0.710311561    0   0   0
O        0.250000000   0.250000000   0.476893287    0   0   0
O        0.750000023   0.750000023   0.523106713    0   0   0
O        0.750000023   0.750000023   0.023106726    0   0   0
O        0.250000000   0.250000000   0.976893287    0   0   0
O        0.489784481   0.510215473   0.250000000    0   0   0
O        0.510215519   0.489784527   0.750000000    0   0   0
O        0.010215502   0.989784527   0.250000000    0   0   0
O        0.989784435   0.010215536   0.750000000    0   0   0
O        0.989784527   0.489784481   0.250000000    0   0   0
O        0.010215536   0.510215519   0.750000000    0   0   0
O        0.510215473   0.010215502   0.250000000    0   0   0
O        0.489784527   0.989784435   0.750000000    0   0   0

     Writing output data file Landau_23.save/
     NEW-OLD atomic charge density approx. for the potential
     extrapolated charge  188.18487, renormalised to  184.00000

[...]

     enthalpy old            =   -3130.5037024507 Ry
     enthalpy new            =   -3130.5199371386 Ry

     CASE: enthalpy_new < enthalpy_old

[...]

     number of scf cycles    =   4
     number of bfgs steps    =   3

     enthalpy old            =   -3130.5204814582 Ry
     enthalpy new            =   -3130.5205074768 Ry

     CASE: enthalpy_new < enthalpy_old

     new trust radius        =       0.0003592126 bohr
     new conv_thr            =            1.0E-10 Ry

     new unit-cell volume =   1425.23348 a.u.^3 (   211.19781 Ang^3 )
     density =      7.29129 g/cm^3

[...]

ATOMIC_POSITIONS (crystal)
W        0.250000000   0.250000000   0.210311576    0   0   0
W        0.750000023   0.750000023   0.789688439    0   0   0
W        0.750000023   0.750000023   0.289688439    0   0   0
W        0.250000000   0.250000000   0.710311561    0   0   0
O        0.250000000   0.250000000   0.476893287    0   0   0
O        0.750000023   0.750000023   0.523106713    0   0   0
O        0.750000023   0.750000023   0.023106726    0   0   0
O        0.250000000   0.250000000   0.976893287    0   0   0
O        0.489784481   0.510215473   0.250000000    0   0   0
O        0.510215519   0.489784527   0.750000000    0   0   0
O        0.010215502   0.989784527   0.250000000    0   0   0
O        0.989784435   0.010215536   0.750000000    0   0   0
O        0.989784527   0.489784481   0.250000000    0   0   0
O        0.010215536   0.510215519   0.750000000    0   0   0
O        0.510215473   0.010215502   0.250000000    0   0   0
O        0.489784527   0.989784435   0.750000000    0   0   0

     Writing output data file Landau_23.save/
     NEW-OLD atomic charge density approx. for the potential
     extrapolated charge  184.00025, renormalised to  184.00000

[...]

     Threshold (ethr) on eigenvalues was too large:
     Diagonalizing with lowered threshold

     Davidson diagonalization with overlap
     ethr =  1.68E-11,  avg # of iterations =  4.0

[...]

     bfgs converged in   5 scf cycles and   4 bfgs steps
     (criteria: energy <  1.0E-07 Ry, force <  1.0E-07Ry/Bohr, cell <  5.0E-01kbar)

     End of BFGS Geometry Optimization

     Final enthalpy =   -3130.5205075737 Ry
Begin final coordinates
     new unit-cell volume =   1425.23348 a.u.^3 (   211.19781 Ang^3 )
     density =      7.29129 g/cm^3

CELL_PARAMETERS (angstrom)
   5.252593018   0.000000000   0.000000000
   0.000000000   5.252593018   0.000000000
   0.000000000   0.000000000   7.654942006

ATOMIC_POSITIONS (crystal)
W        0.250000000   0.250000000   0.210311576    0   0   0
W        0.750000023   0.750000023   0.789688439    0   0   0
W        0.750000023   0.750000023   0.289688439    0   0   0
W        0.250000000   0.250000000   0.710311561    0   0   0
O        0.250000000   0.250000000   0.476893287    0   0   0
O        0.750000023   0.750000023   0.523106713    0   0   0
O        0.750000023   0.750000023   0.023106726    0   0   0
O        0.250000000   0.250000000   0.976893287    0   0   0
O        0.489784481   0.510215473   0.250000000    0   0   0
O        0.510215519   0.489784527   0.750000000    0   0   0
O        0.010215502   0.989784527   0.250000000    0   0   0
O        0.989784435   0.010215536   0.750000000    0   0   0
O        0.989784527   0.489784481   0.250000000    0   0   0
O        0.010215536   0.510215519   0.750000000    0   0   0
O        0.510215473   0.010215502   0.250000000    0   0   0
O        0.489784527   0.989784435   0.750000000    0   0   0
End final coordinates

     Writing output data file Landau_23.save/

     Final scf calculation at the relaxed structure.
     The G-vectors are recalculated for the final unit cell
     Results may differ from those at the preceding step.

     bravais-lattice index     =            0
     lattice parameter (alat)  =       9.7849  a.u.
     unit-cell volume          =    1425.2335 (a.u.)^3
     number of atoms/cell      =           16
     number of atomic types    =            2
     number of electrons       =       184.00
     number of Kohn-Sham states=          110
     kinetic-energy cutoff     =     120.0000  Ry
     charge density cutoff     =     480.0000  Ry
     convergence threshold     =      1.0E-10
     mixing beta               =       0.7000
     number of iterations used =            8  plain     mixing
     Exchange-correlation      = SLA PW NOGX NOGC ( 1  4  0  0 0 0)

     celldm(1)=   9.784926  celldm(2)=   0.000000  celldm(3)=   0.000000
     celldm(4)=   0.000000  celldm(5)=   0.000000  celldm(6)=   0.000000

     crystal axes: (cart. coord. in units of alat)
               a(1) = (   1.014414   0.000000   0.000000 )
               a(2) = (   0.000000   1.014414   0.000000 )
               a(3) = (   0.000000   0.000000   1.478370 )

     reciprocal axes: (cart. coord. in units 2 pi/alat)
               b(1) = (  0.985791  0.000000  0.000000 )
               b(2) = (  0.000000  0.985791  0.000000 )
               b(3) = (  0.000000  0.000000  0.676421 )

     PseudoPot. # 1 for W  read from file:
     /cluster/scratch/mnoe/QE/pps/W_ONCV_LDA-4.0.upf
     MD5 check sum: ba0307d5d4cd419d6f1d13dc49d7c13a
     Pseudo is Norm-conserving + core correction, Zval = 28.0
     Generated using ONCVPSP code by D. R. Hamann
     Using radial grid of 1380 points,  8 beta functions with:
                l(1) =   0
                l(2) =   0
                l(3) =   1
                l(4) =   1
                l(5) =   2
                l(6) =   2
                l(7) =   3
                l(8) =   3

     PseudoPot. # 2 for O  read from file:
     /cluster/scratch/mnoe/QE/pps/O_ONCV_LDA-3.0.upf
     MD5 check sum: b55cdb4f45ae2203d24ad12cf8d61a31
     Pseudo is Norm-conserving + core correction, Zval =  6.0
     Generated using ONCVPSP code by D. R. Hamann
     Using radial grid of  926 points,  5 beta functions with:
                l(1) =   0
                l(2) =   0
                l(3) =   1
                l(4) =   1
                l(5) =   2

     atomic species   valence    mass     pseudopotential
        W             28.00   183.84000     W ( 1.00)
        O              6.00    15.99940     O ( 1.00)

     16 Sym. Ops., with inversion, found (14 have fractional translation)

   Cartesian axes

     site n.     atom                  positions (alat units)
         1           W   tau(   1) = (   0.2536034   0.2536034   0.3109184  )
         2           W   tau(   2) = (   0.7608102   0.7608102   1.1674519  )
         3           W   tau(   3) = (   0.7608102   0.7608102   0.4282668  )
         4           W   tau(   4) = (   0.2536034   0.2536034   1.0501035  )
         5           O   tau(   5) = (   0.2536034   0.2536034   0.7050249  )
         6           O   tau(   6) = (   0.7608102   0.7608102   0.7733454  )
         7           O   tau(   7) = (   0.7608102   0.7608102   0.0341603  )
         8           O   tau(   8) = (   0.2536034   0.2536034   1.4442100  )
         9           O   tau(   9) = (   0.4968440   0.5175695   0.3695926  )
        10           O   tau(  10) = (   0.5175696   0.4968441   1.1087777  )
        11           O   tau(  11) = (   0.0103627   1.0040509   0.3695926  )
        12           O   tau(  12) = (   1.0040508   0.0103628   1.1087777  )
        13           O   tau(  13) = (   1.0040509   0.4968440   0.3695926  )
        14           O   tau(  14) = (   0.0103628   0.5175696   1.1087777  )
        15           O   tau(  15) = (   0.5175695   0.0103627   0.3695926  )
        16           O   tau(  16) = (   0.4968441   1.0040508   1.1087777  )

     number of k points=    40  gaussian smearing, width (Ry)=  0.0007
                       cart. coord. in units 2pi/alat
        k(    1) = (   0.0000000   0.0000000   0.0000000), wk =   0.0092593
        k(    2) = (   0.0000000   0.0000000   0.1127368), wk =   0.0185185
        k(    3) = (   0.0000000   0.0000000   0.2254735), wk =   0.0185185
        k(    4) = (   0.0000000   0.0000000  -0.3382103), wk =   0.0092593
        k(    5) = (   0.0000000   0.1642985   0.0000000), wk =   0.0370370
        k(    6) = (   0.0000000   0.1642985   0.1127368), wk =   0.0740741
        k(    7) = (   0.0000000   0.1642985   0.2254735), wk =   0.0740741
        k(    8) = (   0.0000000   0.1642985  -0.3382103), wk =   0.0370370
        k(    9) = (   0.0000000   0.3285971   0.0000000), wk =   0.0370370
        k(   10) = (   0.0000000   0.3285971   0.1127368), wk =   0.0740741
        k(   11) = (   0.0000000   0.3285971   0.2254735), wk =   0.0740741
        k(   12) = (   0.0000000   0.3285971  -0.3382103), wk =   0.0370370
        k(   13) = (   0.0000000  -0.4928956   0.0000000), wk =   0.0185185
        k(   14) = (   0.0000000  -0.4928956   0.1127368), wk =   0.0370370
        k(   15) = (   0.0000000  -0.4928956   0.2254735), wk =   0.0370370
        k(   16) = (   0.0000000  -0.4928956  -0.3382103), wk =   0.0185185
        k(   17) = (   0.1642985   0.1642985   0.0000000), wk =   0.0370370
        k(   18) = (   0.1642985   0.1642985   0.1127368), wk =   0.0740741
        k(   19) = (   0.1642985   0.1642985   0.2254735), wk =   0.0740741
        k(   20) = (   0.1642985   0.1642985  -0.3382103), wk =   0.0370370
        k(   21) = (   0.1642985   0.3285971   0.0000000), wk =   0.0740741
        k(   22) = (   0.1642985   0.3285971   0.1127368), wk =   0.1481481
        k(   23) = (   0.1642985   0.3285971   0.2254735), wk =   0.1481481
        k(   24) = (   0.1642985   0.3285971  -0.3382103), wk =   0.0740741
        k(   25) = (   0.1642985  -0.4928956   0.0000000), wk =   0.0370370
        k(   26) = (   0.1642985  -0.4928956   0.1127368), wk =   0.0740741
        k(   27) = (   0.1642985  -0.4928956   0.2254735), wk =   0.0740741
        k(   28) = (   0.1642985  -0.4928956  -0.3382103), wk =   0.0370370
        k(   29) = (   0.3285971   0.3285971   0.0000000), wk =   0.0370370
        k(   30) = (   0.3285971   0.3285971   0.1127368), wk =   0.0740741
        k(   31) = (   0.3285971   0.3285971   0.2254735), wk =   0.0740741
        k(   32) = (   0.3285971   0.3285971  -0.3382103), wk =   0.0370370
        k(   33) = (   0.3285971  -0.4928956   0.0000000), wk =   0.0370370
        k(   34) = (   0.3285971  -0.4928956   0.1127368), wk =   0.0740741
        k(   35) = (   0.3285971  -0.4928956   0.2254735), wk =   0.0740741
        k(   36) = (   0.3285971  -0.4928956  -0.3382103), wk =   0.0370370
        k(   37) = (  -0.4928956  -0.4928956   0.0000000), wk =   0.0092593
        k(   38) = (  -0.4928956  -0.4928956   0.1127368), wk =   0.0185185
        k(   39) = (  -0.4928956  -0.4928956   0.2254735), wk =   0.0185185
        k(   40) = (  -0.4928956  -0.4928956  -0.3382103), wk =   0.0092593

     Initial potential from superposition of free atoms

     starting charge  183.99828, renormalised to  184.00000
     Starting wfcs are  116 randomized atomic wfcs

     Self-consistent Calculation

[...]

     total energy              =   -3130.52072343 Ry
     Harris-Foulkes estimate   =   -3130.52072343 Ry
     estimated scf accuracy    <          1.6E-10 Ry

     iteration # 14     ecut=   120.00 Ry     beta= 0.70
     Davidson diagonalization with overlap
     ethr =  1.00E-13,  avg # of iterations =  2.0

     End of self-consistent calculation

[...]

          k = 0.3286-0.4929-0.3382 ( 31664 PWs)   bands (ev):

[...]

          k =-0.4929-0.4929-0.3382 ( 31648 PWs)   bands (ev):

   -66.4534 -66.4534 -66.4534 -66.4534 -30.7926 -30.7926 -30.7926 -30.7926
   -30.7631 -30.7631 -30.7631 -30.7630 -30.7049 -30.7049 -30.7049 -30.7049
   -20.6205 -20.6205 -20.6205 -20.6205 -20.6131 -20.6131 -20.6131 -20.6131
   -20.6075 -20.6075 -20.6075 -20.6075 -20.5923 -20.5923 -20.5923 -20.5923
   -20.5886 -20.5886 -20.5886 -20.5886 -20.5833 -20.5833 -20.5833 -20.5833
   -20.5803 -20.5803 -20.5803 -20.5803  -9.5870  -9.5870  -9.5870  -9.5870
    -8.6640  -8.6640  -8.6640  -8.6640  -7.9806  -7.9806  -7.9805  -7.9805
     1.0298   1.0298   1.0298   1.0298   2.8966   2.8966   2.8966   2.8966
     3.1432   3.1432   3.1432   3.1432   4.4643   4.4643   4.4643   4.4643
     5.1594   5.1594   5.1594   5.1594   5.8008   5.8008   5.8008   5.8008
     6.0557   6.0557   6.0557   6.0557   6.5243   6.5243   6.5243   6.5243
     7.3450   7.3450   7.3450   7.3450  11.0068  11.0068  11.0069  11.0069
    12.2876  12.2876  12.2876  12.2876  13.4194  13.4194  13.4194  13.4194
    14.8763  14.8763  14.8763  14.8763  17.8207  17.8207

     the Fermi energy is     8.6187 ev

!    total energy              =   -3130.52072343 Ry
     Harris-Foulkes estimate   =   -3130.52072343 Ry
     estimated scf accuracy    <          1.4E-12 Ry

     The total energy is the sum of the following terms:

     one-electron contribution =   -2396.81071210 Ry
     hartree contribution      =    1315.06940302 Ry
     xc contribution           =    -482.86001313 Ry
     ewald contribution        =   -1565.91940121 Ry
     smearing contrib. (-TS)   =      -0.00000000 Ry

     convergence has been achieved in  14 iterations

     Forces acting on atoms (cartesian axes, Ry/au):

     atom    1 type  1   force =     0.00000000    0.00000000   -0.01388877
     atom    2 type  1   force =     0.00000000    0.00000000    0.01388877
     atom    3 type  1   force =     0.00000000    0.00000000    0.01388877
     atom    4 type  1   force =     0.00000000    0.00000000   -0.01388877
     atom    5 type  2   force =     0.00000000    0.00000000    0.07138128
     atom    6 type  2   force =     0.00000000    0.00000000   -0.07138128
     atom    7 type  2   force =     0.00000000    0.00000000   -0.07138128
     atom    8 type  2   force =     0.00000000    0.00000000    0.07138128
     atom    9 type  2   force =    -0.00075366    0.00075366    0.00000000
     atom   10 type  2   force =     0.00075366   -0.00075366    0.00000000
     atom   11 type  2   force =     0.00075366   -0.00075366    0.00000000
     atom   12 type  2   force =    -0.00075366    0.00075366    0.00000000
     atom   13 type  2   force =    -0.00075366   -0.00075366    0.00000000
     atom   14 type  2   force =     0.00075366    0.00075366    0.00000000
     atom   15 type  2   force =     0.00075366    0.00075366    0.00000000
     atom   16 type  2   force =    -0.00075366   -0.00075366    0.00000000

     Total force =     0.000000     Total SCF correction =     0.000000

     Computing stress (Cartesian axis) and pressure

          total   stress  (Ry/bohr**3)                   (kbar)     P=    0.70
   0.00000704   0.00000000   0.00000000          1.04      0.00      0.00
   0.00000000   0.00000704   0.00000000          0.00      1.04      0.00
   0.00000000   0.00000000   0.00000020          0.00      0.00      0.03

     Writing output data file Landau_23.save/

     General routines

     Parallel routines

   This run was terminated on:  19:10: 1  19Nov2019

   JOB DONE.