     Program PWSCF v.6.4.1 starts on 21Nov2019 at 18: 4:30

     K-points division:     npool     =      40
     Reading input from rscf.in

     Current dimensions of program PWSCF are:
     Max number of different atomic species (ntypx) = 10
     Max number of k-points (npk) =  40000
     Max angular momentum in pseudopotentials (lmaxx) =  3

     Subspace diagonalization in iterative solution of the eigenvalue problem:
     a serial algorithm will be used

     Message from routine setup:
     using ibrav=0 with symmetry is DISCOURAGED, use correct ibrav instead

     bravais-lattice index     =            0
     lattice parameter (alat)  =       9.7849  a.u.
     unit-cell volume          =    1402.1515 (a.u.)^3
     number of atoms/cell      =           16
     number of atomic types    =            2
     number of electrons       =       184.00
     number of Kohn-Sham states=          110
     kinetic-energy cutoff     =     120.0000  Ry
     charge density cutoff     =     480.0000  Ry
     convergence threshold     =      1.0E-08
     mixing beta               =       0.7000
     number of iterations used =            8  plain     mixing
     Exchange-correlation      = SLA PW NOGX NOGC ( 1  4  0  0 0 0)
     nstep                     =           50

     celldm(1)=   9.784926  celldm(2)=   0.000000  celldm(3)=   0.000000
     celldm(4)=   0.000000  celldm(5)=   0.000000  celldm(6)=   0.000000

     crystal axes: (cart. coord. in units of alat)
               a(1) = (   1.000000   0.000000   0.000000 )
               a(2) = (   0.000000   1.000000   0.000000 )
               a(3) = (   0.000000   0.000000   1.496657 )

     reciprocal axes: (cart. coord. in units 2 pi/alat)
               b(1) = (  1.000000  0.000000  0.000000 )
               b(2) = (  0.000000  1.000000  0.000000 )
               b(3) = (  0.000000  0.000000  0.668156 )

     PseudoPot. # 1 for W  read from file:
     /cluster/scratch/mnoe/QE/pps/W_ONCV_LDA-4.0.upf
     MD5 check sum: ba0307d5d4cd419d6f1d13dc49d7c13a
     Pseudo is Norm-conserving + core correction, Zval = 28.0
     Generated using ONCVPSP code by D. R. Hamann
     Using radial grid of 1380 points,  8 beta functions with:
                l(1) =   0
                l(2) =   0
                l(3) =   1
                l(4) =   1
                l(5) =   2
                l(6) =   2
                l(7) =   3
                l(8) =   3

     PseudoPot. # 2 for O  read from file:
     /cluster/scratch/mnoe/QE/pps/O_ONCV_LDA-3.0.upf
     MD5 check sum: b55cdb4f45ae2203d24ad12cf8d61a31
     Pseudo is Norm-conserving + core correction, Zval =  6.0
     Generated using ONCVPSP code by D. R. Hamann
     Using radial grid of  926 points,  5 beta functions with:
                l(1) =   0
                l(2) =   0
                l(3) =   1
                l(4) =   1
                l(5) =   2

     atomic species   valence    mass     pseudopotential
        W             28.00   183.84000     W ( 1.00)
        O              6.00    15.99940     O ( 1.00)

     16 Sym. Ops., with inversion, found (14 have fractional translation)

   Cartesian axes

     site n.     atom                  positions (alat units)
         1           W   tau(   1) = (   0.2500000   0.2500000   0.3061264  )
         2           W   tau(   2) = (   0.7500000   0.7500000   1.1905306  )
         3           W   tau(   3) = (   0.7500000   0.7500000   0.4422021  )
         4           W   tau(   4) = (   0.2500000   0.2500000   1.0544549  )
         5           O   tau(   5) = (   0.2500000   0.2500000   0.6973993  )
         6           O   tau(   6) = (   0.7500000   0.7500000   0.7992577  )
         7           O   tau(   7) = (   0.7500000   0.7500000   0.0509292  )
         8           O   tau(   8) = (   0.2500000   0.2500000   1.4457278  )
         9           O   tau(   9) = (   0.5196265   0.4803734   0.3741643  )
        10           O   tau(  10) = (   0.4803735   0.5196266   1.1224928  )
        11           O   tau(  11) = (  -0.0196265   1.0196266   0.3741643  )
        12           O   tau(  12) = (   1.0196265  -0.0196265   1.1224928  )
        13           O   tau(  13) = (   1.0196266   0.5196265   0.3741643  )
        14           O   tau(  14) = (  -0.0196265   0.4803735   1.1224928  )
        15           O   tau(  15) = (   0.4803734  -0.0196265   0.3741643  )
        16           O   tau(  16) = (   0.5196266   1.0196265   1.1224928  )

     number of k points=    60  gaussian smearing, width (Ry)=  0.0007
                       cart. coord. in units 2pi/alat
        k(    1) = (   0.0000000   0.0000000   0.0000000), wk =   0.0041152
        k(    2) = (   0.0000000   0.0000000   0.1113593), wk =   0.0082305
        k(    3) = (   0.0000000   0.0000000   0.2227186), wk =   0.0082305
        k(    4) = (   0.0000000   0.0000000  -0.3340779), wk =   0.0041152
        k(    5) = (   0.0000000   0.1111111   0.0000000), wk =   0.0164609
        k(    6) = (   0.0000000   0.1111111   0.1113593), wk =   0.0329218
        k(    7) = (   0.0000000   0.1111111   0.2227186), wk =   0.0329218
        k(    8) = (   0.0000000   0.1111111  -0.3340779), wk =   0.0164609
        k(    9) = (   0.0000000   0.2222222   0.0000000), wk =   0.0164609
        k(   10) = (   0.0000000   0.2222222   0.1113593), wk =   0.0329218
        k(   11) = (   0.0000000   0.2222222   0.2227186), wk =   0.0329218
        k(   12) = (   0.0000000   0.2222222  -0.3340779), wk =   0.0164609
        k(   13) = (   0.0000000   0.3333333   0.0000000), wk =   0.0164609
        k(   14) = (   0.0000000   0.3333333   0.1113593), wk =   0.0329218
        k(   15) = (   0.0000000   0.3333333   0.2227186), wk =   0.0329218
        k(   16) = (   0.0000000   0.3333333  -0.3340779), wk =   0.0164609
        k(   17) = (   0.0000000   0.4444444   0.0000000), wk =   0.0164609
        k(   18) = (   0.0000000   0.4444444   0.1113593), wk =   0.0329218
        k(   19) = (   0.0000000   0.4444444   0.2227186), wk =   0.0329218
        k(   20) = (   0.0000000   0.4444444  -0.3340779), wk =   0.0164609
        k(   21) = (   0.1111111   0.1111111   0.0000000), wk =   0.0164609
        k(   22) = (   0.1111111   0.1111111   0.1113593), wk =   0.0329218
        k(   23) = (   0.1111111   0.1111111   0.2227186), wk =   0.0329218
        k(   24) = (   0.1111111   0.1111111  -0.3340779), wk =   0.0164609
        k(   25) = (   0.1111111   0.2222222   0.0000000), wk =   0.0329218
        k(   26) = (   0.1111111   0.2222222   0.1113593), wk =   0.0658436
        k(   27) = (   0.1111111   0.2222222   0.2227186), wk =   0.0658436
        k(   28) = (   0.1111111   0.2222222  -0.3340779), wk =   0.0329218
        k(   29) = (   0.1111111   0.3333333   0.0000000), wk =   0.0329218
        k(   30) = (   0.1111111   0.3333333   0.1113593), wk =   0.0658436
        k(   31) = (   0.1111111   0.3333333   0.2227186), wk =   0.0658436
        k(   32) = (   0.1111111   0.3333333  -0.3340779), wk =   0.0329218
        k(   33) = (   0.1111111   0.4444444   0.0000000), wk =   0.0329218
        k(   34) = (   0.1111111   0.4444444   0.1113593), wk =   0.0658436
        k(   35) = (   0.1111111   0.4444444   0.2227186), wk =   0.0658436
        k(   36) = (   0.1111111   0.4444444  -0.3340779), wk =   0.0329218
        k(   37) = (   0.2222222   0.2222222   0.0000000), wk =   0.0164609
        k(   38) = (   0.2222222   0.2222222   0.1113593), wk =   0.0329218
        k(   39) = (   0.2222222   0.2222222   0.2227186), wk =   0.0329218
        k(   40) = (   0.2222222   0.2222222  -0.3340779), wk =   0.0164609
        k(   41) = (   0.2222222   0.3333333   0.0000000), wk =   0.0329218
        k(   42) = (   0.2222222   0.3333333   0.1113593), wk =   0.0658436
        k(   43) = (   0.2222222   0.3333333   0.2227186), wk =   0.0658436
        k(   44) = (   0.2222222   0.3333333  -0.3340779), wk =   0.0329218
        k(   45) = (   0.2222222   0.4444444   0.0000000), wk =   0.0329218
        k(   46) = (   0.2222222   0.4444444   0.1113593), wk =   0.0658436
        k(   47) = (   0.2222222   0.4444444   0.2227186), wk =   0.0658436
        k(   48) = (   0.2222222   0.4444444  -0.3340779), wk =   0.0329218
        k(   49) = (   0.3333333   0.3333333   0.0000000), wk =   0.0164609
        k(   50) = (   0.3333333   0.3333333   0.1113593), wk =   0.0329218
        k(   51) = (   0.3333333   0.3333333   0.2227186), wk =   0.0329218
        k(   52) = (   0.3333333   0.3333333  -0.3340779), wk =   0.0164609
        k(   53) = (   0.3333333   0.4444444   0.0000000), wk =   0.0329218
        k(   54) = (   0.3333333   0.4444444   0.1113593), wk =   0.0658436
        k(   55) = (   0.3333333   0.4444444   0.2227186), wk =   0.0658436
        k(   56) = (   0.3333333   0.4444444  -0.3340779), wk =   0.0329218
        k(   57) = (   0.4444444   0.4444444   0.0000000), wk =   0.0164609
        k(   58) = (   0.4444444   0.4444444   0.1113593), wk =   0.0329218
        k(   59) = (   0.4444444   0.4444444   0.2227186), wk =   0.0329218
        k(   60) = (   0.4444444   0.4444444  -0.3340779), wk =   0.0164609

     Initial potential from superposition of free atoms

     starting charge  183.99828, renormalised to  184.00000
     Starting wfcs are  116 randomized atomic wfcs

     Self-consistent Calculation

     iteration #  1     ecut=   120.00 Ry     beta= 0.70
     Davidson diagonalization with overlap
     ethr =  1.00E-02,  avg # of iterations =  4.4

     total energy              =   -3126.69307460 Ry
     Harris-Foulkes estimate   =   -3132.26316613 Ry
     estimated scf accuracy    <       7.03828664 Ry

[...]

     End of self-consistent calculation

          k = 0.0000 0.0000 0.0000 ( 31095 PWs)   bands (ev):

   -66.2159 -66.2155 -66.2144 -66.2140 -30.5896 -30.5896 -30.5862 -30.5862
   -30.5018 -30.5018 -30.4993 -30.4993 -30.4593 -30.4563 -30.3999 -30.3983
   -20.3866 -20.3866 -20.3866 -20.3866 -20.3859 -20.3858 -20.3858 -20.3857
   -20.3839 -20.3839 -20.3839 -20.3839 -20.3595 -20.3594 -20.3587 -20.3586
   -20.3497 -20.3491 -20.3463 -20.3463 -20.3451 -20.3451 -20.3439 -20.3439
   -20.3438 -20.3433 -20.3427 -20.3427 -10.0455  -9.7582  -9.0812  -9.0616
    -8.8382  -8.5660  -7.7806  -7.7806  -7.7638  -7.7638  -7.5663  -7.4114
     0.9908   0.9964   1.3798   1.4419   1.6162   1.7533   2.3337   2.4307
     2.5603   2.5603   3.8357   3.8357   4.9664   5.3116   5.3116   5.6095
     5.6095   5.9621   5.9621   6.0341   6.2047   6.3114   6.3114   6.8339
     6.8339   6.8871   7.1200   7.1864   7.1864   7.2699   7.2699   7.3997
     8.3465   8.3495   8.5206   8.5206   8.9565   8.9773   9.6393   9.6393
    12.2965  12.2965  13.4272  13.5040  13.5040  13.5941  13.6076  14.2016
    14.2016  14.5938  14.5956  14.6822  15.2626  16.4078

[...]

     the Fermi energy is     8.7813 ev

!    total energy              =   -3130.45218552 Ry
     Harris-Foulkes estimate   =   -3130.45218552 Ry
     estimated scf accuracy    <          3.0E-09 Ry

     The total energy is the sum of the following terms:

     one-electron contribution =   -2367.24104641 Ry
     hartree contribution      =    1302.03415173 Ry
[...]
O       -0.019626489   0.480373494   0.750000000    0   0   0
O        0.480373448  -0.019626523   0.250000000    0   0   0
O        0.519626552   1.019626460   0.750000000    0   0   0

     Writing output data file Landau_40.save/
     NEW-OLD atomic charge density approx. for the potential
     extrapolated charge  183.95258, renormalised to  184.00000

[...]

     enthalpy old            =   -3130.4521855201 Ry
     enthalpy new            =   -3130.4664087199 Ry

     CASE: enthalpy_new < enthalpy_old

[...]

     number of scf cycles    =   3
     number of bfgs steps    =   2

     enthalpy old            =   -3130.4664087199 Ry
     enthalpy new            =   -3130.4664333873 Ry

     CASE: enthalpy_new < enthalpy_old

     new trust radius        =       0.0001838494 bohr
     new conv_thr            =            1.0E-10 Ry

     new unit-cell volume =   1402.75419 a.u.^3 (   207.86672 Ang^3 )
     density =      7.40814 g/cm^3

[...]

ATOMIC_POSITIONS (crystal)
W        0.250000000   0.250000000   0.204540139    0   0   0
W        0.750000023   0.750000023   0.795459876    0   0   0
W        0.750000023   0.750000023   0.295459876    0   0   0
W        0.250000000   0.250000000   0.704540124    0   0   0
O        0.250000000   0.250000000   0.465971349    0   0   0
O        0.750000023   0.750000023   0.534028651    0   0   0
O        0.750000023   0.750000023   0.034028664    0   0   0
O        0.250000000   0.250000000   0.965971349    0   0   0
O        0.519626506   0.480373448   0.250000000    0   0   0
O        0.480373494   0.519626552   0.750000000    0   0   0
O       -0.019626523   1.019626552   0.250000000    0   0   0
O        1.019626460  -0.019626489   0.750000000    0   0   0
O        1.019626552   0.519626506   0.250000000    0   0   0
O       -0.019626489   0.480373494   0.750000000    0   0   0
O        0.480373448  -0.019626523   0.250000000    0   0   0
O        0.519626552   1.019626460   0.750000000    0   0   0

     Writing output data file Landau_40.save/
     NEW-OLD atomic charge density approx. for the potential
     extrapolated charge  183.99059, renormalised to  184.00000

[...]

     Threshold (ethr) on eigenvalues was too large:
     Diagonalizing with lowered threshold

     Davidson diagonalization with overlap
     ethr =  5.16E-09,  avg # of iterations =  2.4

[...]

     bfgs converged in   4 scf cycles and   3 bfgs steps
     (criteria: energy <  1.0E-07 Ry, force <  1.0E-07Ry/Bohr, cell <  5.0E-01kbar)

     End of BFGS Geometry Optimization

     Final enthalpy =   -3130.4664334230 Ry
Begin final coordinates
     new unit-cell volume =   1402.75419 a.u.^3 (   207.86672 Ang^3 )
     density =      7.40814 g/cm^3

CELL_PARAMETERS (angstrom)
   5.227261880   0.000000000   0.000000000
   0.000000000   5.227261880   0.000000000
   0.000000000   0.000000000   7.607403488

ATOMIC_POSITIONS (crystal)
W        0.250000000   0.250000000   0.204540139    0   0   0
W        0.750000023   0.750000023   0.795459876    0   0   0
W        0.750000023   0.750000023   0.295459876    0   0   0
W        0.250000000   0.250000000   0.704540124    0   0   0
O        0.250000000   0.250000000   0.465971349    0   0   0
O        0.750000023   0.750000023   0.534028651    0   0   0
O        0.750000023   0.750000023   0.034028664    0   0   0
O        0.250000000   0.250000000   0.965971349    0   0   0
O        0.519626506   0.480373448   0.250000000    0   0   0
O        0.480373494   0.519626552   0.750000000    0   0   0
O       -0.019626523   1.019626552   0.250000000    0   0   0
O        1.019626460  -0.019626489   0.750000000    0   0   0
O        1.019626552   0.519626506   0.250000000    0   0   0
O       -0.019626489   0.480373494   0.750000000    0   0   0
O        0.480373448  -0.019626523   0.250000000    0   0   0
O        0.519626552   1.019626460   0.750000000    0   0   0
End final coordinates

     Writing output data file Landau_40.save/

     Final scf calculation at the relaxed structure.
     The G-vectors are recalculated for the final unit cell
     Results may differ from those at the preceding step.

     bravais-lattice index     =            0
     lattice parameter (alat)  =       9.7849  a.u.
     unit-cell volume          =    1402.7542 (a.u.)^3
     number of atoms/cell      =           16
     number of atomic types    =            2
     number of electrons       =       184.00
     number of Kohn-Sham states=          110
     kinetic-energy cutoff     =     120.0000  Ry
     charge density cutoff     =     480.0000  Ry
     convergence threshold     =      1.0E-10
     mixing beta               =       0.7000
     number of iterations used =            8  plain     mixing
     Exchange-correlation      = SLA PW NOGX NOGC ( 1  4  0  0 0 0)

     celldm(1)=   9.784926  celldm(2)=   0.000000  celldm(3)=   0.000000
     celldm(4)=   0.000000  celldm(5)=   0.000000  celldm(6)=   0.000000

     crystal axes: (cart. coord. in units of alat)
               a(1) = (   1.009522   0.000000   0.000000 )
               a(2) = (   0.000000   1.009522   0.000000 )
               a(3) = (   0.000000   0.000000   1.469189 )

     reciprocal axes: (cart. coord. in units 2 pi/alat)
               b(1) = (  0.990568  0.000000  0.000000 )
               b(2) = (  0.000000  0.990568  0.000000 )
               b(3) = (  0.000000  0.000000  0.680647 )

     PseudoPot. # 1 for W  read from file:
     /cluster/scratch/mnoe/QE/pps/W_ONCV_LDA-4.0.upf
     MD5 check sum: ba0307d5d4cd419d6f1d13dc49d7c13a
     Pseudo is Norm-conserving + core correction, Zval = 28.0
     Generated using ONCVPSP code by D. R. Hamann
     Using radial grid of 1380 points,  8 beta functions with:
                l(1) =   0
                l(2) =   0
                l(3) =   1
                l(4) =   1
                l(5) =   2
                l(6) =   2
                l(7) =   3
                l(8) =   3

     PseudoPot. # 2 for O  read from file:
     /cluster/scratch/mnoe/QE/pps/O_ONCV_LDA-3.0.upf
     MD5 check sum: b55cdb4f45ae2203d24ad12cf8d61a31
     Pseudo is Norm-conserving + core correction, Zval =  6.0
     Generated using ONCVPSP code by D. R. Hamann
     Using radial grid of  926 points,  5 beta functions with:
                l(1) =   0
                l(2) =   0
                l(3) =   1
                l(4) =   1
                l(5) =   2

     atomic species   valence    mass     pseudopotential
        W             28.00   183.84000     W ( 1.00)
        O              6.00    15.99940     O ( 1.00)

     16 Sym. Ops., with inversion, found (14 have fractional translation)

   Cartesian axes

     site n.     atom                  positions (alat units)
         1           W   tau(   1) = (   0.2523804   0.2523804   0.3005082  )
         2           W   tau(   2) = (   0.7571412   0.7571412   1.1686812  )
         3           W   tau(   3) = (   0.7571412   0.7571412   0.4340865  )
         4           W   tau(   4) = (   0.2523804   0.2523804   1.0351028  )
         5           O   tau(   5) = (   0.2523804   0.2523804   0.6846001  )
         6           O   tau(   6) = (   0.7571412   0.7571412   0.7845892  )
         7           O   tau(   7) = (   0.7571412   0.7571412   0.0499946  )
         8           O   tau(   8) = (   0.2523804   0.2523804   1.4191948  )
         9           O   tau(   9) = (   0.5245741   0.4849473   0.3672973  )
        10           O   tau(  10) = (   0.4849474   0.5245742   1.1018920  )
        11           O   tau(  11) = (  -0.0198134   1.0293349   0.3672973  )
        12           O   tau(  12) = (   1.0293348  -0.0198134   1.1018920  )
        13           O   tau(  13) = (   1.0293349   0.5245741   0.3672973  )
        14           O   tau(  14) = (  -0.0198134   0.4849474   1.1018920  )
        15           O   tau(  15) = (   0.4849473  -0.0198134   0.3672973  )
        16           O   tau(  16) = (   0.5245742   1.0293348   1.1018920  )

     number of k points=    60  gaussian smearing, width (Ry)=  0.0007
                       cart. coord. in units 2pi/alat
        k(    1) = (   0.0000000   0.0000000   0.0000000), wk =   0.0041152
        k(    2) = (   0.0000000   0.0000000   0.1134412), wk =   0.0082305
        k(    3) = (   0.0000000   0.0000000   0.2268825), wk =   0.0082305
        k(    4) = (   0.0000000   0.0000000  -0.3403237), wk =   0.0041152
        k(    5) = (   0.0000000   0.1100631   0.0000000), wk =   0.0164609
        k(    6) = (   0.0000000   0.1100631   0.1134412), wk =   0.0329218
        k(    7) = (   0.0000000   0.1100631   0.2268825), wk =   0.0329218
        k(    8) = (   0.0000000   0.1100631  -0.3403237), wk =   0.0164609
        k(    9) = (   0.0000000   0.2201263   0.0000000), wk =   0.0164609
        k(   10) = (   0.0000000   0.2201263   0.1134412), wk =   0.0329218
        k(   11) = (   0.0000000   0.2201263   0.2268825), wk =   0.0329218
        k(   12) = (   0.0000000   0.2201263  -0.3403237), wk =   0.0164609
        k(   13) = (   0.0000000   0.3301894   0.0000000), wk =   0.0164609
        k(   14) = (   0.0000000   0.3301894   0.1134412), wk =   0.0329218
        k(   15) = (   0.0000000   0.3301894   0.2268825), wk =   0.0329218
        k(   16) = (   0.0000000   0.3301894  -0.3403237), wk =   0.0164609
        k(   17) = (   0.0000000   0.4402526   0.0000000), wk =   0.0164609
        k(   18) = (   0.0000000   0.4402526   0.1134412), wk =   0.0329218
        k(   19) = (   0.0000000   0.4402526   0.2268825), wk =   0.0329218
        k(   20) = (   0.0000000   0.4402526  -0.3403237), wk =   0.0164609
        k(   21) = (   0.1100631   0.1100631   0.0000000), wk =   0.0164609
        k(   22) = (   0.1100631   0.1100631   0.1134412), wk =   0.0329218
        k(   23) = (   0.1100631   0.1100631   0.2268825), wk =   0.0329218
        k(   24) = (   0.1100631   0.1100631  -0.3403237), wk =   0.0164609
        k(   25) = (   0.1100631   0.2201263   0.0000000), wk =   0.0329218
        k(   26) = (   0.1100631   0.2201263   0.1134412), wk =   0.0658436
        k(   27) = (   0.1100631   0.2201263   0.2268825), wk =   0.0658436
        k(   28) = (   0.1100631   0.2201263  -0.3403237), wk =   0.0329218
        k(   29) = (   0.1100631   0.3301894   0.0000000), wk =   0.0329218
        k(   30) = (   0.1100631   0.3301894   0.1134412), wk =   0.0658436
        k(   31) = (   0.1100631   0.3301894   0.2268825), wk =   0.0658436
        k(   32) = (   0.1100631   0.3301894  -0.3403237), wk =   0.0329218
        k(   33) = (   0.1100631   0.4402526   0.0000000), wk =   0.0329218
        k(   34) = (   0.1100631   0.4402526   0.1134412), wk =   0.0658436
        k(   35) = (   0.1100631   0.4402526   0.2268825), wk =   0.0658436
        k(   36) = (   0.1100631   0.4402526  -0.3403237), wk =   0.0329218
        k(   37) = (   0.2201263   0.2201263   0.0000000), wk =   0.0164609
        k(   38) = (   0.2201263   0.2201263   0.1134412), wk =   0.0329218
        k(   39) = (   0.2201263   0.2201263   0.2268825), wk =   0.0329218
        k(   40) = (   0.2201263   0.2201263  -0.3403237), wk =   0.0164609
        k(   41) = (   0.2201263   0.3301894   0.0000000), wk =   0.0329218
        k(   42) = (   0.2201263   0.3301894   0.1134412), wk =   0.0658436
        k(   43) = (   0.2201263   0.3301894   0.2268825), wk =   0.0658436
        k(   44) = (   0.2201263   0.3301894  -0.3403237), wk =   0.0329218
        k(   45) = (   0.2201263   0.4402526   0.0000000), wk =   0.0329218
        k(   46) = (   0.2201263   0.4402526   0.1134412), wk =   0.0658436
        k(   47) = (   0.2201263   0.4402526   0.2268825), wk =   0.0658436
        k(   48) = (   0.2201263   0.4402526  -0.3403237), wk =   0.0329218
        k(   49) = (   0.3301894   0.3301894   0.0000000), wk =   0.0164609
        k(   50) = (   0.3301894   0.3301894   0.1134412), wk =   0.0329218
        k(   51) = (   0.3301894   0.3301894   0.2268825), wk =   0.0329218
        k(   52) = (   0.3301894   0.3301894  -0.3403237), wk =   0.0164609
        k(   53) = (   0.3301894   0.4402526   0.0000000), wk =   0.0329218
        k(   54) = (   0.3301894   0.4402526   0.1134412), wk =   0.0658436
        k(   55) = (   0.3301894   0.4402526   0.2268825), wk =   0.0658436
        k(   56) = (   0.3301894   0.4402526  -0.3403237), wk =   0.0329218
        k(   57) = (   0.4402526   0.4402526   0.0000000), wk =   0.0164609
        k(   58) = (   0.4402526   0.4402526   0.1134412), wk =   0.0329218
        k(   59) = (   0.4402526   0.4402526   0.2268825), wk =   0.0329218
        k(   60) = (   0.4402526   0.4402526  -0.3403237), wk =   0.0164609

     Initial potential from superposition of free atoms

     starting charge  183.99828, renormalised to  184.00000
     Starting wfcs are  116 randomized atomic wfcs

     Self-consistent Calculation

[...]

     total energy              =   -3130.46649570 Ry
     Harris-Foulkes estimate   =   -3130.46649570 Ry
     estimated scf accuracy    <          5.6E-10 Ry

     iteration # 13     ecut=   120.00 Ry     beta= 0.70
     Davidson diagonalization with overlap
     ethr =  3.06E-13,  avg # of iterations =  3.0

     End of self-consistent calculation

[...]

          k = 0.4403 0.4403-0.3403 ( 31204 PWs)   bands (ev):

   -66.2148 -66.2148 -66.2147 -66.2147 -30.5537 -30.5537 -30.5515 -30.5515
   -30.4945 -30.4945 -30.4940 -30.4940 -30.4687 -30.4687 -30.4667 -30.4667
   -20.3908 -20.3908 -20.3907 -20.3907 -20.3864 -20.3864 -20.3864 -20.3864
   -20.3853 -20.3853 -20.3852 -20.3852 -20.3596 -20.3596 -20.3596 -20.3596
   -20.3457 -20.3457 -20.3457 -20.3457 -20.3424 -20.3424 -20.3423 -20.3423
   -20.3402 -20.3402 -20.3401 -20.3401  -9.3436  -9.3436  -9.3034  -9.3034
    -8.3752  -8.3752  -8.3693  -8.3693  -7.8159  -7.8159  -7.7659  -7.7659
     1.3391   1.3391   1.4474   1.4474   3.0695   3.0695   3.0806   3.0806
     3.3645   3.3645   3.3842   3.3843   4.5911   4.5911   4.7888   4.7889
     5.3518   5.3518   5.4915   5.4915   5.8852   5.8852   6.0456   6.0456
     6.3527   6.3527   6.4794   6.4794   6.8333   6.8333   6.9466   6.9466
     7.7019   7.7019   7.7083   7.7084  11.2331  11.2331  11.2894  11.2894
    12.3602  12.3602  12.4622  12.4622  13.5645  13.5645  13.6591  13.6591
    15.0407  15.0407  15.2235  15.2235  17.9752  17.9752

     the Fermi energy is     8.7824 ev

!    total energy              =   -3130.46649570 Ry
     Harris-Foulkes estimate   =   -3130.46649570 Ry
     estimated scf accuracy    <          3.7E-11 Ry

     The total energy is the sum of the following terms:

     one-electron contribution =   -2367.45925945 Ry
     hartree contribution      =    1302.13090368 Ry
     xc contribution           =    -482.86625641 Ry
     ewald contribution        =   -1582.27188352 Ry
     smearing contrib. (-TS)   =      -0.00000000 Ry

     convergence has been achieved in  13 iterations

     Forces acting on atoms (cartesian axes, Ry/au):

     atom    1 type  1   force =     0.00000000    0.00000000   -0.02808455
     atom    2 type  1   force =     0.00000000    0.00000000    0.02808455
     atom    3 type  1   force =     0.00000000    0.00000000    0.02808455
     atom    4 type  1   force =     0.00000000    0.00000000   -0.02808455
     atom    5 type  2   force =     0.00000000    0.00000000    0.12919234
     atom    6 type  2   force =     0.00000000    0.00000000   -0.12919234
     atom    7 type  2   force =     0.00000000    0.00000000   -0.12919234
     atom    8 type  2   force =     0.00000000    0.00000000    0.12919234
     atom    9 type  2   force =     0.00164676   -0.00164676    0.00000000
     atom   10 type  2   force =    -0.00164676    0.00164676    0.00000000
     atom   11 type  2   force =    -0.00164676    0.00164676    0.00000000
     atom   12 type  2   force =     0.00164676   -0.00164676    0.00000000
     atom   13 type  2   force =     0.00164676    0.00164676    0.00000000
     atom   14 type  2   force =    -0.00164676   -0.00164676    0.00000000
     atom   15 type  2   force =    -0.00164676   -0.00164676    0.00000000
     atom   16 type  2   force =     0.00164676    0.00164676    0.00000000

     Total force =     0.000000     Total SCF correction =     0.000000

     Computing stress (Cartesian axis) and pressure

          total   stress  (Ry/bohr**3)                   (kbar)     P=    0.22
   0.00000296   0.00000000   0.00000000          0.44      0.00      0.00
   0.00000000   0.00000296   0.00000000          0.00      0.44      0.00
   0.00000000   0.00000000  -0.00000151          0.00      0.00     -0.22

     Writing output data file Landau_40.save/

     General routines

     Parallel routines

   This run was terminated on:  18:26:47  21Nov2019

   JOB DONE.