     Program PWSCF v.6.2 (svn rev. 14038) starts on  5Mar2020 at  2:36: 9

     K-points division:     npool     =      64
     Reading input from rscf.in

     Current dimensions of program PWSCF are:
     Max number of different atomic species (ntypx) = 10
     Max number of k-points (npk) =  40000
     Max angular momentum in pseudopotentials (lmaxx) =  3

     Subspace diagonalization in iterative solution of the eigenvalue problem:
     a serial algorithm will be used

     Found symmetry operation: I + (  0.5000  0.0000 -0.5000)
     This is a supercell, fractional translations are disabled

     bravais-lattice index     =            0
     lattice parameter (alat)  =      13.8397  a.u.
     unit-cell volume          =    2804.9816 (a.u.)^3
     number of atoms/cell      =           32
     number of atomic types    =            2
     number of electrons       =       368.00
     number of Kohn-Sham states=          221
     kinetic-energy cutoff     =     120.0000  Ry
     charge density cutoff     =     480.0000  Ry
     convergence threshold     =      1.0E-08
     mixing beta               =       0.7000
     number of iterations used =            8  plain     mixing
     Exchange-correlation      = SLA PW NOGX NOGC ( 1  4  0  0 0 0)
     nstep                     =           50

     celldm(1)=  13.839685  celldm(2)=   0.000000  celldm(3)=   0.000000
     celldm(4)=   0.000000  celldm(5)=   0.000000  celldm(6)=   0.000000

     crystal axes: (cart. coord. in units of alat)
               a(1) = (   1.000000   0.000000   0.000000 )
               a(2) = (   0.000000   1.058160   0.000000 )
               a(3) = (   0.000000   0.000000   1.000000 )

     reciprocal axes: (cart. coord. in units 2 pi/alat)
               b(1) = (  1.000000  0.000000  0.000000 )
               b(2) = (  0.000000  0.945037  0.000000 )
               b(3) = (  0.000000  0.000000  1.000000 )

     PseudoPot. # 1 for W  read from file:
     /cluster/scratch/mnoe/QE/pps/W_ONCV_LDA-4.0.upf
     MD5 check sum: ba0307d5d4cd419d6f1d13dc49d7c13a
     Pseudo is Norm-conserving + core correction, Zval = 28.0
     Generated using ONCVPSP code by D. R. Hamann
     Using radial grid of 1380 points,  8 beta functions with:
                l(1) =   0
                l(2) =   0
                l(3) =   1
                l(4) =   1
                l(5) =   2
                l(6) =   2
                l(7) =   3
                l(8) =   3

     PseudoPot. # 2 for O  read from file:
     /cluster/scratch/mnoe/QE/pps/O_ONCV_LDA-3.0.upf
     MD5 check sum: a1bd6164e7280c17a38c229939bfbd54
     Pseudo is Norm-conserving + core correction, Zval =  6.0
     Generated using ONCVPSP code by D. R. Hamann
     Using radial grid of  926 points,  5 beta functions with:
                l(1) =   0
                l(2) =   0
                l(3) =   1
                l(4) =   1
                l(5) =   2

     atomic species   valence    mass     pseudopotential
        W             28.00   183.84000     W ( 1.00)
        O              6.00    15.99940     O ( 1.00)

      2 Sym. Ops., with inversion, found

   Cartesian axes

     site n.     atom                  positions (alat units)
         1           W   tau(   1) = (   0.2500000   0.2814078   0.0000000  )
         2           W   tau(   2) = (   0.7499999   0.7767522   0.0000000  )
         3           W   tau(   3) = (   0.2500000   0.2476722   0.5000000  )
         4           W   tau(   4) = (   0.7499999   0.8104880   0.5000000  )
         5           W   tau(   5) = (   0.7499999   0.2814078   0.5000000  )
         6           W   tau(   6) = (   0.2500000   0.7767522   0.5000000  )
         7           W   tau(   7) = (   0.7499999   0.2476722   0.0000000  )
         8           W   tau(   8) = (   0.2500000   0.8104880   0.0000000  )
         9           O   tau(   9) = (   0.2500000   0.0042148   0.0000000  )
        10           O   tau(  10) = (   0.7499999   1.0539452   0.0000000  )
        11           O   tau(  11) = (   0.2500000   0.5248653   0.5000000  )
        12           O   tau(  12) = (   0.7499999   0.5332949   0.5000000  )
        13           O   tau(  13) = (   0.7499999   0.0042148   0.5000000  )
        14           O   tau(  14) = (   0.2500000   1.0539452   0.5000000  )
        15           O   tau(  15) = (   0.7499999   0.5248653   0.0000000  )
        16           O   tau(  16) = (   0.2500000   0.5332949   0.0000000  )
        17           O   tau(  17) = (   0.5000000   0.2645400   0.4884658  )
        18           O   tau(  18) = (   0.5000000   0.7936201   0.5115343  )
        19           O   tau(  19) = (   0.0000000   0.2645400   0.9884658  )
        20           O   tau(  20) = (   0.0000000   0.7936201   0.0115341  )
        21           O   tau(  21) = (   0.5000000   0.2645400   0.0115341  )
        22           O   tau(  22) = (   0.5000000   0.7936201   0.9884658  )
        23           O   tau(  23) = (   0.0000000   0.2645400   0.5115343  )
        24           O   tau(  24) = (   0.0000000   0.7936201   0.4884658  )
        25           O   tau(  25) = (   0.7384657   0.2645400   0.7499999  )
        26           O   tau(  26) = (   0.2615341   0.7936201   0.2500000  )
        27           O   tau(  27) = (   0.7615344   0.2645400   0.2500000  )
        28           O   tau(  28) = (   0.2384658   0.7936201   0.7499999  )
        29           O   tau(  29) = (   0.2615341   0.2645400   0.7499999  )
        30           O   tau(  30) = (   0.7384657   0.7936201   0.2500000  )
        31           O   tau(  31) = (   0.2384658   0.2645400   0.2500000  )
        32           O   tau(  32) = (   0.7615344   0.7936201   0.7499999  )

     number of k points=   112  gaussian smearing, width (Ry)=  0.0007

     Number of k-points >= 100: set verbosity='high' to print them.

     Initial potential from superposition of free atoms

     starting charge  367.99656, renormalised to  368.00000
     Starting wfc are  232 randomized atomic wfcs

     Self-consistent Calculation

     iteration #  1     ecut=   120.00 Ry     beta= 0.70
     Davidson diagonalization with overlap
     ethr =  1.00E-02,  avg # of iterations =  5.5

     total energy              =   -6253.98761565 Ry
     Harris-Foulkes estimate   =   -6264.51055733 Ry
     estimated scf accuracy    <      13.37024657 Ry

[...]

     End of self-consistent calculation

     Number of k-points >= 100: set verbosity='high' to print the bands.

     the Fermi energy is     8.4588 ev

!    total energy              =   -6260.96005782 Ry
     Harris-Foulkes estimate   =   -6260.96005783 Ry
     estimated scf accuracy    <          3.2E-09 Ry

     The total energy is the sum of the following terms:

     one-electron contribution =   -4816.91825005 Ry
     hartree contribution      =    2645.32778920 Ry
     xc contribution           =    -966.71620743 Ry
     ewald contribution        =   -3122.65338955 Ry
     smearing contrib. (-TS)   =      -0.00000000 Ry

     convergence has been achieved in  14 iterations

     Forces acting on atoms (cartesian axes, Ry/au):

     atom    1 type  1   force =    -0.00002936    0.06507578   -0.00001184
     atom    2 type  1   force =     0.00002936   -0.06507578    0.00001184
     atom    3 type  1   force =     0.00000316   -0.06508097    0.00001009
     atom    4 type  1   force =    -0.00000316    0.06508097   -0.00001009
     atom    5 type  1   force =    -0.00000372    0.06511362    0.00001241
     atom    6 type  1   force =     0.00000372   -0.06511362   -0.00001241
     atom    7 type  1   force =     0.00002575   -0.06512080   -0.00002241
     atom    8 type  1   force =    -0.00002575    0.06512080    0.00002241
     atom    9 type  2   force =    -0.00000030   -0.03230455    0.00000005
     atom   10 type  2   force =     0.00000030    0.03230455   -0.00000005
     atom   11 type  2   force =     0.00000054    0.03230483   -0.00000025
     atom   12 type  2   force =    -0.00000054   -0.03230483    0.00000025
     atom   13 type  2   force =    -0.00000035   -0.03230940   -0.00000014
     atom   14 type  2   force =     0.00000035    0.03230940    0.00000014
     atom   15 type  2   force =     0.00000036    0.03231094   -0.00000017
     atom   16 type  2   force =    -0.00000036   -0.03231094    0.00000017
     atom   17 type  2   force =    -0.00000161    0.00000071   -0.00700816
     atom   18 type  2   force =     0.00000161   -0.00000071    0.00700816
     atom   19 type  2   force =     0.00000184   -0.00000032   -0.00700861
     atom   20 type  2   force =    -0.00000184    0.00000032    0.00700861
     atom   21 type  2   force =    -0.00000040    0.00000038    0.00700949
     atom   22 type  2   force =     0.00000040   -0.00000038   -0.00700949
     atom   23 type  2   force =     0.00000007   -0.00000089    0.00700744
     atom   24 type  2   force =    -0.00000007    0.00000089   -0.00700744
     atom   25 type  2   force =    -0.00700818   -0.00000040    0.00000177
     atom   26 type  2   force =     0.00700818    0.00000040   -0.00000177
     atom   27 type  2   force =     0.00700805   -0.00000049    0.00000002
     atom   28 type  2   force =    -0.00700805    0.00000049   -0.00000002
     atom   29 type  2   force =     0.00700857    0.00000000    0.00000074
     atom   30 type  2   force =    -0.00700857   -0.00000000   -0.00000074
     atom   31 type  2   force =    -0.00700763   -0.00000030    0.00000092
     atom   32 type  2   force =     0.00700763    0.00000030   -0.00000092

     Total force =     0.000000     Total SCF correction =     0.000000

     Computing stress (Cartesian axis) and pressure

          total   stress  (Ry/bohr**3)                   (kbar)     P=  100.73
   0.00137513  -0.00000000  -0.00000000        202.29     -0.00     -0.00
  -0.00000000  -0.00069604   0.00000000         -0.00   -102.39      0.00
  -0.00000000   0.00000000   0.00137513         -0.00      0.00    202.29

     BFGS Geometry Optimization

     number of scf cycles    =   1
     number of bfgs steps    =   0

     enthalpy new            =   -6260.9600578229 Ry

     new trust radius        =       0.3641481853 bohr
     new conv_thr            =       0.0000000100 Ry

     new unit-cell volume =   2948.93356 a.u.^3 (   436.98686 Ang^3 )
     density =      7.04783 g/cm^3

CELL_PARAMETERS (angstrom)
   7.575419384  -0.000000489  -0.000000113
  -0.000000517   7.614738479   0.000000346
  -0.000000113   0.000000327   7.575419846

ATOMIC_POSITIONS (crystal)
W        0.250000000   0.265940715   0.000000000    0   0   0
W        0.749999915   0.734059285  -0.000000000    0   0   0
W        0.250000000   0.234059306   0.500000000    0   0   0
W        0.749999915   0.765940847   0.500000000    0   0   0
W        0.749999915   0.265940715   0.500000000    0   0   0
W        0.250000000   0.734059285   0.500000000    0   0   0
W        0.749999915   0.234059306   0.000000000    0   0   0
W        0.250000000   0.765940847   0.000000000    0   0   0
O        0.250000000   0.003983114  -0.000000000    0   0   0
O        0.749999915   0.996016798   0.000000000    0   0   0
[...]
O        0.500000000   0.750000064   0.511534345    0   0   0
O        0.000000000   0.250000000   0.988465830    0   0   0
O       -0.000000000   0.750000064   0.011534071    0   0   0
O        0.500000000   0.250000000   0.011534071    0   0   0
O        0.500000000   0.750000064   0.988465830    0   0   0
O       -0.000000000   0.250000000   0.511534345    0   0   0
O        0.000000000   0.750000064   0.488465797    0   0   0
O        0.738465740   0.250000000   0.749999915    0   0   0
O        0.261534119   0.750000064   0.250000000    0   0   0
O        0.761534430   0.250000000   0.250000000    0   0   0
O        0.238465813   0.750000064   0.749999915    0   0   0
O        0.261534119   0.250000000   0.749999915    0   0   0
O        0.738465740   0.750000064   0.250000000    0   0   0
O        0.238465813   0.250000000   0.250000000    0   0   0
O        0.761534430   0.750000064   0.749999915    0   0   0

     Writing output data file Landau_40.save
     NEW-OLD atomic charge density approx. for the potential
     extrapolated charge  385.96372, renormalised to  368.00000

[...]

     iteration #  1     ecut=   120.00 Ry     beta= 0.70
     Davidson diagonalization with overlap
     c_bands:  1 eigenvalues not converged
     ethr =  1.00E-06,  avg # of iterations = 15.4

[...]

     enthalpy old            =   -6260.9600578229 Ry
     enthalpy new            =   -6261.0647682824 Ry

     CASE: enthalpy_new < enthalpy_old

[...]

     Threshold (ethr) on eigenvalues was too large:
     Diagonalizing with lowered threshold

     Davidson diagonalization with overlap
     ethr =  3.04E-08,  avg # of iterations =  3.0

[...]

     number of scf cycles    =   5
     number of bfgs steps    =   4

     enthalpy old            =   -6261.0757412457 Ry
     enthalpy new            =   -6261.0757539647 Ry

     CASE: enthalpy_new < enthalpy_old

     small trust_radius: resetting bfgs history

     new trust radius        =       0.0000612736 bohr
     new conv_thr            =            1.0E-10 Ry

     new unit-cell volume =   2893.26033 a.u.^3 (   428.73694 Ang^3 )
     density =      7.18345 g/cm^3

[...]

ATOMIC_POSITIONS (crystal)
W        0.250000000   0.265940715  -0.000000000    0   0   0
W        0.749999915   0.734059285  -0.000000000    0   0   0
W        0.250000000   0.234059306   0.500000000    0   0   0
W        0.749999915   0.765940847   0.500000000    0   0   0
W        0.749999915   0.265940715   0.500000000    0   0   0
W        0.250000000   0.734059285   0.500000000    0   0   0
W        0.749999915   0.234059306  -0.000000000    0   0   0
W        0.250000000   0.765940847  -0.000000000    0   0   0
O        0.250000000   0.003983114  -0.000000000    0   0   0
O        0.749999915   0.996016798  -0.000000000    0   0   0
O        0.250000000   0.496016931   0.500000000    0   0   0
O        0.749999915   0.503983202   0.500000000    0   0   0
O        0.749999915   0.003983114   0.500000000    0   0   0
O        0.250000000   0.996016798   0.500000000    0   0   0
O        0.749999915   0.496016931   0.000000000    0   0   0
O        0.250000000   0.503983202   0.000000000    0   0   0
O        0.500000000   0.250000000   0.488465797    0   0   0
O        0.500000000   0.750000064   0.511534345    0   0   0
O       -0.000000000   0.250000000   0.988465830    0   0   0
O       -0.000000000   0.750000064   0.011534071    0   0   0
O        0.500000000   0.250000000   0.011534071    0   0   0
O        0.500000000   0.750000064   0.988465830    0   0   0
O       -0.000000000   0.250000000   0.511534345    0   0   0
O       -0.000000000   0.750000064   0.488465797    0   0   0
O        0.738465740   0.250000000   0.749999915    0   0   0
O        0.261534119   0.750000064   0.250000000    0   0   0
O        0.761534430   0.250000000   0.250000000    0   0   0
O        0.238465813   0.750000064   0.749999915    0   0   0
O        0.261534119   0.250000000   0.749999915    0   0   0
O        0.738465740   0.750000064   0.250000000    0   0   0
O        0.238465813   0.250000000   0.250000000    0   0   0
O        0.761534430   0.750000064   0.749999915    0   0   0

     Writing output data file Landau_40.save
     NEW-OLD atomic charge density approx. for the potential
     extrapolated charge  367.99604, renormalised to  368.00000

[...]

     Threshold (ethr) on eigenvalues was too large:
     Diagonalizing with lowered threshold

     Davidson diagonalization with overlap
     ethr =  2.44E-10,  avg # of iterations =  2.1

[...]

     bfgs converged in   6 scf cycles and   5 bfgs steps
     (criteria: energy <  1.0E-07 Ry, force <  1.0E-07Ry/Bohr, cell <  5.0E-01kbar)

     End of BFGS Geometry Optimization

     Final enthalpy =   -6261.0757539649 Ry
Begin final coordinates
     new unit-cell volume =   2893.26033 a.u.^3 (   428.73694 Ang^3 )
     density =      7.18345 g/cm^3

CELL_PARAMETERS (angstrom)
   7.512522096  -0.000000220  -0.000000025
  -0.000000229   7.596601646   0.000000121
  -0.000000025   0.000000119   7.512522583

ATOMIC_POSITIONS (crystal)
W        0.250000000   0.265940715  -0.000000000    0   0   0
W        0.749999915   0.734059285  -0.000000000    0   0   0
W        0.250000000   0.234059306   0.500000000    0   0   0
W        0.749999915   0.765940847   0.500000000    0   0   0
W        0.749999915   0.265940715   0.500000000    0   0   0
W        0.250000000   0.734059285   0.500000000    0   0   0
W        0.749999915   0.234059306  -0.000000000    0   0   0
W        0.250000000   0.765940847   0.000000000    0   0   0
O        0.250000000   0.003983114  -0.000000000    0   0   0
O        0.749999915   0.996016798  -0.000000000    0   0   0
O        0.250000000   0.496016931   0.500000000    0   0   0
O        0.749999915   0.503983202   0.500000000    0   0   0
O        0.749999915   0.003983114   0.500000000    0   0   0
O        0.250000000   0.996016798   0.500000000    0   0   0
O        0.749999915   0.496016931   0.000000000    0   0   0
O        0.250000000   0.503983202   0.000000000    0   0   0
O        0.500000000   0.250000000   0.488465797    0   0   0
O        0.500000000   0.750000064   0.511534345    0   0   0
O       -0.000000000   0.250000000   0.988465830    0   0   0
O       -0.000000000   0.750000064   0.011534071    0   0   0
O        0.500000000   0.250000000   0.011534071    0   0   0
O        0.500000000   0.750000064   0.988465830    0   0   0
O       -0.000000000   0.250000000   0.511534345    0   0   0
O       -0.000000000   0.750000064   0.488465797    0   0   0
O        0.738465740   0.250000000   0.749999915    0   0   0
O        0.261534119   0.750000064   0.250000000    0   0   0
O        0.761534430   0.250000000   0.250000000    0   0   0
O        0.238465813   0.750000064   0.749999915    0   0   0
O        0.261534119   0.250000000   0.749999915    0   0   0
O        0.738465740   0.750000064   0.250000000    0   0   0
O        0.238465813   0.250000000   0.250000000    0   0   0
O        0.761534430   0.750000064   0.749999915    0   0   0
End final coordinates

     A final scf calculation at the relaxed structure.
     The G-vectors are recalculated for the final unit cell
     Results may differ from those at the preceding step.

     bravais-lattice index     =            0
     lattice parameter (alat)  =      13.8397  a.u.
     unit-cell volume          =    2893.2603 (a.u.)^3
     number of atoms/cell      =           32
     number of atomic types    =            2
     number of electrons       =       368.00
     number of Kohn-Sham states=          221
     kinetic-energy cutoff     =     120.0000  Ry
     charge density cutoff     =     480.0000  Ry
     convergence threshold     =      1.0E-10
     mixing beta               =       0.7000
     number of iterations used =            8  plain     mixing
     Exchange-correlation      = SLA PW NOGX NOGC ( 1  4  0  0 0 0)

     celldm(1)=  13.839685  celldm(2)=   0.000000  celldm(3)=   0.000000
     celldm(4)=   0.000000  celldm(5)=   0.000000  celldm(6)=   0.000000

     crystal axes: (cart. coord. in units of alat)
               a(1) = (   1.025790  -0.000000  -0.000000 )
               a(2) = (  -0.000000   1.037270   0.000000 )
               a(3) = (  -0.000000   0.000000   1.025790 )

     reciprocal axes: (cart. coord. in units 2 pi/alat)
               b(1) = (  0.974859  0.000000  0.000000 )
               b(2) = (  0.000000  0.964069 -0.000000 )
               b(3) = (  0.000000 -0.000000  0.974858 )

     PseudoPot. # 1 for W  read from file:
     /cluster/scratch/mnoe/QE/pps/W_ONCV_LDA-4.0.upf
     MD5 check sum: ba0307d5d4cd419d6f1d13dc49d7c13a
     Pseudo is Norm-conserving + core correction, Zval = 28.0
     Generated using ONCVPSP code by D. R. Hamann
     Using radial grid of 1380 points,  8 beta functions with:
                l(1) =   0
                l(2) =   0
                l(3) =   1
                l(4) =   1
                l(5) =   2
                l(6) =   2
                l(7) =   3
                l(8) =   3

     PseudoPot. # 2 for O  read from file:
     /cluster/scratch/mnoe/QE/pps/O_ONCV_LDA-3.0.upf
     MD5 check sum: a1bd6164e7280c17a38c229939bfbd54
     Pseudo is Norm-conserving + core correction, Zval =  6.0
     Generated using ONCVPSP code by D. R. Hamann
     Using radial grid of  926 points,  5 beta functions with:
                l(1) =   0
                l(2) =   0
                l(3) =   1
                l(4) =   1
                l(5) =   2

     atomic species   valence    mass     pseudopotential
        W             28.00   183.84000     W ( 1.00)
        O              6.00    15.99940     O ( 1.00)

      2 Sym. Ops., with inversion, found

   Cartesian axes

     site n.     atom                  positions (alat units)
         1           W   tau(   1) = (   0.2564475   0.2758524   0.0000000  )
         2           W   tau(   2) = (   0.7693423   0.7614180   0.0000000  )
         3           W   tau(   3) = (   0.2564475   0.2427828   0.5128950  )
         4           W   tau(   4) = (   0.7693423   0.7944878   0.5128950  )
         5           W   tau(   5) = (   0.7693423   0.2758524   0.5128950  )
         6           W   tau(   6) = (   0.2564474   0.7614180   0.5128950  )
         7           W   tau(   7) = (   0.7693423   0.2427828   0.0000000  )
         8           W   tau(   8) = (   0.2564474   0.7944878   0.0000000  )
         9           O   tau(   9) = (   0.2564475   0.0041316  -0.0000000  )
        10           O   tau(  10) = (   0.7693423   1.0331388   0.0000000  )
        11           O   tau(  11) = (   0.2564475   0.5145037   0.5128950  )
        12           O   tau(  12) = (   0.7693423   0.5227669   0.5128950  )
        13           O   tau(  13) = (   0.7693423   0.0041316   0.5128950  )
        14           O   tau(  14) = (   0.2564474   1.0331388   0.5128950  )
        15           O   tau(  15) = (   0.7693423   0.5145037   0.0000000  )
        16           O   tau(  16) = (   0.2564475   0.5227669   0.0000000  )
        17           O   tau(  17) = (   0.5128949   0.2593176   0.5010633  )
        18           O   tau(  18) = (   0.5128949   0.7779529   0.5247268  )
        19           O   tau(  19) = (  -0.0000000   0.2593176   1.0139583  )
        20           O   tau(  20) = (  -0.0000000   0.7779529   0.0118315  )
        21           O   tau(  21) = (   0.5128949   0.2593176   0.0118315  )
        22           O   tau(  22) = (   0.5128949   0.7779529   1.0139583  )
        23           O   tau(  23) = (  -0.0000000   0.2593176   0.5247268  )
        24           O   tau(  24) = (  -0.0000000   0.7779529   0.5010633  )
        25           O   tau(  25) = (   0.7575107   0.2593176   0.7693424  )
        26           O   tau(  26) = (   0.2682790   0.7779529   0.2564475  )
        27           O   tau(  27) = (   0.7811743   0.2593176   0.2564475  )
        28           O   tau(  28) = (   0.2446158   0.7779529   0.7693424  )
        29           O   tau(  29) = (   0.2682790   0.2593176   0.7693424  )
        30           O   tau(  30) = (   0.7575107   0.7779529   0.2564475  )
        31           O   tau(  31) = (   0.2446158   0.2593176   0.2564475  )
        32           O   tau(  32) = (   0.7811743   0.7779529   0.7693424  )

     number of k points=   112  gaussian smearing, width (Ry)=  0.0007

     Number of k-points >= 100: set verbosity='high' to print them.

     Initial potential from superposition of free atoms

     starting charge  367.99656, renormalised to  368.00000
     Starting wfc are  232 randomized atomic wfcs

     Writing output data file Landau_40.save

     Self-consistent Calculation

[...]

     total energy              =   -6261.07716014 Ry
     Harris-Foulkes estimate   =   -6261.07716014 Ry
     estimated scf accuracy    <          2.2E-10 Ry

     iteration # 17     ecut=   120.00 Ry     beta= 0.70
     Davidson diagonalization with overlap
     ethr =  1.00E-13,  avg # of iterations =  2.0

     End of self-consistent calculation

     Number of k-points >= 100: set verbosity='high' to print the bands.

     the Fermi energy is     8.3610 ev

!    total energy              =   -6261.07716014 Ry
     Harris-Foulkes estimate   =   -6261.07716014 Ry
     estimated scf accuracy    <          2.4E-11 Ry

     The total energy is the sum of the following terms:

     one-electron contribution =   -4859.06544311 Ry
     hartree contribution      =    2659.08056069 Ry
     xc contribution           =    -965.68194228 Ry
     ewald contribution        =   -3095.41033544 Ry
     smearing contrib. (-TS)   =      -0.00000000 Ry

     convergence has been achieved in  17 iterations

     Forces acting on atoms (cartesian axes, Ry/au):

     atom    1 type  1   force =     0.00000154    0.02198909    0.00000781
     atom    2 type  1   force =    -0.00000154   -0.02198909   -0.00000781
     atom    3 type  1   force =    -0.00000743   -0.02200148   -0.00000506
     atom    4 type  1   force =     0.00000743    0.02200148    0.00000506
     atom    5 type  1   force =     0.00000364    0.02198969    0.00000746
     atom    6 type  1   force =    -0.00000364   -0.02198969   -0.00000746
     atom    7 type  1   force =     0.00000234   -0.02200198   -0.00000736
     atom    8 type  1   force =    -0.00000234    0.02200198    0.00000736
     atom    9 type  2   force =    -0.00000002   -0.01208294    0.00000001
     atom   10 type  2   force =     0.00000002    0.01208294   -0.00000001
     atom   11 type  2   force =    -0.00000000    0.01208277    0.00000003
     atom   12 type  2   force =     0.00000000   -0.01208277   -0.00000003
     atom   13 type  2   force =     0.00000000   -0.01208264   -0.00000001
     atom   14 type  2   force =    -0.00000000    0.01208264    0.00000001
     atom   15 type  2   force =    -0.00000002    0.01208274   -0.00000002
     atom   16 type  2   force =     0.00000002   -0.01208274    0.00000002
     atom   17 type  2   force =    -0.00000026   -0.00000012   -0.00077159
     atom   18 type  2   force =     0.00000026    0.00000012    0.00077159
     atom   19 type  2   force =    -0.00000004    0.00000005   -0.00077179
     atom   20 type  2   force =     0.00000004   -0.00000005    0.00077179
     atom   21 type  2   force =     0.00000007    0.00000004    0.00077187
     atom   22 type  2   force =    -0.00000007   -0.00000004   -0.00077187
     atom   23 type  2   force =     0.00000020   -0.00000000    0.00077153
     atom   24 type  2   force =    -0.00000020    0.00000000   -0.00077153
     atom   25 type  2   force =    -0.00077168    0.00000000    0.00000098
     atom   26 type  2   force =     0.00077168   -0.00000000   -0.00000098
     atom   27 type  2   force =     0.00077143   -0.00000006   -0.00000110
     atom   28 type  2   force =    -0.00077143    0.00000006    0.00000110
     atom   29 type  2   force =     0.00077159    0.00000003    0.00000070
     atom   30 type  2   force =    -0.00077159   -0.00000003   -0.00000070
     atom   31 type  2   force =    -0.00077137    0.00000012   -0.00000075
     atom   32 type  2   force =     0.00077137   -0.00000012    0.00000075

     Total force =     0.000000     Total SCF correction =     0.000000

     Computing stress (Cartesian axis) and pressure

          total   stress  (Ry/bohr**3)                   (kbar)     P=    2.07
   0.00001992   0.00000000  -0.00000000          2.93      0.00     -0.00
   0.00000000   0.00000232   0.00000000          0.00      0.34      0.00
  -0.00000000   0.00000000   0.00001992         -0.00      0.00      2.93

     Writing output data file Landau_40.save

     General routines

     Parallel routines

   This run was terminated on:   7:21:48   5Mar2020

   JOB DONE.