     Program PWSCF v.6.4.1 starts on 16Dec2019 at 23:26:21

     K-points division:     npool     =      40
     Reading input from scf.in

     Current dimensions of program PWSCF are:
     Max number of different atomic species (ntypx) = 10
     Max number of k-points (npk) =  40000
     Max angular momentum in pseudopotentials (lmaxx) =  3

     Subspace diagonalization in iterative solution of the eigenvalue problem:
     a serial algorithm will be used

     Message from routine setup:
     using ibrav=0 with symmetry is DISCOURAGED, use correct ibrav instead

     bravais-lattice index     =            0
     lattice parameter (alat)  =      13.8389  a.u.
     unit-cell volume          =    2803.8811 (a.u.)^3
     number of atoms/cell      =           32
     number of atomic types    =            2
     number of electrons       =       368.50
     number of Kohn-Sham states=          221
     kinetic-energy cutoff     =     120.0000  Ry
     charge density cutoff     =     480.0000  Ry
     convergence threshold     =      1.0E-08
     mixing beta               =       0.7000
     number of iterations used =            8  plain     mixing
     Exchange-correlation      = SLA PW NOGX NOGC ( 1  4  0  0 0 0)

     celldm(1)=  13.838905  celldm(2)=   0.000000  celldm(3)=   0.000000
     celldm(4)=   0.000000  celldm(5)=   0.000000  celldm(6)=   0.000000

     crystal axes: (cart. coord. in units of alat)
               a(1) = (   1.000000   0.000000   0.000000 )
               a(2) = (   0.000000   1.057731   0.000000 )
               a(3) = (   0.000000   0.000000   1.000182 )

     reciprocal axes: (cart. coord. in units 2 pi/alat)
               b(1) = (  1.000000  0.000000  0.000000 )
               b(2) = (  0.000000  0.945420  0.000000 )
               b(3) = (  0.000000  0.000000  0.999818 )

     PseudoPot. # 1 for W  read from file:
     /cluster/scratch/mnoe/QE/pps/W_ONCV_LDA-4.0.upf
     MD5 check sum: ba0307d5d4cd419d6f1d13dc49d7c13a
     Pseudo is Norm-conserving + core correction, Zval = 28.0
     Generated using ONCVPSP code by D. R. Hamann
     Using radial grid of 1380 points,  8 beta functions with:
                l(1) =   0
                l(2) =   0
                l(3) =   1
                l(4) =   1
                l(5) =   2
                l(6) =   2
                l(7) =   3
                l(8) =   3

     PseudoPot. # 2 for O  read from file:
     /cluster/scratch/mnoe/QE/pps/O_ONCV_LDA-3.0.upf
     MD5 check sum: b55cdb4f45ae2203d24ad12cf8d61a31
     Pseudo is Norm-conserving + core correction, Zval =  6.0
     Generated using ONCVPSP code by D. R. Hamann
     Using radial grid of  926 points,  5 beta functions with:
                l(1) =   0
                l(2) =   0
                l(3) =   1
                l(4) =   1
                l(5) =   2

     atomic species   valence    mass     pseudopotential
        W             28.00   183.84000     W ( 1.00)
        O              6.00    15.99940     O ( 1.00)

      8 Sym. Ops., with inversion, found ( 6 have fractional translation)

   Cartesian axes

     site n.     atom                  positions (alat units)
         1           W   tau(   1) = (   0.2472300   0.2981322   0.0026205  )
         2           W   tau(   2) = (   0.7527700   0.7595993   0.9975614  )
         3           W   tau(   3) = (   0.2527700   0.2307336   0.5027114  )
         4           W   tau(   4) = (   0.7472300   0.8269979   0.4974705  )
         5           W   tau(   5) = (   0.7527700   0.2981322   0.4974705  )
         6           W   tau(   6) = (   0.2472300   0.7595993   0.5027114  )
         7           W   tau(   7) = (   0.7472300   0.2307336   0.9975614  )
         8           W   tau(   8) = (   0.2527700   0.8269979   0.0026205  )
         9           O   tau(   9) = (   0.2448800   0.0088003   0.0008201  )
        10           O   tau(  10) = (   0.7551200   1.0489312   0.9993618  )
        11           O   tau(  11) = (   0.2551200   0.5200654   0.5009111  )
        12           O   tau(  12) = (   0.7448800   0.5376660   0.4992708  )
        13           O   tau(  13) = (   0.7551200   0.0088003   0.4992708  )
        14           O   tau(  14) = (   0.2448800   1.0489312   0.5009111  )
        15           O   tau(  15) = (   0.7448800   0.5200654   0.9993618  )
        16           O   tau(  16) = (   0.2551200   0.5376660   0.0008201  )
        17           O   tau(  17) = (   0.5007600   0.2588798   0.4496218  )
        18           O   tau(  18) = (   0.4992400   0.7988517   0.5505601  )
        19           O   tau(  19) = (   0.9992399   0.2699860   0.9497127  )
        20           O   tau(  20) = (   0.0007601   0.7877456   0.0504692  )
        21           O   tau(  21) = (   0.4992400   0.2588798   0.0504692  )
        22           O   tau(  22) = (   0.5007600   0.7988517   0.9497127  )
        23           O   tau(  23) = (   0.0007601   0.2699860   0.5505601  )
        24           O   tau(  24) = (   0.9992399   0.7877456   0.4496218  )
        25           O   tau(  25) = (   0.6995400   0.2632165   0.7489862  )
        26           O   tau(  26) = (   0.3004600   0.7945150   0.2511957  )
        27           O   tau(  27) = (   0.8004600   0.2656493   0.2488953  )
        28           O   tau(  28) = (   0.1995400   0.7920822   0.7512866  )
        29           O   tau(  29) = (   0.3004600   0.2632165   0.7512866  )
        30           O   tau(  30) = (   0.6995400   0.7945150   0.2488953  )
        31           O   tau(  31) = (   0.1995400   0.2656493   0.2511957  )
        32           O   tau(  32) = (   0.8004600   0.7920822   0.7489862  )

     number of k points=    64  gaussian smearing, width (Ry)=  0.0007
                       cart. coord. in units 2pi/alat
        k(    1) = (   0.0000000   0.0000000   0.0000000), wk =   0.0092593
        k(    2) = (   0.0000000   0.0000000   0.1666364), wk =   0.0185185
        k(    3) = (   0.0000000   0.0000000   0.3332727), wk =   0.0185185
        k(    4) = (   0.0000000   0.0000000  -0.4999091), wk =   0.0092593
        k(    5) = (   0.0000000   0.1575699   0.0000000), wk =   0.0185185
        k(    6) = (   0.0000000   0.1575699   0.1666364), wk =   0.0370370
        k(    7) = (   0.0000000   0.1575699   0.3332727), wk =   0.0370370
        k(    8) = (   0.0000000   0.1575699  -0.4999091), wk =   0.0185185
        k(    9) = (   0.0000000   0.3151398   0.0000000), wk =   0.0185185
        k(   10) = (   0.0000000   0.3151398   0.1666364), wk =   0.0370370
        k(   11) = (   0.0000000   0.3151398   0.3332727), wk =   0.0370370
        k(   12) = (   0.0000000   0.3151398  -0.4999091), wk =   0.0185185
        k(   13) = (   0.0000000  -0.4727098   0.0000000), wk =   0.0092593
        k(   14) = (   0.0000000  -0.4727098   0.1666364), wk =   0.0185185
        k(   15) = (   0.0000000  -0.4727098   0.3332727), wk =   0.0185185
        k(   16) = (   0.0000000  -0.4727098  -0.4999091), wk =   0.0092593
        k(   17) = (   0.1666667   0.0000000   0.0000000), wk =   0.0185185
        k(   18) = (   0.1666667   0.0000000   0.1666364), wk =   0.0370370
        k(   19) = (   0.1666667   0.0000000   0.3332727), wk =   0.0370370
        k(   20) = (   0.1666667   0.0000000  -0.4999091), wk =   0.0185185
        k(   21) = (   0.1666667   0.1575699   0.0000000), wk =   0.0370370
        k(   22) = (   0.1666667   0.1575699   0.1666364), wk =   0.0740741
        k(   23) = (   0.1666667   0.1575699   0.3332727), wk =   0.0740741
        k(   24) = (   0.1666667   0.1575699  -0.4999091), wk =   0.0370370
        k(   25) = (   0.1666667   0.3151398   0.0000000), wk =   0.0370370
        k(   26) = (   0.1666667   0.3151398   0.1666364), wk =   0.0740741
        k(   27) = (   0.1666667   0.3151398   0.3332727), wk =   0.0740741
        k(   28) = (   0.1666667   0.3151398  -0.4999091), wk =   0.0370370
        k(   29) = (   0.1666667  -0.4727098   0.0000000), wk =   0.0185185
        k(   30) = (   0.1666667  -0.4727098   0.1666364), wk =   0.0370370
        k(   31) = (   0.1666667  -0.4727098   0.3332727), wk =   0.0370370
        k(   32) = (   0.1666667  -0.4727098  -0.4999091), wk =   0.0185185
        k(   33) = (   0.3333333   0.0000000   0.0000000), wk =   0.0185185
        k(   34) = (   0.3333333   0.0000000   0.1666364), wk =   0.0370370
        k(   35) = (   0.3333333   0.0000000   0.3332727), wk =   0.0370370
        k(   36) = (   0.3333333   0.0000000  -0.4999091), wk =   0.0185185
        k(   37) = (   0.3333333   0.1575699   0.0000000), wk =   0.0370370
        k(   38) = (   0.3333333   0.1575699   0.1666364), wk =   0.0740741
        k(   39) = (   0.3333333   0.1575699   0.3332727), wk =   0.0740741
        k(   40) = (   0.3333333   0.1575699  -0.4999091), wk =   0.0370370
        k(   41) = (   0.3333333   0.3151398   0.0000000), wk =   0.0370370
        k(   42) = (   0.3333333   0.3151398   0.1666364), wk =   0.0740741
        k(   43) = (   0.3333333   0.3151398   0.3332727), wk =   0.0740741
        k(   44) = (   0.3333333   0.3151398  -0.4999091), wk =   0.0370370
        k(   45) = (   0.3333333  -0.4727098   0.0000000), wk =   0.0185185
        k(   46) = (   0.3333333  -0.4727098   0.1666364), wk =   0.0370370
        k(   47) = (   0.3333333  -0.4727098   0.3332727), wk =   0.0370370
        k(   48) = (   0.3333333  -0.4727098  -0.4999091), wk =   0.0185185
        k(   49) = (  -0.5000000   0.0000000   0.0000000), wk =   0.0092593
        k(   50) = (  -0.5000000   0.0000000   0.1666364), wk =   0.0185185
        k(   51) = (  -0.5000000   0.0000000   0.3332727), wk =   0.0185185
        k(   52) = (  -0.5000000   0.0000000  -0.4999091), wk =   0.0092593
        k(   53) = (  -0.5000000   0.1575699   0.0000000), wk =   0.0185185
        k(   54) = (  -0.5000000   0.1575699   0.1666364), wk =   0.0370370
        k(   55) = (  -0.5000000   0.1575699   0.3332727), wk =   0.0370370
        k(   56) = (  -0.5000000   0.1575699  -0.4999091), wk =   0.0185185
        k(   57) = (  -0.5000000   0.3151398   0.0000000), wk =   0.0185185
        k(   58) = (  -0.5000000   0.3151398   0.1666364), wk =   0.0370370
        k(   59) = (  -0.5000000   0.3151398   0.3332727), wk =   0.0370370
        k(   60) = (  -0.5000000   0.3151398  -0.4999091), wk =   0.0185185
        k(   61) = (  -0.5000000  -0.4727098   0.0000000), wk =   0.0092593
        k(   62) = (  -0.5000000  -0.4727098   0.1666364), wk =   0.0185185
        k(   63) = (  -0.5000000  -0.4727098   0.3332727), wk =   0.0185185
        k(   64) = (  -0.5000000  -0.4727098  -0.4999091), wk =   0.0092593

     Initial potential from superposition of free atoms

     starting charge  367.99656, renormalised to  368.50000
     Starting wfcs are  232 randomized atomic wfcs

     Self-consistent Calculation

     iteration #  1     ecut=   120.00 Ry     beta= 0.70
     Davidson diagonalization with overlap
     ethr =  1.00E-02,  avg # of iterations =  5.2

     total energy              =   -6253.53472031 Ry
     Harris-Foulkes estimate   =   -6264.31870499 Ry
     estimated scf accuracy    <      13.59637439 Ry

[...]

     total energy              =   -6260.75767802 Ry
     Harris-Foulkes estimate   =   -6260.75767805 Ry
     estimated scf accuracy    <       0.00000006 Ry

     iteration # 13     ecut=   120.00 Ry     beta= 0.70
     Davidson diagonalization with overlap
     ethr =  1.64E-11,  avg # of iterations =  2.8

     End of self-consistent calculation

          k = 0.0000 0.0000 0.0000 ( 62231 PWs)   bands (ev):

   -66.0504 -66.0500 -66.0494 -66.0494 -66.0490 -66.0490 -66.0484 -66.0480
   -30.4868 -30.4834 -30.4833 -30.4800 -30.4276 -30.4245 -30.4242 -30.4213
   -30.3915 -30.3911 -30.3881 -30.3868 -30.3859 -30.3857 -30.3829 -30.3819
   -30.2900 -30.2896 -30.2874 -30.2868 -30.2858 -30.2852 -30.2830 -30.2823
   -20.2010 -20.2009 -20.2007 -20.2006 -20.2005 -20.2004 -20.2004 -20.2003
   -20.2003 -20.2002 -20.2001 -20.2000 -20.1954 -20.1952 -20.1951 -20.1949
   -20.1889 -20.1888 -20.1887 -20.1885 -20.1877 -20.1877 -20.1877 -20.1875
   -20.1862 -20.1860 -20.1860 -20.1860 -20.1852 -20.1850 -20.1849 -20.1848
   -20.1756 -20.1755 -20.1752 -20.1751 -20.1751 -20.1750 -20.1747 -20.1746
   -20.1531 -20.1531 -20.1528 -20.1528 -20.1516 -20.1516 -20.1514 -20.1513
   -20.1468 -20.1467 -20.1465 -20.1465 -20.1454 -20.1453 -20.1451 -20.1451
    -9.9167  -9.6281  -9.4776  -9.4776  -9.1932  -9.1921  -9.0641  -9.0023
    -8.9901  -8.8557  -8.8228  -8.8227  -7.8465  -7.7860  -7.7849  -7.7356
    -7.7344  -7.7329  -7.7093  -7.7092  -7.5793  -7.5787  -7.5578  -7.5575
     1.2606   1.2609   1.3323   1.3337   1.3531   1.3559   1.4068   1.6543
     1.6563   1.6574   1.6998   1.9011   2.4356   2.5107   2.5971   2.5984
     2.7479   2.7502   4.1679   4.1714   4.3924   4.3986   4.8452   4.8549
     4.8992   4.9028   4.9268   4.9278   5.0596   5.0596   5.0925   5.4470
     5.4518   5.5408   5.5533   5.5596   5.5602   5.6000   5.6112   5.8319
     5.8371   5.9099   5.9103   5.9552   5.9771   6.0711   6.0723   6.1616
     6.1622   6.2752   6.2786   6.5976   6.5987   6.8197   6.8253   6.8543
     6.8574   6.9054   7.0394   7.0435   7.1099   7.1126   7.4327   7.4368
     7.4771   7.4809   7.8206   7.8348   8.0912   8.0972   8.1574   8.1635
     9.3422   9.3485  10.0467  10.0488  10.0830  10.0855  12.3029  12.3205
    12.3285  12.3533  12.3842  12.3926  12.5513  12.5551  12.9245  12.9443
    13.2854  13.2949  13.4549  13.4602  13.8207  14.1745  14.2076  14.2123
    14.2260  14.4106  14.4456  14.8836  15.5052  15.5170  15.5177  16.1219
    16.1255  16.8593  17.0940  17.0989  17.4553

[...]

          k = 0.3333-0.4727-0.4999 ( 62180 PWs)   bands (ev):

[...]

          k =-0.5000 0.0000 0.0000 ( 62256 PWs)   bands (ev):

[...]

          k =-0.5000-0.4727-0.4999 ( 62232 PWs)   bands (ev):

   -66.0492 -66.0492 -66.0492 -66.0492 -66.0492 -66.0492 -66.0492 -66.0492
   -30.4548 -30.4548 -30.4548 -30.4548 -30.4546 -30.4546 -30.4546 -30.4546
   -30.3384 -30.3384 -30.3384 -30.3384 -30.3372 -30.3372 -30.3372 -30.3371
   -30.3358 -30.3358 -30.3358 -30.3358 -30.3345 -30.3345 -30.3345 -30.3345
   -20.2004 -20.2004 -20.2004 -20.2004 -20.2004 -20.2004 -20.2004 -20.2004
   -20.1980 -20.1980 -20.1980 -20.1980 -20.1980 -20.1980 -20.1980 -20.1980
   -20.1872 -20.1872 -20.1872 -20.1871 -20.1869 -20.1869 -20.1869 -20.1869
   -20.1867 -20.1867 -20.1867 -20.1867 -20.1865 -20.1865 -20.1865 -20.1865
   -20.1751 -20.1750 -20.1750 -20.1750 -20.1750 -20.1750 -20.1750 -20.1750
   -20.1494 -20.1494 -20.1494 -20.1494 -20.1494 -20.1494 -20.1494 -20.1494
   -20.1490 -20.1490 -20.1490 -20.1490 -20.1490 -20.1490 -20.1490 -20.1490
    -8.9024  -8.9024  -8.9024  -8.9024  -8.8975  -8.8975  -8.8975  -8.8974
    -8.3800  -8.3800  -8.3800  -8.3800  -8.3719  -8.3719  -8.3718  -8.3718
    -8.3092  -8.3092  -8.3092  -8.3092  -8.3047  -8.3047  -8.3047  -8.3046
     3.0348   3.0348   3.0348   3.0348   3.0488   3.0488   3.0488   3.0488
     3.1836   3.1836   3.1836   3.1836   3.2013   3.2013   3.2013   3.2013
     3.4624   3.4624   3.4624   3.4624   3.5054   3.5054   3.5054   3.5054
     4.1900   4.1900   4.1900   4.1900   4.1960   4.1960   4.1960   4.1960
     4.4059   4.4059   4.4059   4.4059   4.4116   4.4116   4.4116   4.4116
     4.4930   4.4930   4.4930   4.4930   4.5049   4.5049   4.5049   4.5049
     7.1952   7.1952   7.1952   7.1952   7.2506   7.2506   7.2506   7.2506
     7.3564   7.3564   7.3564   7.3564   7.3641   7.3641   7.3641   7.3641
     7.6347   7.6347   7.6347   7.6347   7.6484   7.6484   7.6484   7.6484
    11.8771  11.8771  11.8771  11.8771  11.8813  11.8813  11.8813  11.8813
    12.3147  12.3147  12.3147  12.3147  12.3645  12.3645  12.3645  12.3645
    12.5872  12.5872  12.5872  12.5872  12.6083  12.6083  12.6083  12.6083
    17.1632  17.1632  17.1632  17.1633  17.1882  17.1883  17.1883  17.1883
    17.4013  17.4013  17.4013  17.4014  17.4104

     the Fermi energy is     9.7222 ev

!    total energy              =   -6260.75767803 Ry
     Harris-Foulkes estimate   =   -6260.75767803 Ry
     estimated scf accuracy    <          6.7E-10 Ry

     The total energy is the sum of the following terms:

     one-electron contribution =   -4721.09764121 Ry
     hartree contribution      =    2598.85950257 Ry
     xc contribution           =    -966.22257868 Ry
     ewald contribution        =   -3172.29692603 Ry
     smearing contrib. (-TS)   =      -0.00003468 Ry

     convergence has been achieved in  13 iterations

     Writing output data file chempot_5.save/

     General routines

     Parallel routines

   This run was terminated on:  23:48:42  16Dec2019

   JOB DONE.