     Program PWSCF v.6.2 (svn rev. 14038) starts on 17Sep2019 at 12:35:37

     K-points division:     npool     =      40
     Reading input from scf.in

     Current dimensions of program PWSCF are:
     Max number of different atomic species (ntypx) = 10
     Max number of k-points (npk) =  40000
     Max angular momentum in pseudopotentials (lmaxx) =  3

     Subspace diagonalization in iterative solution of the eigenvalue problem:
     a serial algorithm will be used

     Found symmetry operation: I + ( -0.5000  0.0000 -0.5000)
     This is a supercell, fractional translations are disabled

     bravais-lattice index     =            0
     lattice parameter (alat)  =      13.8397  a.u.
     unit-cell volume          =    2804.9817 (a.u.)^3
     number of atoms/cell      =           32
     number of atomic types    =            2
     number of electrons       =       368.52
     number of Kohn-Sham states=          221
     kinetic-energy cutoff     =     120.0000  Ry
     charge density cutoff     =     480.0000  Ry
     convergence threshold     =      1.0E-08
     mixing beta               =       0.7000
     number of iterations used =            8  plain     mixing
     Exchange-correlation      = SLA PW NOGX NOGC ( 1  4  0  0 0 0)

     celldm(1)=  13.839685  celldm(2)=   0.000000  celldm(3)=   0.000000
     celldm(4)=   0.000000  celldm(5)=   0.000000  celldm(6)=   0.000000

     crystal axes: (cart. coord. in units of alat)
               a(1) = (   1.000000   0.000000   0.000000 )
               a(2) = (   0.000000   1.058160   0.000000 )
               a(3) = (   0.000000   0.000000   1.000000 )

     reciprocal axes: (cart. coord. in units 2 pi/alat)
               b(1) = (  1.000000  0.000000  0.000000 )
               b(2) = (  0.000000  0.945037  0.000000 )
               b(3) = (  0.000000  0.000000  1.000000 )

     PseudoPot. # 1 for W  read from file:
     /cluster/scratch/mnoe/QE/pps/W_ONCV_LDA-4.0.upf
     MD5 check sum: ba0307d5d4cd419d6f1d13dc49d7c13a
     Pseudo is Norm-conserving + core correction, Zval = 28.0
     Generated using ONCVPSP code by D. R. Hamann
     Using radial grid of 1380 points,  8 beta functions with:
                l(1) =   0
                l(2) =   0
                l(3) =   1
                l(4) =   1
                l(5) =   2
                l(6) =   2
                l(7) =   3
                l(8) =   3

     PseudoPot. # 2 for O  read from file:
     /cluster/scratch/mnoe/QE/pps/O_ONCV_LDA-3.0.upf
     MD5 check sum: ca1549d10c4e927e51167f6fca52ae32
     Pseudo is Norm-conserving + core correction, Zval =  6.0
     Generated using ONCVPSP code by D. R. Hamann
     Using radial grid of  926 points,  5 beta functions with:
                l(1) =   0
                l(2) =   0
                l(3) =   1
                l(4) =   1
                l(5) =   2

     atomic species   valence    mass     pseudopotential
        W             28.00   183.84000     W ( 1.00)
        O              6.00    15.99940     O ( 1.00)

      4 Sym. Ops. (no inversion) found

   Cartesian axes

     site n.     atom                  positions (alat units)
         1           W   tau(   1) = (   0.2500000   0.2982530   0.2500000  )
         2           W   tau(   2) = (   0.7500000   0.7599071   0.2500000  )
         3           W   tau(   3) = (   0.2500000   0.2308271   0.7500000  )
         4           W   tau(   4) = (   0.7500000   0.8273330   0.7500000  )
         5           W   tau(   5) = (   0.7500000   0.2982530   0.7500000  )
         6           W   tau(   6) = (   0.2500000   0.7599071   0.7500000  )
         7           W   tau(   7) = (   0.7500000   0.2308271   0.2500000  )
         8           W   tau(   8) = (   0.2500000   0.8273330   0.2500000  )
         9           O   tau(   9) = (   0.2500000   0.0088039   0.2500000  )
        10           O   tau(  10) = (   0.7500000   1.0493562   0.2500000  )
        11           O   tau(  11) = (   0.2500000   0.5202761   0.7500000  )
        12           O   tau(  12) = (   0.7500000   0.5378839   0.7500000  )
        13           O   tau(  13) = (   0.7500000   0.0088039   0.7500000  )
        14           O   tau(  14) = (   0.2500000   1.0493562   0.7500000  )
        15           O   tau(  15) = (   0.7500000   0.5202761   0.2500000  )
        16           O   tau(  16) = (   0.2500000   0.5378839   0.2500000  )
        17           O   tau(  17) = (   0.5000000   0.2645400   0.6995400  )
        18           O   tau(  18) = (   0.5000000   0.7936200   0.8004600  )
        19           O   tau(  19) = (   0.0000000   0.2645400   1.1995400  )
        20           O   tau(  20) = (   0.0000000   0.7936200   0.3004600  )
        21           O   tau(  21) = (   0.5000000   0.2645400   0.3004600  )
        22           O   tau(  22) = (   0.5000000   0.7936200   1.1995400  )
        23           O   tau(  23) = (   0.0000000   0.2645400   0.8004600  )
        24           O   tau(  24) = (   0.0000000   0.7936200   0.6995400  )
        25           O   tau(  25) = (   0.6995400   0.2645400   1.0000000  )
        26           O   tau(  26) = (   0.3004600   0.7936200   0.5000000  )
        27           O   tau(  27) = (   0.8004600   0.2645400   0.5000000  )
        28           O   tau(  28) = (   0.1995400   0.7936200   1.0000000  )
        29           O   tau(  29) = (   0.3004600   0.2645400   1.0000000  )
        30           O   tau(  30) = (   0.6995400   0.7936200   0.5000000  )
        31           O   tau(  31) = (   0.1995400   0.2645400   0.5000000  )
        32           O   tau(  32) = (   0.8004600   0.7936200   1.0000000  )

     number of k points=    44  gaussian smearing, width (Ry)=  0.0007
                       cart. coord. in units 2pi/alat
        k(    1) = (   0.0000000   0.0000000   0.0000000), wk =   0.0092593
        k(    2) = (   0.0000000   0.0000000   0.1666667), wk =   0.0370370
        k(    3) = (   0.0000000   0.0000000   0.3333333), wk =   0.0370370
        k(    4) = (   0.0000000   0.0000000  -0.5000000), wk =   0.0185185
        k(    5) = (   0.0000000   0.1575061   0.0000000), wk =   0.0185185
        k(    6) = (   0.0000000   0.1575061   0.1666667), wk =   0.0740741
        k(    7) = (   0.0000000   0.1575061   0.3333333), wk =   0.0740741
        k(    8) = (   0.0000000   0.1575061  -0.5000000), wk =   0.0370370
        k(    9) = (   0.0000000   0.3150122   0.0000000), wk =   0.0185185
        k(   10) = (   0.0000000   0.3150122   0.1666667), wk =   0.0740741
        k(   11) = (   0.0000000   0.3150122   0.3333333), wk =   0.0740741
        k(   12) = (   0.0000000   0.3150122  -0.5000000), wk =   0.0370370
        k(   13) = (   0.0000000  -0.4725183   0.0000000), wk =   0.0092593
        k(   14) = (   0.0000000  -0.4725183   0.1666667), wk =   0.0370370
        k(   15) = (   0.0000000  -0.4725183   0.3333333), wk =   0.0370370
        k(   16) = (   0.0000000  -0.4725183  -0.5000000), wk =   0.0185185
        k(   17) = (   0.1666667   0.0000000   0.1666667), wk =   0.0370370
        k(   18) = (   0.1666667   0.0000000   0.3333333), wk =   0.0370370
        k(   19) = (   0.1666667   0.0000000  -0.5000000), wk =   0.0370370
        k(   20) = (   0.1666667   0.1575061   0.1666667), wk =   0.0740741
        k(   21) = (   0.1666667   0.1575061   0.3333333), wk =   0.0740741
        k(   22) = (   0.1666667   0.1575061  -0.5000000), wk =   0.0740741
        k(   23) = (   0.1666667   0.3150122   0.1666667), wk =   0.0740741
        k(   24) = (   0.1666667   0.3150122   0.3333333), wk =   0.0740741
        k(   25) = (   0.1666667   0.3150122  -0.5000000), wk =   0.0740741
        k(   26) = (   0.1666667  -0.4725183   0.1666667), wk =   0.0370370
        k(   27) = (   0.1666667  -0.4725183   0.3333333), wk =   0.0370370
        k(   28) = (   0.1666667  -0.4725183  -0.5000000), wk =   0.0370370
        k(   29) = (   0.3333333   0.0000000   0.3333333), wk =   0.0370370
        k(   30) = (   0.3333333   0.0000000  -0.5000000), wk =   0.0370370
        k(   31) = (   0.3333333   0.1575061   0.3333333), wk =   0.0740741
        k(   32) = (   0.3333333   0.1575061  -0.5000000), wk =   0.0740741
        k(   33) = (   0.3333333   0.3150122   0.3333333), wk =   0.0740741
        k(   34) = (   0.3333333   0.3150122  -0.5000000), wk =   0.0740741
        k(   35) = (   0.3333333  -0.4725183   0.3333333), wk =   0.0370370
        k(   36) = (   0.3333333  -0.4725183  -0.5000000), wk =   0.0370370
        k(   37) = (  -0.5000000   0.0000000  -0.5000000), wk =   0.0092593
        k(   38) = (  -0.5000000   0.1575061  -0.5000000), wk =   0.0185185
        k(   39) = (  -0.5000000   0.3150122  -0.5000000), wk =   0.0185185
        k(   40) = (  -0.5000000  -0.4725183  -0.5000000), wk =   0.0092593
        k(   41) = (   0.3333333   0.0000000   0.1666667), wk =   0.0370370
        k(   42) = (   0.3333333  -0.1575061   0.1666667), wk =   0.0740741
        k(   43) = (   0.3333333  -0.3150122   0.1666667), wk =   0.0740741
        k(   44) = (   0.3333333   0.4725183   0.1666667), wk =   0.0370370

     Initial potential from superposition of free atoms

     starting charge  367.99656, renormalised to  368.52000
     Starting wfc are  232 randomized atomic wfcs

     Self-consistent Calculation

     iteration #  1     ecut=   120.00 Ry     beta= 0.70
     Davidson diagonalization with overlap
     ethr =  1.00E-02,  avg # of iterations =  5.1

     total energy              =   -6253.51551465 Ry
     Harris-Foulkes estimate   =   -6264.31006544 Ry
     estimated scf accuracy    <      13.60715015 Ry

[...]

     total energy              =   -6260.74380297 Ry
     Harris-Foulkes estimate   =   -6260.74380298 Ry
     estimated scf accuracy    <       0.00000001 Ry

     iteration # 15     ecut=   120.00 Ry     beta= 0.70
     Davidson diagonalization with overlap
     ethr =  3.62E-12,  avg # of iterations =  2.0

     End of self-consistent calculation

          k = 0.0000 0.0000 0.0000 ( 62239 PWs)   bands (ev):

   -66.0537 -66.0533 -66.0526 -66.0526 -66.0522 -66.0522 -66.0516 -66.0512
   -30.4915 -30.4882 -30.4882 -30.4850 -30.4317 -30.4290 -30.4290 -30.4264
   -30.3936 -30.3936 -30.3902 -30.3902 -30.3882 -30.3882 -30.3849 -30.3849
   -30.2919 -30.2919 -30.2891 -30.2891 -30.2874 -30.2874 -30.2847 -30.2847
   -20.2049 -20.2046 -20.2046 -20.2044 -20.2036 -20.2035 -20.2035 -20.2035
   -20.2034 -20.2034 -20.2034 -20.2033 -20.1994 -20.1991 -20.1991 -20.1989
   -20.1926 -20.1926 -20.1924 -20.1924 -20.1914 -20.1914 -20.1914 -20.1914
   -20.1897 -20.1897 -20.1897 -20.1897 -20.1887 -20.1887 -20.1885 -20.1885
   -20.1791 -20.1790 -20.1787 -20.1787 -20.1786 -20.1786 -20.1784 -20.1783
   -20.1552 -20.1552 -20.1552 -20.1552 -20.1537 -20.1537 -20.1537 -20.1537
   -20.1489 -20.1489 -20.1489 -20.1489 -20.1475 -20.1475 -20.1474 -20.1474
    -9.9215  -9.6334  -9.4830  -9.4830  -9.1983  -9.1983  -9.0705  -9.0084
    -8.9964  -8.8616  -8.8288  -8.8288  -7.8520  -7.7926  -7.7926  -7.7408
    -7.7382  -7.7382  -7.7121  -7.7121  -7.5816  -7.5816  -7.5604  -7.5604
     1.2536   1.2542   1.3259   1.3259   1.3475   1.3475   1.4004   1.6489
     1.6489   1.6521   1.6943   1.8947   2.4320   2.5064   2.5929   2.5929
     2.7441   2.7441   4.1645   4.1645   4.3884   4.3884   4.8496   4.8496
     4.9007   4.9007   4.9276   4.9276   5.0515   5.0515   5.0773   5.4426
     5.4426   5.5436   5.5436   5.5532   5.5532   5.5914   5.5914   5.8272
     5.8272   5.9067   5.9067   5.9550   5.9696   6.0702   6.0702   6.1585
     6.1585   6.2744   6.2744   6.5953   6.5953   6.8151   6.8151   6.8488
     6.8488   6.9053   7.0385   7.0432   7.1102   7.1102   7.4362   7.4362
     7.4805   7.4805   7.8189   7.8330   8.0911   8.0911   8.1575   8.1575
     9.3240   9.3316  10.0378  10.0378  10.0750  10.0750  12.3088  12.3088
    12.3294  12.3294  12.3791  12.3791  12.5417  12.5417  12.9440  12.9470
    13.2810  13.2810  13.4574  13.4574  13.8232  14.2063  14.2063  14.2108
    14.2108  14.3998  14.3998  14.8742  15.5023  15.5083  15.5133  16.1222
    16.1222  16.8573  17.0944  17.0944  17.4415

[...]

          k =-0.5000 0.0000-0.5000 ( 62308 PWs)   bands (ev):

[...]

          k =-0.5000-0.4725-0.5000 ( 62272 PWs)   bands (ev):

[...]

          k = 0.3333 0.4725 0.1667 ( 62252 PWs)   bands (ev):

   -66.0531 -66.0531 -66.0526 -66.0526 -66.0523 -66.0522 -66.0517 -66.0517
   -30.4613 -30.4613 -30.4597 -30.4597 -30.4587 -30.4587 -30.4571 -30.4571
   -30.3837 -30.3837 -30.3811 -30.3811 -30.3661 -30.3660 -30.3617 -30.3616
   -30.3155 -30.3155 -30.3115 -30.3115 -30.2962 -30.2962 -30.2940 -30.2939
   -20.2035 -20.2035 -20.2035 -20.2035 -20.2034 -20.2034 -20.2034 -20.2034
   -20.2022 -20.2022 -20.2020 -20.2020 -20.2020 -20.2019 -20.2018 -20.2018
   -20.1917 -20.1917 -20.1917 -20.1917 -20.1913 -20.1912 -20.1911 -20.1911
   -20.1899 -20.1899 -20.1898 -20.1898 -20.1894 -20.1894 -20.1893 -20.1893
   -20.1789 -20.1789 -20.1787 -20.1787 -20.1786 -20.1786 -20.1784 -20.1784
   -20.1545 -20.1544 -20.1537 -20.1537 -20.1536 -20.1536 -20.1524 -20.1523
   -20.1505 -20.1504 -20.1492 -20.1492 -20.1490 -20.1490 -20.1483 -20.1483
    -9.4956  -9.4956  -9.2643  -9.2641  -8.9791  -8.9787  -8.7966  -8.7965
    -8.5406  -8.5396  -8.4557  -8.4541  -8.4191  -8.4181  -8.4045  -8.4044
    -8.1285  -8.1278  -8.0269  -8.0264  -7.8075  -7.8071  -7.7321  -7.7317
     1.6259   1.6270   1.6468   1.6482   2.2853   2.2860   2.4676   2.4689
     2.9223   2.9276   3.2384   3.2385   3.2410   3.2421   3.2481   3.2578
     3.2922   3.3261   3.4485   3.4947   3.5018   3.5328   3.6766   3.6882
     3.7777   3.7918   3.9248   3.9938   4.4760   4.5273   4.6426   4.6474
     4.6977   4.7630   4.7672   4.8102   5.0035   5.0263   5.0373   5.0814
     5.1652   5.2181   5.3636   5.4329   5.8203   5.8353   6.2503   6.2507
     6.6471   6.6535   6.7173   6.7316   6.8829   6.8869   7.0493   7.1144
     7.1322   7.1581   7.1877   7.2174   7.2294   7.2296   7.4362   7.4469
     7.4675   7.4773   7.4794   7.5085   7.5086   7.5478   7.8037   7.8069
    10.5687  10.5722  11.4186  11.4361  11.4536  11.4660  11.7980  11.8130
    11.8142  11.8316  11.9360  11.9876  12.4753  12.5297  12.7782  12.8039
    12.9722  13.0025  13.1586  13.2410  13.4552  13.4839  13.5093  13.5646
    15.6923  15.7147  15.9033  15.9230  16.2529  16.2845  16.6661  16.6966
    16.8664  16.8709  17.3883  17.4364  17.8429

     the Fermi energy is     9.7107 ev

!    total energy              =   -6260.74380297 Ry
     Harris-Foulkes estimate   =   -6260.74380298 Ry
     estimated scf accuracy    <          9.5E-10 Ry

     The total energy is the sum of the following terms:

     one-electron contribution =   -4722.99233158 Ry
     hartree contribution      =    2599.77265997 Ry
     xc contribution           =    -966.24297784 Ry
     ewald contribution        =   -3171.28112790 Ry
     smearing contrib. (-TS)   =      -0.00002562 Ry

     convergence has been achieved in  15 iterations

     Writing output data file Landau_0.save

     General routines

     Parallel routines

   This run was terminated on:  13:11:10  17Sep2019

   JOB DONE.