     Program PWSCF v.6.2 (svn rev. 14038) starts on 23Mar2020 at  1: 0:31

     K-points division:     npool     =      40
     Reading input from rscf.in

     Current dimensions of program PWSCF are:
     Max number of different atomic species (ntypx) = 10
     Max number of k-points (npk) =  40000
     Max angular momentum in pseudopotentials (lmaxx) =  3

     Subspace diagonalization in iterative solution of the eigenvalue problem:
     a serial algorithm will be used

     bravais-lattice index     =            0
     lattice parameter (alat)  =      13.8397  a.u.
     unit-cell volume          =    2804.9816 (a.u.)^3
     number of atoms/cell      =           32
     number of atomic types    =            2
     number of electrons       =       368.00
     number of Kohn-Sham states=          221
     kinetic-energy cutoff     =     120.0000  Ry
     charge density cutoff     =     480.0000  Ry
     convergence threshold     =      1.0E-08
     mixing beta               =       0.7000
     number of iterations used =            8  plain     mixing
     Exchange-correlation      = SLA PW NOGX NOGC ( 1  4  0  0 0 0)
     nstep                     =           50

     celldm(1)=  13.839685  celldm(2)=   0.000000  celldm(3)=   0.000000
     celldm(4)=   0.000000  celldm(5)=   0.000000  celldm(6)=   0.000000

     crystal axes: (cart. coord. in units of alat)
               a(1) = (   1.000000   0.000000   0.000000 )
               a(2) = (   0.000000   1.058160   0.000000 )
               a(3) = (   0.000000   0.000000   1.000000 )

     reciprocal axes: (cart. coord. in units 2 pi/alat)
               b(1) = (  1.000000  0.000000  0.000000 )
               b(2) = (  0.000000  0.945037  0.000000 )
               b(3) = (  0.000000  0.000000  1.000000 )

     PseudoPot. # 1 for W  read from file:
     /cluster/scratch/mnoe/QE/pps/W_ONCV_LDA-4.0.upf
     MD5 check sum: ba0307d5d4cd419d6f1d13dc49d7c13a
     Pseudo is Norm-conserving + core correction, Zval = 28.0
     Generated using ONCVPSP code by D. R. Hamann
     Using radial grid of 1380 points,  8 beta functions with:
                l(1) =   0
                l(2) =   0
                l(3) =   1
                l(4) =   1
                l(5) =   2
                l(6) =   2
                l(7) =   3
                l(8) =   3

     PseudoPot. # 2 for O  read from file:
     /cluster/scratch/mnoe/QE/pps/O_ONCV_LDA-3.0.upf
     MD5 check sum: a1bd6164e7280c17a38c229939bfbd54
     Pseudo is Norm-conserving + core correction, Zval =  6.0
     Generated using ONCVPSP code by D. R. Hamann
     Using radial grid of  926 points,  5 beta functions with:
                l(1) =   0
                l(2) =   0
                l(3) =   1
                l(4) =   1
                l(5) =   2

     atomic species   valence    mass     pseudopotential
        W             28.00   183.84000     W ( 1.00)
        O              6.00    15.99940     O ( 1.00)

      4 Sym. Ops. (no inversion) found ( 3 have fractional translation)

   Cartesian axes

     site n.     atom                  positions (alat units)
         1           W   tau(   1) = (   0.2319199   0.2945109   0.0030904  )
         2           W   tau(   2) = (   0.7541199   0.7636492  -0.0178736  )
         3           W   tau(   3) = (   0.2680801   0.2345691   0.5030904  )
         4           W   tau(   4) = (   0.7458801   0.8235910   0.4821264  )
         5           W   tau(   5) = (   0.7680801   0.2945109   0.4969096  )
         6           W   tau(   6) = (   0.2458801   0.7636492   0.5178736  )
         7           W   tau(   7) = (   0.7319199   0.2345691  -0.0030904  )
         8           W   tau(   8) = (   0.2541199   0.8235910   0.0178736  )
         9           O   tau(   9) = (   0.2273524   0.0077844  -0.0103785  )
        10           O   tau(  10) = (   0.7683084  -0.0077844  -0.0168945  )
        11           O   tau(  11) = (   0.2726475   0.5212956   0.4896214  )
        12           O   tau(  12) = (   0.7316915   0.5368645   0.4831055  )
        13           O   tau(  13) = (   0.7726475   0.0077844   0.5103785  )
        14           O   tau(  14) = (   0.2316915  -0.0077844   0.5168945  )
        15           O   tau(  15) = (   0.7273525   0.5212956   0.0103785  )
        16           O   tau(  16) = (   0.2683085   0.5368645   0.0168945  )
        17           O   tau(  17) = (   0.5061005   0.2390822   0.4581872  )
        18           O   tau(  18) = (   0.5000285   0.8126177   0.5418128  )
        19           O   tau(  19) = (  -0.0061005   0.2899978   0.9581873  )
        20           O   tau(  20) = (  -0.0000285   0.7746225   0.0418127  )
        21           O   tau(  21) = (   0.4938995   0.2390822   0.0418127  )
        22           O   tau(  22) = (   0.4999715   0.8126177   0.9581873  )
        23           O   tau(  23) = (   0.0061005   0.2899978   0.5418128  )
        24           O   tau(  24) = (   0.0000285   0.7746225   0.4581872  )
        25           O   tau(  25) = (   0.7081872   0.2744911   0.7474197  )
        26           O   tau(  26) = (   0.2918127   0.8132724   0.2566237  )
        27           O   tau(  27) = (   0.7918128   0.2545889   0.2474198  )
        28           O   tau(  28) = (   0.2081873   0.7739678   0.7566237  )
        29           O   tau(  29) = (   0.2918127   0.2744911   0.7525803  )
        30           O   tau(  30) = (   0.7081872   0.8132724   0.2433763  )
        31           O   tau(  31) = (   0.2081873   0.2545889   0.2525803  )
        32           O   tau(  32) = (   0.7918128   0.7739678   0.7433763  )

     number of k points=    64  gaussian smearing, width (Ry)=  0.0007
                       cart. coord. in units 2pi/alat
        k(    1) = (   0.0000000   0.0000000   0.0000000), wk =   0.0092593
        k(    2) = (   0.0000000   0.0000000   0.1666667), wk =   0.0185185
        k(    3) = (   0.0000000   0.0000000   0.3333333), wk =   0.0185185
        k(    4) = (   0.0000000   0.0000000  -0.5000000), wk =   0.0092593
        k(    5) = (   0.0000000   0.1575061   0.0000000), wk =   0.0185185
        k(    6) = (   0.0000000   0.1575061   0.1666667), wk =   0.0370370
        k(    7) = (   0.0000000   0.1575061   0.3333333), wk =   0.0370370
        k(    8) = (   0.0000000   0.1575061  -0.5000000), wk =   0.0185185
        k(    9) = (   0.0000000   0.3150122   0.0000000), wk =   0.0185185
        k(   10) = (   0.0000000   0.3150122   0.1666667), wk =   0.0370370
        k(   11) = (   0.0000000   0.3150122   0.3333333), wk =   0.0370370
        k(   12) = (   0.0000000   0.3150122  -0.5000000), wk =   0.0185185
        k(   13) = (   0.0000000  -0.4725183   0.0000000), wk =   0.0092593
        k(   14) = (   0.0000000  -0.4725183   0.1666667), wk =   0.0185185
        k(   15) = (   0.0000000  -0.4725183   0.3333333), wk =   0.0185185
        k(   16) = (   0.0000000  -0.4725183  -0.5000000), wk =   0.0092593
        k(   17) = (   0.1666667   0.0000000   0.1666667), wk =   0.0370370
        k(   18) = (   0.1666667   0.0000000   0.3333333), wk =   0.0370370
        k(   19) = (   0.1666667   0.0000000  -0.5000000), wk =   0.0185185
        k(   20) = (   0.1666667   0.1575061   0.1666667), wk =   0.0740741
        k(   21) = (   0.1666667   0.1575061   0.3333333), wk =   0.0740741
        k(   22) = (   0.1666667   0.1575061  -0.5000000), wk =   0.0370370
        k(   23) = (   0.1666667   0.3150122   0.1666667), wk =   0.0740741
        k(   24) = (   0.1666667   0.3150122   0.3333333), wk =   0.0740741
        k(   25) = (   0.1666667   0.3150122  -0.5000000), wk =   0.0370370
        k(   26) = (   0.1666667  -0.4725183   0.1666667), wk =   0.0370370
        k(   27) = (   0.1666667  -0.4725183   0.3333333), wk =   0.0370370
        k(   28) = (   0.1666667  -0.4725183  -0.5000000), wk =   0.0185185
        k(   29) = (   0.3333333   0.0000000   0.3333333), wk =   0.0370370
        k(   30) = (   0.3333333   0.0000000  -0.5000000), wk =   0.0185185
        k(   31) = (   0.3333333   0.1575061   0.3333333), wk =   0.0740741
        k(   32) = (   0.3333333   0.1575061  -0.5000000), wk =   0.0370370
        k(   33) = (   0.3333333   0.3150122   0.3333333), wk =   0.0740741
        k(   34) = (   0.3333333   0.3150122  -0.5000000), wk =   0.0370370
        k(   35) = (   0.3333333  -0.4725183   0.3333333), wk =   0.0370370
        k(   36) = (   0.3333333  -0.4725183  -0.5000000), wk =   0.0185185
        k(   37) = (  -0.5000000   0.0000000  -0.5000000), wk =   0.0092593
        k(   38) = (  -0.5000000   0.1575061  -0.5000000), wk =   0.0185185
        k(   39) = (  -0.5000000   0.3150122  -0.5000000), wk =   0.0185185
        k(   40) = (  -0.5000000  -0.4725183  -0.5000000), wk =   0.0092593
        k(   41) = (   0.1666667   0.0000000   0.0000000), wk =   0.0185185
        k(   42) = (   0.3333333   0.0000000   0.0000000), wk =   0.0185185
        k(   43) = (  -0.5000000   0.0000000   0.0000000), wk =   0.0092593
        k(   44) = (   0.1666667  -0.1575061   0.0000000), wk =   0.0370370
        k(   45) = (   0.3333333  -0.1575061   0.0000000), wk =   0.0370370
        k(   46) = (  -0.5000000  -0.1575061   0.0000000), wk =   0.0185185
        k(   47) = (   0.1666667  -0.3150122   0.0000000), wk =   0.0370370
        k(   48) = (   0.3333333  -0.3150122   0.0000000), wk =   0.0370370
        k(   49) = (  -0.5000000  -0.3150122   0.0000000), wk =   0.0185185
        k(   50) = (   0.1666667   0.4725183   0.0000000), wk =   0.0185185
        k(   51) = (   0.3333333   0.4725183   0.0000000), wk =   0.0185185
        k(   52) = (  -0.5000000   0.4725183   0.0000000), wk =   0.0092593
        k(   53) = (   0.3333333   0.0000000   0.1666667), wk =   0.0370370
        k(   54) = (  -0.5000000   0.0000000   0.1666667), wk =   0.0185185
        k(   55) = (   0.3333333  -0.1575061   0.1666667), wk =   0.0740741
        k(   56) = (  -0.5000000  -0.1575061   0.1666667), wk =   0.0370370
        k(   57) = (   0.3333333  -0.3150122   0.1666667), wk =   0.0740741
        k(   58) = (  -0.5000000  -0.3150122   0.1666667), wk =   0.0370370
        k(   59) = (   0.3333333   0.4725183   0.1666667), wk =   0.0370370
        k(   60) = (  -0.5000000   0.4725183   0.1666667), wk =   0.0185185
        k(   61) = (  -0.5000000   0.0000000   0.3333333), wk =   0.0185185
        k(   62) = (  -0.5000000  -0.1575061   0.3333333), wk =   0.0370370
        k(   63) = (  -0.5000000  -0.3150122   0.3333333), wk =   0.0370370
        k(   64) = (  -0.5000000   0.4725183   0.3333333), wk =   0.0185185

     Initial potential from superposition of free atoms

     starting charge  367.99656, renormalised to  368.00000
     Starting wfc are  232 randomized atomic wfcs

     Self-consistent Calculation

     iteration #  1     ecut=   120.00 Ry     beta= 0.70
     Davidson diagonalization with overlap
     ethr =  1.00E-02,  avg # of iterations =  5.0

     total energy              =   -6253.99636557 Ry
     Harris-Foulkes estimate   =   -6264.55380337 Ry
     estimated scf accuracy    <      13.37473393 Ry

[...]

     End of self-consistent calculation

[...]
     Results may differ from those at the preceding step.

     bravais-lattice index     =            0
     lattice parameter (alat)  =      13.8397  a.u.
     unit-cell volume          =    2811.9424 (a.u.)^3
     number of atoms/cell      =           32
     number of atomic types    =            2
     number of electrons       =       368.00
     number of Kohn-Sham states=          221
     kinetic-energy cutoff     =     120.0000  Ry
     charge density cutoff     =     480.0000  Ry
     convergence threshold     =      1.0E-10
     mixing beta               =       0.7000
     number of iterations used =            8  plain     mixing
     Exchange-correlation      = SLA PW NOGX NOGC ( 1  4  0  0 0 0)

     celldm(1)=  13.839685  celldm(2)=   0.000000  celldm(3)=   0.000000
     celldm(4)=   0.000000  celldm(5)=   0.000000  celldm(6)=   0.000000

     crystal axes: (cart. coord. in units of alat)
               a(1) = (   1.008200   0.000000   0.000000 )
               a(2) = (   0.000000   1.042072   0.000000 )
               a(3) = (   0.000000   0.000000   1.009680 )

     reciprocal axes: (cart. coord. in units 2 pi/alat)
               b(1) = (  0.991867  0.000000  0.000000 )
               b(2) = (  0.000000  0.959627  0.000000 )
               b(3) = (  0.000000  0.000000  0.990413 )

     PseudoPot. # 1 for W  read from file:
     /cluster/scratch/mnoe/QE/pps/W_ONCV_LDA-4.0.upf
     MD5 check sum: ba0307d5d4cd419d6f1d13dc49d7c13a
     Pseudo is Norm-conserving + core correction, Zval = 28.0
     Generated using ONCVPSP code by D. R. Hamann
     Using radial grid of 1380 points,  8 beta functions with:
                l(1) =   0
                l(2) =   0
                l(3) =   1
                l(4) =   1
                l(5) =   2
                l(6) =   2
                l(7) =   3
                l(8) =   3

     PseudoPot. # 2 for O  read from file:
     /cluster/scratch/mnoe/QE/pps/O_ONCV_LDA-3.0.upf
     MD5 check sum: a1bd6164e7280c17a38c229939bfbd54
     Pseudo is Norm-conserving + core correction, Zval =  6.0
     Generated using ONCVPSP code by D. R. Hamann
     Using radial grid of  926 points,  5 beta functions with:
                l(1) =   0
                l(2) =   0
                l(3) =   1
                l(4) =   1
                l(5) =   2

     atomic species   valence    mass     pseudopotential
        W             28.00   183.84000     W ( 1.00)
        O              6.00    15.99940     O ( 1.00)

      4 Sym. Ops. (no inversion) found ( 3 have fractional translation)

   Cartesian axes

     site n.     atom                  positions (alat units)
         1           W   tau(   1) = (   0.2338216   0.2900331   0.0031203  )
         2           W   tau(   2) = (   0.7603034   0.7520386  -0.0180466  )
         3           W   tau(   3) = (   0.2702783   0.2310027   0.5079601  )
         4           W   tau(   4) = (   0.7519960   0.8110690   0.4867932  )
         5           W   tau(   5) = (   0.7743781   0.2900331   0.5017195  )
         6           W   tau(   6) = (   0.2478962   0.7520386   0.5228865  )
         7           W   tau(   7) = (   0.7379214   0.2310027  -0.0031203  )
         8           W   tau(   8) = (   0.2562036   0.8110690   0.0180466  )
         9           O   tau(   9) = (   0.2292167   0.0076661  -0.0104790  )
        10           O   tau(  10) = (   0.7746083  -0.0076661  -0.0170581  )
        11           O   tau(  11) = (   0.2748831   0.5133698   0.4943608  )
        12           O   tau(  12) = (   0.7376912   0.5287019   0.4877817  )
        13           O   tau(  13) = (   0.7789830   0.0076661   0.5153188  )
        14           O   tau(  14) = (   0.2335913  -0.0076661   0.5218979  )
        15           O   tau(  15) = (   0.7333165   0.5133698   0.0104790  )
        16           O   tau(  16) = (   0.2705085   0.5287019   0.0170581  )
        17           O   tau(  17) = (   0.5102504   0.2354472   0.4626223  )
        18           O   tau(  18) = (   0.5041286   0.8002626   0.5470573  )
        19           O   tau(  19) = (  -0.0061505   0.2855886   0.9674622  )
        20           O   tau(  20) = (  -0.0000288   0.7628451   0.0422175  )
        21           O   tau(  21) = (   0.4979493   0.2354472   0.0422175  )
        22           O   tau(  22) = (   0.5040711   0.8002626   0.9674622  )
        23           O   tau(  23) = (   0.0061505   0.2855886   0.5470573  )
        24           O   tau(  24) = (   0.0000287   0.7628451   0.4626223  )
        25           O   tau(  25) = (   0.7139941   0.2703177   0.7546545  )
        26           O   tau(  26) = (   0.2942055   0.8009073   0.2591077  )
        27           O   tau(  27) = (   0.7983054   0.2507181   0.2498147  )
        28           O   tau(  28) = (   0.2098943   0.7622003   0.7639475  )
        29           O   tau(  29) = (   0.2942055   0.2703177   0.7598650  )
        30           O   tau(  30) = (   0.7139941   0.8009073   0.2457321  )
        31           O   tau(  31) = (   0.2098943   0.2507181   0.2550252  )
        32           O   tau(  32) = (   0.7983054   0.7622003   0.7505719  )

     number of k points=    64  gaussian smearing, width (Ry)=  0.0007
                       cart. coord. in units 2pi/alat
        k(    1) = (   0.0000000   0.0000000   0.0000000), wk =   0.0092593
        k(    2) = (   0.0000000   0.0000000   0.1650689), wk =   0.0185185
        k(    3) = (   0.0000000   0.0000000   0.3301377), wk =   0.0185185
        k(    4) = (   0.0000000   0.0000000  -0.4952066), wk =   0.0092593
        k(    5) = (   0.0000000   0.1599378   0.0000000), wk =   0.0185185
        k(    6) = (   0.0000000   0.1599378   0.1650689), wk =   0.0370370
        k(    7) = (   0.0000000   0.1599378   0.3301377), wk =   0.0370370
        k(    8) = (   0.0000000   0.1599378  -0.4952066), wk =   0.0185185
        k(    9) = (   0.0000000   0.3198756   0.0000000), wk =   0.0185185
        k(   10) = (   0.0000000   0.3198756   0.1650689), wk =   0.0370370
        k(   11) = (   0.0000000   0.3198756   0.3301377), wk =   0.0370370
        k(   12) = (   0.0000000   0.3198756  -0.4952066), wk =   0.0185185
        k(   13) = (   0.0000000  -0.4798134   0.0000000), wk =   0.0092593
        k(   14) = (   0.0000000  -0.4798134   0.1650689), wk =   0.0185185
        k(   15) = (   0.0000000  -0.4798134   0.3301377), wk =   0.0185185
        k(   16) = (   0.0000000  -0.4798134  -0.4952066), wk =   0.0092593
        k(   17) = (   0.1653112   0.0000000   0.1650689), wk =   0.0370370
        k(   18) = (   0.1653112   0.0000000   0.3301377), wk =   0.0370370
        k(   19) = (   0.1653112   0.0000000  -0.4952066), wk =   0.0185185
        k(   20) = (   0.1653112   0.1599378   0.1650689), wk =   0.0740741
        k(   21) = (   0.1653112   0.1599378   0.3301377), wk =   0.0740741
        k(   22) = (   0.1653112   0.1599378  -0.4952066), wk =   0.0370370
        k(   23) = (   0.1653112   0.3198756   0.1650689), wk =   0.0740741
        k(   24) = (   0.1653112   0.3198756   0.3301377), wk =   0.0740741
        k(   25) = (   0.1653112   0.3198756  -0.4952066), wk =   0.0370370
        k(   26) = (   0.1653112  -0.4798134   0.1650689), wk =   0.0370370
        k(   27) = (   0.1653112  -0.4798134   0.3301377), wk =   0.0370370
        k(   28) = (   0.1653112  -0.4798134  -0.4952066), wk =   0.0185185
        k(   29) = (   0.3306223   0.0000000   0.3301377), wk =   0.0370370
        k(   30) = (   0.3306223   0.0000000  -0.4952066), wk =   0.0185185
        k(   31) = (   0.3306223   0.1599378   0.3301377), wk =   0.0740741
        k(   32) = (   0.3306223   0.1599378  -0.4952066), wk =   0.0370370
        k(   33) = (   0.3306223   0.3198756   0.3301377), wk =   0.0740741
        k(   34) = (   0.3306223   0.3198756  -0.4952066), wk =   0.0370370
        k(   35) = (   0.3306223  -0.4798134   0.3301377), wk =   0.0370370
        k(   36) = (   0.3306223  -0.4798134  -0.4952066), wk =   0.0185185
        k(   37) = (  -0.4959335   0.0000000  -0.4952066), wk =   0.0092593
        k(   38) = (  -0.4959335   0.1599378  -0.4952066), wk =   0.0185185
        k(   39) = (  -0.4959335   0.3198756  -0.4952066), wk =   0.0185185
        k(   40) = (  -0.4959335  -0.4798134  -0.4952066), wk =   0.0092593
        k(   41) = (   0.1653112   0.0000000   0.0000000), wk =   0.0185185
        k(   42) = (   0.3306223   0.0000000   0.0000000), wk =   0.0185185
        k(   43) = (  -0.4959335   0.0000000   0.0000000), wk =   0.0092593
        k(   44) = (   0.1653112  -0.1599378   0.0000000), wk =   0.0370370
        k(   45) = (   0.3306223  -0.1599378   0.0000000), wk =   0.0370370
        k(   46) = (  -0.4959335  -0.1599378   0.0000000), wk =   0.0185185
        k(   47) = (   0.1653112  -0.3198756   0.0000000), wk =   0.0370370
        k(   48) = (   0.3306223  -0.3198756   0.0000000), wk =   0.0370370
        k(   49) = (  -0.4959335  -0.3198756   0.0000000), wk =   0.0185185
        k(   50) = (   0.1653112   0.4798134   0.0000000), wk =   0.0185185
        k(   51) = (   0.3306223   0.4798134   0.0000000), wk =   0.0185185
        k(   52) = (  -0.4959335   0.4798134   0.0000000), wk =   0.0092593
        k(   53) = (   0.3306223   0.0000000   0.1650689), wk =   0.0370370
        k(   54) = (  -0.4959335   0.0000000   0.1650689), wk =   0.0185185
        k(   55) = (   0.3306223  -0.1599378   0.1650689), wk =   0.0740741
        k(   56) = (  -0.4959335  -0.1599378   0.1650689), wk =   0.0370370
        k(   57) = (   0.3306223  -0.3198756   0.1650689), wk =   0.0740741
        k(   58) = (  -0.4959335  -0.3198756   0.1650689), wk =   0.0370370
        k(   59) = (   0.3306223   0.4798134   0.1650689), wk =   0.0370370
        k(   60) = (  -0.4959335   0.4798134   0.1650689), wk =   0.0185185
        k(   61) = (  -0.4959335   0.0000000   0.3301377), wk =   0.0185185
        k(   62) = (  -0.4959335  -0.1599378   0.3301377), wk =   0.0370370
        k(   63) = (  -0.4959335  -0.3198756   0.3301377), wk =   0.0370370
        k(   64) = (  -0.4959335   0.4798134   0.3301377), wk =   0.0185185

     Initial potential from superposition of free atoms

     starting charge  367.99656, renormalised to  368.00000
     Starting wfc are  232 randomized atomic wfcs

     Writing output data file Landau_12.save

     Self-consistent Calculation

     iteration #  1     ecut=   120.00 Ry     beta= 0.70
     Davidson diagonalization with overlap
     c_bands:  1 eigenvalues not converged
     ethr =  1.00E-06,  avg # of iterations = 14.3

[...]

     total energy              =   -6261.10898920 Ry
     Harris-Foulkes estimate   =   -6261.10898920 Ry
     estimated scf accuracy    <          3.5E-10 Ry

     iteration # 16     ecut=   120.00 Ry     beta= 0.70
     Davidson diagonalization with overlap
     ethr =  1.00E-13,  avg # of iterations =  2.4

     End of self-consistent calculation

[...]

          k = 0.3306 0.4798 0.1651 ( 62442 PWs)   bands (ev):

[...]

          k =-0.4959 0.4798 0.3301 ( 62384 PWs)   bands (ev):

   -66.2103 -66.2103 -66.2099 -66.2099 -66.2089 -66.2089 -66.2085 -66.2085
   -30.5897 -30.5897 -30.5744 -30.5744 -30.5719 -30.5719 -30.5615 -30.5615
   -30.5356 -30.5355 -30.5323 -30.5323 -30.5286 -30.5286 -30.5165 -30.5165
   -30.5027 -30.5027 -30.4814 -30.4814 -30.4792 -30.4792 -30.4608 -30.4608
   -20.3736 -20.3736 -20.3734 -20.3733 -20.3719 -20.3718 -20.3717 -20.3717
   -20.3551 -20.3551 -20.3549 -20.3549 -20.3525 -20.3525 -20.3520 -20.3520
   -20.3471 -20.3471 -20.3464 -20.3464 -20.3463 -20.3463 -20.3462 -20.3462
   -20.3430 -20.3430 -20.3427 -20.3427 -20.3410 -20.3410 -20.3407 -20.3407
   -20.3386 -20.3386 -20.3384 -20.3384 -20.3382 -20.3382 -20.3351 -20.3351
   -20.3341 -20.3341 -20.3315 -20.3315 -20.3314 -20.3314 -20.3312 -20.3312
   -20.3274 -20.3274 -20.3261 -20.3261 -20.3252 -20.3252 -20.3248 -20.3248
    -9.2563  -9.2563  -9.1803  -9.1803  -8.8629  -8.8629  -8.7932  -8.7932
    -8.5886  -8.5886  -8.5553  -8.5553  -8.4387  -8.4387  -8.4155  -8.4154
    -8.3814  -8.3814  -8.3373  -8.3373  -8.2124  -8.2124  -8.0908  -8.0908
     2.1763   2.1764   2.2784   2.2784   2.8925   2.8925   2.9698   2.9698
     3.0575   3.0575   3.0953   3.0953   3.1606   3.1606   3.1954   3.1954
     3.3893   3.3893   3.4283   3.4283   3.5460   3.5460   3.6956   3.6956
     3.7703   3.7703   3.9000   3.9000   4.1476   4.1476   4.2139   4.2139
     4.2961   4.2961   4.3330   4.3330   4.4350   4.4351   4.5040   4.5040
     4.6395   4.6395   4.7685   4.7685   4.9931   4.9931   5.0211   5.0211
     6.9030   6.9030   7.0471   7.0471   7.0906   7.0906   7.1140   7.1140
     7.2189   7.2189   7.2831   7.2831   7.3601   7.3601   7.3901   7.3901
     7.4601   7.4601   7.5327   7.5327   7.5516   7.5516   7.6222   7.6223
    11.4357  11.4357  11.5274  11.5274  11.6697  11.6697  11.7768  11.7768
    12.1007  12.1007  12.1807  12.1807  12.2389  12.2389  12.3210  12.3210
    12.4428  12.4428  12.5812  12.5812  12.8268  12.8268  12.9126  12.9126
    16.3556  16.3556  16.4927  16.4927  16.9724  16.9725  17.0813  17.0814
    17.2872  17.2872  17.3864  17.3864  17.4796

     the Fermi energy is     8.8852 ev

!    total energy              =   -6261.10898920 Ry
     Harris-Foulkes estimate   =   -6261.10898920 Ry
     estimated scf accuracy    <          2.3E-11 Ry

     The total energy is the sum of the following terms:

     one-electron contribution =   -4725.52509381 Ry
     hartree contribution      =    2598.94012171 Ry
     xc contribution           =    -965.66213799 Ry
     ewald contribution        =   -3168.86187912 Ry
     smearing contrib. (-TS)   =      -0.00000000 Ry

     convergence has been achieved in  16 iterations

     Forces acting on atoms (cartesian axes, Ry/au):

     atom    1 type  1   force =     0.00854031    0.00139557    0.00407038
     atom    2 type  1   force =     0.00144700   -0.00209004    0.00957969
     atom    3 type  1   force =    -0.00854031   -0.00139557    0.00407038
     atom    4 type  1   force =    -0.00144700    0.00209004    0.00957969
     atom    5 type  1   force =    -0.00854031    0.00139557   -0.00407038
     atom    6 type  1   force =    -0.00144700   -0.00209004   -0.00957969
     atom    7 type  1   force =     0.00854031   -0.00139557   -0.00407038
     atom    8 type  1   force =     0.00144700    0.00209004   -0.00957969
     atom    9 type  2   force =    -0.00092514   -0.00136313    0.00070519
     atom   10 type  2   force =    -0.00102538    0.00121250   -0.00052305
     atom   11 type  2   force =     0.00092514    0.00136313    0.00070519
     atom   12 type  2   force =     0.00102538   -0.00121250   -0.00052305
     atom   13 type  2   force =     0.00092514   -0.00136313   -0.00070519
     atom   14 type  2   force =     0.00102538    0.00121250    0.00052305
     atom   15 type  2   force =    -0.00092514    0.00136313   -0.00070519
     atom   16 type  2   force =    -0.00102538   -0.00121250    0.00052305
     atom   17 type  2   force =     0.00622860   -0.00115419   -0.00049563
     atom   18 type  2   force =     0.00170793   -0.00113044   -0.00065374
     atom   19 type  2   force =    -0.00622860    0.00115419   -0.00049563
     atom   20 type  2   force =    -0.00170793    0.00113044   -0.00065374
     atom   21 type  2   force =    -0.00622860   -0.00115419    0.00049563
     atom   22 type  2   force =    -0.00170793   -0.00113044    0.00065374
     atom   23 type  2   force =     0.00622860    0.00115419    0.00049563
     atom   24 type  2   force =     0.00170793    0.00113044    0.00065374
     atom   25 type  2   force =    -0.00061525   -0.00097035    0.00218907
     atom   26 type  2   force =     0.00113642    0.00051076    0.00650969
     atom   27 type  2   force =     0.00061525    0.00097035    0.00218907
     atom   28 type  2   force =    -0.00113642   -0.00051076    0.00650969
     atom   29 type  2   force =     0.00061525   -0.00097035   -0.00218907
     atom   30 type  2   force =    -0.00113642    0.00051076   -0.00650969
     atom   31 type  2   force =    -0.00061525    0.00097035   -0.00218907
     atom   32 type  2   force =     0.00113642   -0.00051076   -0.00650969

     Total force =     0.000000     Total SCF correction =     0.000000

     Computing stress (Cartesian axis) and pressure

          total   stress  (Ry/bohr**3)                   (kbar)     P=    0.20
   0.00000257   0.00000000   0.00000000          0.38      0.00      0.00
   0.00000000  -0.00000140   0.00000000          0.00     -0.21      0.00
   0.00000000   0.00000000   0.00000301          0.00      0.00      0.44

     Writing output data file Landau_12.save

     General routines

     Parallel routines

   This run was terminated on:   3:34: 9  23Mar2020

   JOB DONE.