     Program PWSCF v.6.4.1 starts on 17Dec2019 at 13:53:32

     K-points division:     npool     =      40
     Reading input from scf.in

     Current dimensions of program PWSCF are:
     Max number of different atomic species (ntypx) = 10
     Max number of k-points (npk) =  40000
     Max angular momentum in pseudopotentials (lmaxx) =  3

     Subspace diagonalization in iterative solution of the eigenvalue problem:
     a serial algorithm will be used

     Message from routine setup:
     using ibrav=0 with symmetry is DISCOURAGED, use correct ibrav instead

     bravais-lattice index     =            0
     lattice parameter (alat)  =       9.7849  a.u.
     unit-cell volume          =    1402.1515 (a.u.)^3
     number of atoms/cell      =           16
     number of atomic types    =            2
     number of electrons       =       184.20
     number of Kohn-Sham states=          111
     kinetic-energy cutoff     =     120.0000  Ry
     charge density cutoff     =     480.0000  Ry
     convergence threshold     =      1.0E-08
     mixing beta               =       0.7000
     number of iterations used =            8  plain     mixing
     Exchange-correlation      = SLA PW NOGX NOGC ( 1  4  0  0 0 0)

     celldm(1)=   9.784926  celldm(2)=   0.000000  celldm(3)=   0.000000
     celldm(4)=   0.000000  celldm(5)=   0.000000  celldm(6)=   0.000000

     crystal axes: (cart. coord. in units of alat)
               a(1) = (   1.000000   0.000000   0.000000 )
               a(2) = (   0.000000   1.000000   0.000000 )
               a(3) = (   0.000000   0.000000   1.496657 )

     reciprocal axes: (cart. coord. in units 2 pi/alat)
               b(1) = (  1.000000  0.000000  0.000000 )
               b(2) = (  0.000000  1.000000  0.000000 )
               b(3) = (  0.000000  0.000000  0.668156 )

     PseudoPot. # 1 for W  read from file:
     /cluster/scratch/mnoe/QE/pps/W_ONCV_LDA-4.0.upf
     MD5 check sum: ba0307d5d4cd419d6f1d13dc49d7c13a
     Pseudo is Norm-conserving + core correction, Zval = 28.0
     Generated using ONCVPSP code by D. R. Hamann
     Using radial grid of 1380 points,  8 beta functions with:
                l(1) =   0
                l(2) =   0
                l(3) =   1
                l(4) =   1
                l(5) =   2
                l(6) =   2
                l(7) =   3
                l(8) =   3

     PseudoPot. # 2 for O  read from file:
     /cluster/scratch/mnoe/QE/pps/O_ONCV_LDA-3.0.upf
     MD5 check sum: b55cdb4f45ae2203d24ad12cf8d61a31
     Pseudo is Norm-conserving + core correction, Zval =  6.0
     Generated using ONCVPSP code by D. R. Hamann
     Using radial grid of  926 points,  5 beta functions with:
                l(1) =   0
                l(2) =   0
                l(3) =   1
                l(4) =   1
                l(5) =   2

     atomic species   valence    mass     pseudopotential
        W             28.00   183.84000     W ( 1.00)
        O              6.00    15.99940     O ( 1.00)

     16 Sym. Ops., with inversion, found (14 have fractional translation)

   Cartesian axes

     site n.     atom                  positions (alat units)
         1           W   tau(   1) = (   0.2500000   0.2500000   0.3264508  )
         2           W   tau(   2) = (   0.7500000   0.7500000   1.1702062  )
         3           W   tau(   3) = (   0.7500000   0.7500000   0.4218777  )
         4           W   tau(   4) = (   0.2500000   0.2500000   1.0747793  )
         5           O   tau(   5) = (   0.2500000   0.2500000   0.7358614  )
         6           O   tau(   6) = (   0.7500000   0.7500000   0.7607956  )
         7           O   tau(   7) = (   0.7500000   0.7500000   0.0124671  )
         8           O   tau(   8) = (   0.2500000   0.2500000   1.4841899  )
         9           O   tau(   9) = (   0.4494100   0.5505900   0.3741643  )
        10           O   tau(  10) = (   0.5505900   0.4494100   1.1224928  )
        11           O   tau(  11) = (   0.0505900   0.9494100   0.3741643  )
        12           O   tau(  12) = (   0.9494099   0.0505900   1.1224928  )
        13           O   tau(  13) = (   0.9494100   0.4494100   0.3741643  )
        14           O   tau(  14) = (   0.0505900   0.5505900   1.1224928  )
        15           O   tau(  15) = (   0.5505900   0.0505900   0.3741643  )
        16           O   tau(  16) = (   0.4494100   0.9494099   1.1224928  )

     number of k points=    60  gaussian smearing, width (Ry)=  0.0007
                       cart. coord. in units 2pi/alat
        k(    1) = (   0.0000000   0.0000000   0.0000000), wk =   0.0041152
        k(    2) = (   0.0000000   0.0000000   0.1113593), wk =   0.0082305
        k(    3) = (   0.0000000   0.0000000   0.2227186), wk =   0.0082305
        k(    4) = (   0.0000000   0.0000000  -0.3340779), wk =   0.0041152
        k(    5) = (   0.0000000   0.1111111   0.0000000), wk =   0.0164609
        k(    6) = (   0.0000000   0.1111111   0.1113593), wk =   0.0329218
        k(    7) = (   0.0000000   0.1111111   0.2227186), wk =   0.0329218
        k(    8) = (   0.0000000   0.1111111  -0.3340779), wk =   0.0164609
        k(    9) = (   0.0000000   0.2222222   0.0000000), wk =   0.0164609
        k(   10) = (   0.0000000   0.2222222   0.1113593), wk =   0.0329218
        k(   11) = (   0.0000000   0.2222222   0.2227186), wk =   0.0329218
        k(   12) = (   0.0000000   0.2222222  -0.3340779), wk =   0.0164609
        k(   13) = (   0.0000000   0.3333333   0.0000000), wk =   0.0164609
        k(   14) = (   0.0000000   0.3333333   0.1113593), wk =   0.0329218
        k(   15) = (   0.0000000   0.3333333   0.2227186), wk =   0.0329218
        k(   16) = (   0.0000000   0.3333333  -0.3340779), wk =   0.0164609
        k(   17) = (   0.0000000   0.4444444   0.0000000), wk =   0.0164609
        k(   18) = (   0.0000000   0.4444444   0.1113593), wk =   0.0329218
        k(   19) = (   0.0000000   0.4444444   0.2227186), wk =   0.0329218
        k(   20) = (   0.0000000   0.4444444  -0.3340779), wk =   0.0164609
        k(   21) = (   0.1111111   0.1111111   0.0000000), wk =   0.0164609
        k(   22) = (   0.1111111   0.1111111   0.1113593), wk =   0.0329218
        k(   23) = (   0.1111111   0.1111111   0.2227186), wk =   0.0329218
        k(   24) = (   0.1111111   0.1111111  -0.3340779), wk =   0.0164609
        k(   25) = (   0.1111111   0.2222222   0.0000000), wk =   0.0329218
        k(   26) = (   0.1111111   0.2222222   0.1113593), wk =   0.0658436
        k(   27) = (   0.1111111   0.2222222   0.2227186), wk =   0.0658436
        k(   28) = (   0.1111111   0.2222222  -0.3340779), wk =   0.0329218
        k(   29) = (   0.1111111   0.3333333   0.0000000), wk =   0.0329218
        k(   30) = (   0.1111111   0.3333333   0.1113593), wk =   0.0658436
        k(   31) = (   0.1111111   0.3333333   0.2227186), wk =   0.0658436
        k(   32) = (   0.1111111   0.3333333  -0.3340779), wk =   0.0329218
        k(   33) = (   0.1111111   0.4444444   0.0000000), wk =   0.0329218
        k(   34) = (   0.1111111   0.4444444   0.1113593), wk =   0.0658436
        k(   35) = (   0.1111111   0.4444444   0.2227186), wk =   0.0658436
        k(   36) = (   0.1111111   0.4444444  -0.3340779), wk =   0.0329218
        k(   37) = (   0.2222222   0.2222222   0.0000000), wk =   0.0164609
        k(   38) = (   0.2222222   0.2222222   0.1113593), wk =   0.0329218
        k(   39) = (   0.2222222   0.2222222   0.2227186), wk =   0.0329218
        k(   40) = (   0.2222222   0.2222222  -0.3340779), wk =   0.0164609
        k(   41) = (   0.2222222   0.3333333   0.0000000), wk =   0.0329218
        k(   42) = (   0.2222222   0.3333333   0.1113593), wk =   0.0658436
        k(   43) = (   0.2222222   0.3333333   0.2227186), wk =   0.0658436
        k(   44) = (   0.2222222   0.3333333  -0.3340779), wk =   0.0329218
        k(   45) = (   0.2222222   0.4444444   0.0000000), wk =   0.0329218
        k(   46) = (   0.2222222   0.4444444   0.1113593), wk =   0.0658436
        k(   47) = (   0.2222222   0.4444444   0.2227186), wk =   0.0658436
        k(   48) = (   0.2222222   0.4444444  -0.3340779), wk =   0.0329218
        k(   49) = (   0.3333333   0.3333333   0.0000000), wk =   0.0164609
        k(   50) = (   0.3333333   0.3333333   0.1113593), wk =   0.0329218
        k(   51) = (   0.3333333   0.3333333   0.2227186), wk =   0.0329218
        k(   52) = (   0.3333333   0.3333333  -0.3340779), wk =   0.0164609
        k(   53) = (   0.3333333   0.4444444   0.0000000), wk =   0.0329218
        k(   54) = (   0.3333333   0.4444444   0.1113593), wk =   0.0658436
        k(   55) = (   0.3333333   0.4444444   0.2227186), wk =   0.0658436
        k(   56) = (   0.3333333   0.4444444  -0.3340779), wk =   0.0329218
        k(   57) = (   0.4444444   0.4444444   0.0000000), wk =   0.0164609
        k(   58) = (   0.4444444   0.4444444   0.1113593), wk =   0.0329218
        k(   59) = (   0.4444444   0.4444444   0.2227186), wk =   0.0329218
        k(   60) = (   0.4444444   0.4444444  -0.3340779), wk =   0.0164609

     Initial potential from superposition of free atoms

     starting charge  183.99828, renormalised to  184.20000
     Starting wfcs are  116 randomized atomic wfcs

     Self-consistent Calculation

     iteration #  1     ecut=   120.00 Ry     beta= 0.70
     Davidson diagonalization with overlap
     ethr =  1.00E-02,  avg # of iterations =  5.0

     total energy              =   -3126.81843612 Ry
     Harris-Foulkes estimate   =   -3132.18691920 Ry
     estimated scf accuracy    <       6.77436761 Ry

[...]

     total energy              =   -3130.41488754 Ry
     Harris-Foulkes estimate   =   -3130.41488756 Ry
     estimated scf accuracy    <       0.00000003 Ry

     iteration # 12     ecut=   120.00 Ry     beta= 0.70
     Davidson diagonalization with overlap
     ethr =  1.80E-11,  avg # of iterations =  2.0

     End of self-consistent calculation

          k = 0.0000 0.0000 0.0000 ( 31095 PWs)   bands (ev):

   -66.0768 -66.0764 -66.0748 -66.0744 -30.5049 -30.4984 -30.4452 -30.4400
   -30.4126 -30.4126 -30.4093 -30.4093 -30.3163 -30.3163 -30.3136 -30.3136
   -20.2289 -20.2288 -20.2287 -20.2287 -20.2261 -20.2256 -20.2206 -20.2201
   -20.2141 -20.2141 -20.2133 -20.2133 -20.2117 -20.2117 -20.2109 -20.2109
   -20.2026 -20.2025 -20.2019 -20.2018 -20.1839 -20.1839 -20.1839 -20.1839
   -20.1787 -20.1787 -20.1787 -20.1787  -9.9255  -9.6407  -9.0669  -9.0166
    -9.0047  -8.8614  -7.8486  -7.7375  -7.5887  -7.5887  -7.5676  -7.5676
     1.2412   1.2418   1.3969   1.6527   1.6855   1.8899   2.4234   2.4974
     2.7439   2.7439   4.1598   4.1598   5.0523   5.0523   5.0780   5.5415
     5.5415   5.5503   5.5503   5.8262   5.8262   5.9553   5.9716   6.8156
     6.8156   6.9033   7.0379   7.0404   7.4297   7.4297   7.4744   7.4744
     7.8094   7.8234   8.0907   8.0907   9.3065   9.3141  10.0697  10.0697
    12.3220  12.3220  12.9233  12.9263  13.4498  13.4498  13.8150  14.2017
    14.2017  14.8881  15.4867  15.4978  15.5006  16.8503  17.4564

[...]

          k = 0.4444 0.4444-0.3341 ( 31138 PWs)   bands (ev):

   -66.0756 -66.0756 -66.0756 -66.0755 -30.4723 -30.4723 -30.4722 -30.4722
   -30.4161 -30.4161 -30.4132 -30.4132 -30.3136 -30.3136 -30.3107 -30.3107
   -20.2288 -20.2288 -20.2288 -20.2288 -20.2232 -20.2231 -20.2231 -20.2231
   -20.2138 -20.2137 -20.2137 -20.2137 -20.2112 -20.2112 -20.2112 -20.2112
   -20.2022 -20.2022 -20.2022 -20.2022 -20.1853 -20.1853 -20.1851 -20.1851
   -20.1775 -20.1775 -20.1774 -20.1774  -9.2940  -9.2940  -9.2484  -9.2484
    -8.4338  -8.4338  -8.4283  -8.4283  -7.7885  -7.7885  -7.7280  -7.7280
     1.3380   1.3380   1.4505   1.4505   3.2138   3.2138   3.2200   3.2200
     3.4756   3.4756   3.5006   3.5006   4.6895   4.6895   4.9319   4.9319
     5.2521   5.2521   5.3350   5.3350   5.9585   5.9585   6.1205   6.1205
     6.1413   6.1413   6.2937   6.2937   6.7666   6.7666   6.8570   6.8570
     7.4677   7.4677   7.4781   7.4781  11.3581  11.3581  11.4162  11.4162
    12.3119  12.3119  12.3721  12.3721  13.5329  13.5329  13.6156  13.6156
    15.6999  15.6999  15.8284  15.8284  18.0667  18.0667  18.3102

     the Fermi energy is     9.6420 ev

!    total energy              =   -3130.41488754 Ry
     Harris-Foulkes estimate   =   -3130.41488754 Ry
     estimated scf accuracy    <          1.9E-09 Ry

     The total energy is the sum of the following terms:

     one-electron contribution =   -2360.94261085 Ry
     hartree contribution      =    1299.45671460 Ry
     xc contribution           =    -483.05567981 Ry
     ewald contribution        =   -1585.87329152 Ry
     smearing contrib. (-TS)   =      -0.00001997 Ry

     convergence has been achieved in  12 iterations

     Writing output data file chempot_4.save/

     General routines

     Parallel routines

   This run was terminated on:  14: 0: 6  17Dec2019

   JOB DONE.