     Program PWSCF v.6.2 (svn rev. 14038) starts on 21Mar2020 at  2:35: 3

     K-points division:     npool     =      40
     Reading input from scf.in

     Current dimensions of program PWSCF are:
     Max number of different atomic species (ntypx) = 10
     Max number of k-points (npk) =  40000
     Max angular momentum in pseudopotentials (lmaxx) =  3

     Subspace diagonalization in iterative solution of the eigenvalue problem:
     a serial algorithm will be used

     bravais-lattice index     =            0
     lattice parameter (alat)  =      13.9018  a.u.
     unit-cell volume          =    2819.9077 (a.u.)^3
     number of atoms/cell      =           32
     number of atomic types    =            2
     number of electrons       =       368.60
     number of Kohn-Sham states=          221
     kinetic-energy cutoff     =     120.0000  Ry
     charge density cutoff     =     480.0000  Ry
     convergence threshold     =      1.0E-08
     mixing beta               =       0.7000
     number of iterations used =            8  plain     mixing
     Exchange-correlation      = SLA PW NOGX NOGC ( 1  4  0  0 0 0)

     celldm(1)=  13.901832  celldm(2)=   0.000000  celldm(3)=   0.000000
     celldm(4)=   0.000000  celldm(5)=   0.000000  celldm(6)=   0.000000

     crystal axes: (cart. coord. in units of alat)
               a(1) = (   1.000000   0.000000   0.000000 )
               a(2) = (   0.000000   1.049274   0.000000 )
               a(3) = (   0.000000   0.000000   1.000299 )

     reciprocal axes: (cart. coord. in units 2 pi/alat)
               b(1) = (  1.000000  0.000000  0.000000 )
               b(2) = (  0.000000  0.953040  0.000000 )
               b(3) = (  0.000000  0.000000  0.999701 )

     PseudoPot. # 1 for W  read from file:
     /cluster/scratch/mnoe/QE/pps/W_ONCV_LDA-4.0.upf
     MD5 check sum: ba0307d5d4cd419d6f1d13dc49d7c13a
     Pseudo is Norm-conserving + core correction, Zval = 28.0
     Generated using ONCVPSP code by D. R. Hamann
     Using radial grid of 1380 points,  8 beta functions with:
                l(1) =   0
                l(2) =   0
                l(3) =   1
                l(4) =   1
                l(5) =   2
                l(6) =   2
                l(7) =   3
                l(8) =   3

     PseudoPot. # 2 for O  read from file:
     /cluster/scratch/mnoe/QE/pps/O_ONCV_LDA-3.0.upf
     MD5 check sum: a1bd6164e7280c17a38c229939bfbd54
     Pseudo is Norm-conserving + core correction, Zval =  6.0
     Generated using ONCVPSP code by D. R. Hamann
     Using radial grid of  926 points,  5 beta functions with:
                l(1) =   0
                l(2) =   0
                l(3) =   1
                l(4) =   1
                l(5) =   2

     atomic species   valence    mass     pseudopotential
        W             28.00   183.84000     W ( 1.00)
        O              6.00    15.99940     O ( 1.00)

      8 Sym. Ops., with inversion, found ( 6 have fractional translation)

   Cartesian axes

     site n.     atom                  positions (alat units)
         1           W   tau(   1) = (   0.2463000   0.2936699   0.0034910  )
         2           W   tau(   2) = (   0.7537000   0.7556044   0.9968077  )
         3           W   tau(   3) = (   0.2537000   0.2309673   0.5036404  )
         4           W   tau(   4) = (   0.7462999   0.8183071   0.4966583  )
         5           W   tau(   5) = (   0.7537000   0.2936699   0.4966583  )
         6           W   tau(   6) = (   0.2463000   0.7556044   0.5036404  )
         7           W   tau(   7) = (   0.7462999   0.2309673   0.9968077  )
         8           W   tau(   8) = (   0.2537000   0.8183071   0.0034910  )
         9           O   tau(   9) = (   0.2431800   0.0081637   0.0010903  )
        10           O   tau(  10) = (   0.7568199   1.0411106   0.9992084  )
        11           O   tau(  11) = (   0.2568200   0.5164735   0.5012397  )
        12           O   tau(  12) = (   0.7431800   0.5328009   0.4990590  )
        13           O   tau(  13) = (   0.7568199   0.0081637   0.4990590  )
        14           O   tau(  14) = (   0.2431800   1.0411106   0.5012397  )
        15           O   tau(  15) = (   0.7431800   0.5164735   0.9992084  )
        16           O   tau(  16) = (   0.2568200   0.5328009   0.0010903  )
        17           O   tau(  17) = (   0.5010100   0.2549737   0.4545195  )
        18           O   tau(  18) = (   0.4989900   0.7943007   0.5457791  )
        19           O   tau(  19) = (   0.9989900   0.2696635   0.9546689  )
        20           O   tau(  20) = (   0.0010099   0.7796108   0.0456298  )
        21           O   tau(  21) = (   0.4989900   0.2549737   0.0456298  )
        22           O   tau(  22) = (   0.5010100   0.7943007   0.9546689  )
        23           O   tau(  23) = (   0.0010099   0.2696635   0.5457791  )
        24           O   tau(  24) = (   0.9989900   0.7796108   0.4545195  )
        25           O   tau(  25) = (   0.7043838   0.2607132   0.7486936  )
        26           O   tau(  26) = (   0.2956162   0.7885611   0.2516051  )
        27           O   tau(  27) = (   0.7956162   0.2639240   0.2485443  )
        28           O   tau(  28) = (   0.2043838   0.7853504   0.7517545  )
        29           O   tau(  29) = (   0.2956162   0.2607132   0.7517545  )
        30           O   tau(  30) = (   0.7043838   0.7885611   0.2485443  )
        31           O   tau(  31) = (   0.2043838   0.2639240   0.2516051  )
        32           O   tau(  32) = (   0.7956162   0.7853504   0.7486936  )

     number of k points=    64  gaussian smearing, width (Ry)=  0.0007
                       cart. coord. in units 2pi/alat
        k(    1) = (   0.0000000   0.0000000   0.0000000), wk =   0.0092593
        k(    2) = (   0.0000000   0.0000000   0.1666169), wk =   0.0185185
        k(    3) = (   0.0000000   0.0000000   0.3332338), wk =   0.0185185
        k(    4) = (   0.0000000   0.0000000  -0.4998507), wk =   0.0092593
        k(    5) = (   0.0000000   0.1588399   0.0000000), wk =   0.0185185
        k(    6) = (   0.0000000   0.1588399   0.1666169), wk =   0.0370370
        k(    7) = (   0.0000000   0.1588399   0.3332338), wk =   0.0370370
        k(    8) = (   0.0000000   0.1588399  -0.4998507), wk =   0.0185185
        k(    9) = (   0.0000000   0.3176799   0.0000000), wk =   0.0185185
        k(   10) = (   0.0000000   0.3176799   0.1666169), wk =   0.0370370
        k(   11) = (   0.0000000   0.3176799   0.3332338), wk =   0.0370370
        k(   12) = (   0.0000000   0.3176799  -0.4998507), wk =   0.0185185
        k(   13) = (   0.0000000  -0.4765198   0.0000000), wk =   0.0092593
        k(   14) = (   0.0000000  -0.4765198   0.1666169), wk =   0.0185185
        k(   15) = (   0.0000000  -0.4765198   0.3332338), wk =   0.0185185
        k(   16) = (   0.0000000  -0.4765198  -0.4998507), wk =   0.0092593
        k(   17) = (   0.1666667   0.0000000   0.0000000), wk =   0.0185185
        k(   18) = (   0.1666667   0.0000000   0.1666169), wk =   0.0370370
        k(   19) = (   0.1666667   0.0000000   0.3332338), wk =   0.0370370
        k(   20) = (   0.1666667   0.0000000  -0.4998507), wk =   0.0185185
        k(   21) = (   0.1666667   0.1588399   0.0000000), wk =   0.0370370
        k(   22) = (   0.1666667   0.1588399   0.1666169), wk =   0.0740741
        k(   23) = (   0.1666667   0.1588399   0.3332338), wk =   0.0740741
        k(   24) = (   0.1666667   0.1588399  -0.4998507), wk =   0.0370370
        k(   25) = (   0.1666667   0.3176799   0.0000000), wk =   0.0370370
        k(   26) = (   0.1666667   0.3176799   0.1666169), wk =   0.0740741
        k(   27) = (   0.1666667   0.3176799   0.3332338), wk =   0.0740741
        k(   28) = (   0.1666667   0.3176799  -0.4998507), wk =   0.0370370
        k(   29) = (   0.1666667  -0.4765198   0.0000000), wk =   0.0185185
        k(   30) = (   0.1666667  -0.4765198   0.1666169), wk =   0.0370370
        k(   31) = (   0.1666667  -0.4765198   0.3332338), wk =   0.0370370
        k(   32) = (   0.1666667  -0.4765198  -0.4998507), wk =   0.0185185
        k(   33) = (   0.3333333   0.0000000   0.0000000), wk =   0.0185185
        k(   34) = (   0.3333333   0.0000000   0.1666169), wk =   0.0370370
        k(   35) = (   0.3333333   0.0000000   0.3332338), wk =   0.0370370
        k(   36) = (   0.3333333   0.0000000  -0.4998507), wk =   0.0185185
        k(   37) = (   0.3333333   0.1588399   0.0000000), wk =   0.0370370
        k(   38) = (   0.3333333   0.1588399   0.1666169), wk =   0.0740741
        k(   39) = (   0.3333333   0.1588399   0.3332338), wk =   0.0740741
        k(   40) = (   0.3333333   0.1588399  -0.4998507), wk =   0.0370370
        k(   41) = (   0.3333333   0.3176799   0.0000000), wk =   0.0370370
        k(   42) = (   0.3333333   0.3176799   0.1666169), wk =   0.0740741
        k(   43) = (   0.3333333   0.3176799   0.3332338), wk =   0.0740741
        k(   44) = (   0.3333333   0.3176799  -0.4998507), wk =   0.0370370
        k(   45) = (   0.3333333  -0.4765198   0.0000000), wk =   0.0185185
        k(   46) = (   0.3333333  -0.4765198   0.1666169), wk =   0.0370370
        k(   47) = (   0.3333333  -0.4765198   0.3332338), wk =   0.0370370
        k(   48) = (   0.3333333  -0.4765198  -0.4998507), wk =   0.0185185
        k(   49) = (  -0.5000000   0.0000000   0.0000000), wk =   0.0092593
        k(   50) = (  -0.5000000   0.0000000   0.1666169), wk =   0.0185185
        k(   51) = (  -0.5000000   0.0000000   0.3332338), wk =   0.0185185
        k(   52) = (  -0.5000000   0.0000000  -0.4998507), wk =   0.0092593
        k(   53) = (  -0.5000000   0.1588399   0.0000000), wk =   0.0185185
        k(   54) = (  -0.5000000   0.1588399   0.1666169), wk =   0.0370370
        k(   55) = (  -0.5000000   0.1588399   0.3332338), wk =   0.0370370
        k(   56) = (  -0.5000000   0.1588399  -0.4998507), wk =   0.0185185
        k(   57) = (  -0.5000000   0.3176799   0.0000000), wk =   0.0185185
        k(   58) = (  -0.5000000   0.3176799   0.1666169), wk =   0.0370370
        k(   59) = (  -0.5000000   0.3176799   0.3332338), wk =   0.0370370
        k(   60) = (  -0.5000000   0.3176799  -0.4998507), wk =   0.0185185
        k(   61) = (  -0.5000000  -0.4765198   0.0000000), wk =   0.0092593
        k(   62) = (  -0.5000000  -0.4765198   0.1666169), wk =   0.0185185
        k(   63) = (  -0.5000000  -0.4765198   0.3332338), wk =   0.0185185
        k(   64) = (  -0.5000000  -0.4765198  -0.4998507), wk =   0.0092593

     Initial potential from superposition of free atoms

     starting charge  367.99656, renormalised to  368.60000
     Starting wfc are  232 randomized atomic wfcs

     Self-consistent Calculation

     iteration #  1     ecut=   120.00 Ry     beta= 0.70
     Davidson diagonalization with overlap
     ethr =  1.00E-02,  avg # of iterations =  5.2

     total energy              =   -6253.43781242 Ry
     Harris-Foulkes estimate   =   -6264.28280767 Ry
     estimated scf accuracy    <      13.66129941 Ry

[...]

     total energy              =   -6260.69047376 Ry
     Harris-Foulkes estimate   =   -6260.69047376 Ry
     estimated scf accuracy    <       0.00000001 Ry

     iteration # 13     ecut=   120.00 Ry     beta= 0.70
     Davidson diagonalization with overlap
     ethr =  2.72E-12,  avg # of iterations =  2.8

     End of self-consistent calculation

          k = 0.0000 0.0000 0.0000 ( 62567 PWs)   bands (ev):

   -66.1318 -66.1314 -66.1309 -66.1309 -66.1305 -66.1304 -66.1299 -66.1295
   -30.5684 -30.5648 -30.5646 -30.5611 -30.5070 -30.5034 -30.5030 -30.4996
   -30.4706 -30.4699 -30.4669 -30.4649 -30.4646 -30.4646 -30.4619 -30.4603
   -30.3720 -30.3713 -30.3692 -30.3682 -30.3679 -30.3671 -30.3648 -30.3638
   -20.2843 -20.2840 -20.2840 -20.2837 -20.2823 -20.2822 -20.2821 -20.2820
   -20.2820 -20.2819 -20.2818 -20.2817 -20.2785 -20.2782 -20.2781 -20.2777
   -20.2731 -20.2728 -20.2728 -20.2727 -20.2718 -20.2717 -20.2716 -20.2715
   -20.2701 -20.2699 -20.2699 -20.2698 -20.2689 -20.2688 -20.2687 -20.2685
   -20.2592 -20.2590 -20.2587 -20.2586 -20.2586 -20.2585 -20.2581 -20.2580
   -20.2309 -20.2309 -20.2304 -20.2304 -20.2294 -20.2294 -20.2289 -20.2289
   -20.2249 -20.2249 -20.2245 -20.2245 -20.2235 -20.2235 -20.2231 -20.2230
    -9.9917  -9.6942  -9.5768  -9.5767  -9.2851  -9.2827  -9.1814  -9.0782
    -9.0639  -8.9643  -8.9336  -8.9330  -7.9212  -7.8623  -7.8604  -7.8097
    -7.7974  -7.7957  -7.7686  -7.7684  -7.6669  -7.6657  -7.6427  -7.6420
     1.1567   1.1580   1.2268   1.2294   1.2570   1.2623   1.2832   1.5108
     1.5303   1.5340   1.5733   1.7779   2.3922   2.4737   2.5106   2.5130
     2.6524   2.6564   4.1269   4.1334   4.3341   4.3452   4.7371   4.7522
     4.7717   4.7769   4.8060   4.8062   4.9301   4.9303   5.0257   5.3932
     5.4006   5.4217   5.4371   5.4941   5.4965   5.5163   5.5276   5.7843
     5.7931   5.7942   5.7951   5.8445   5.9044   6.0451   6.0485   6.0824
     6.0836   6.2370   6.2407   6.4709   6.4723   6.7604   6.7696   6.8054
     6.8074   6.8111   6.9704   6.9793   7.0316   7.0365   7.3137   7.3206
     7.3416   7.3478   7.8410   7.8553   8.0181   8.0289   8.0861   8.0968
     9.2359   9.2398   9.8628   9.8659   9.8811   9.8852  12.2631  12.2688
    12.3002  12.3158  12.3530  12.3629  12.4774  12.4840  12.9289  12.9859
    13.1534  13.1944  13.3029  13.3118  13.7881  14.0597  14.1136  14.1223
    14.1549  14.3402  14.3969  14.7720  15.3389  15.3507  15.4765  16.0165
    16.0236  16.8240  17.0281  17.0369  17.3758

[...]

          k = 0.3333-0.4765-0.4999 ( 62564 PWs)   bands (ev):

[...]

          k =-0.5000 0.0000 0.0000 ( 62620 PWs)   bands (ev):

[...]

          k =-0.5000-0.4765-0.4999 ( 62496 PWs)   bands (ev):

   -66.1307 -66.1307 -66.1307 -66.1307 -66.1307 -66.1307 -66.1307 -66.1306
   -30.5346 -30.5346 -30.5346 -30.5346 -30.5345 -30.5344 -30.5344 -30.5344
   -30.4194 -30.4194 -30.4194 -30.4194 -30.4179 -30.4179 -30.4179 -30.4179
   -30.4159 -30.4158 -30.4158 -30.4158 -30.4144 -30.4144 -30.4143 -30.4143
   -20.2823 -20.2823 -20.2823 -20.2823 -20.2823 -20.2823 -20.2823 -20.2823
   -20.2810 -20.2809 -20.2809 -20.2809 -20.2809 -20.2809 -20.2809 -20.2809
   -20.2712 -20.2712 -20.2712 -20.2712 -20.2709 -20.2709 -20.2709 -20.2709
   -20.2706 -20.2706 -20.2706 -20.2706 -20.2703 -20.2703 -20.2703 -20.2703
   -20.2585 -20.2585 -20.2585 -20.2585 -20.2585 -20.2585 -20.2585 -20.2585
   -20.2274 -20.2274 -20.2274 -20.2274 -20.2273 -20.2273 -20.2273 -20.2273
   -20.2268 -20.2268 -20.2268 -20.2268 -20.2267 -20.2267 -20.2267 -20.2267
    -8.9827  -8.9827  -8.9827  -8.9827  -8.9768  -8.9768  -8.9767  -8.9767
    -8.4635  -8.4635  -8.4635  -8.4635  -8.4525  -8.4524  -8.4524  -8.4524
    -8.4054  -8.4054  -8.4054  -8.4054  -8.4003  -8.4003  -8.4003  -8.4003
     2.9615   2.9615   2.9615   2.9615   2.9843   2.9843   2.9843   2.9843
     3.0988   3.0988   3.0988   3.0988   3.1291   3.1291   3.1291   3.1291
     3.3679   3.3679   3.3679   3.3679   3.4263   3.4263   3.4264   3.4264
     4.1041   4.1041   4.1041   4.1041   4.1137   4.1137   4.1137   4.1137
     4.2910   4.2910   4.2910   4.2910   4.3006   4.3006   4.3007   4.3007
     4.3859   4.3859   4.3859   4.3859   4.4042   4.4042   4.4042   4.4042
     7.1126   7.1127   7.1127   7.1127   7.1801   7.1801   7.1801   7.1801
     7.2789   7.2789   7.2789   7.2789   7.2872   7.2872   7.2872   7.2872
     7.5495   7.5495   7.5495   7.5495   7.5671   7.5671   7.5671   7.5671
    11.8124  11.8124  11.8124  11.8124  11.8187  11.8187  11.8187  11.8187
    12.1810  12.1810  12.1810  12.1810  12.2447  12.2447  12.2447  12.2447
    12.4457  12.4457  12.4457  12.4457  12.4746  12.4746  12.4746  12.4746
    17.0883  17.0884  17.0884  17.0884  17.1244  17.1244  17.1244  17.1245
    17.3768  17.3768  17.3769  17.3770  17.3944

     the Fermi energy is     9.8227 ev

!    total energy              =   -6260.69047376 Ry
     Harris-Foulkes estimate   =   -6260.69047376 Ry
     estimated scf accuracy    <          5.7E-10 Ry

     The total energy is the sum of the following terms:

     one-electron contribution =   -4745.12730352 Ry
     hartree contribution      =    2609.85253797 Ry
     xc contribution           =    -966.33178349 Ry
     ewald contribution        =   -3159.08391422 Ry
     smearing contrib. (-TS)   =      -0.00001050 Ry

     convergence has been achieved in  13 iterations

     Writing output data file Landau_4.save

     General routines

     Parallel routines

   This run was terminated on:   3: 5: 2  21Mar2020

   JOB DONE.