     Program PWSCF v.6.2 (svn rev. 14038) starts on 23Mar2020 at  1: 0:30

     K-points division:     npool     =      40
     Reading input from rscf.in

     Current dimensions of program PWSCF are:
     Max number of different atomic species (ntypx) = 10
     Max number of k-points (npk) =  40000
     Max angular momentum in pseudopotentials (lmaxx) =  3

     Subspace diagonalization in iterative solution of the eigenvalue problem:
     a serial algorithm will be used

     bravais-lattice index     =            0
     lattice parameter (alat)  =      13.8397  a.u.
     unit-cell volume          =    2804.9816 (a.u.)^3
     number of atoms/cell      =           32
     number of atomic types    =            2
     number of electrons       =       368.00
     number of Kohn-Sham states=          221
     kinetic-energy cutoff     =     120.0000  Ry
     charge density cutoff     =     480.0000  Ry
     convergence threshold     =      1.0E-08
     mixing beta               =       0.7000
     number of iterations used =            8  plain     mixing
     Exchange-correlation      = SLA PW NOGX NOGC ( 1  4  0  0 0 0)
     nstep                     =           50

     celldm(1)=  13.839685  celldm(2)=   0.000000  celldm(3)=   0.000000
     celldm(4)=   0.000000  celldm(5)=   0.000000  celldm(6)=   0.000000

     crystal axes: (cart. coord. in units of alat)
               a(1) = (   1.000000   0.000000   0.000000 )
               a(2) = (   0.000000   1.058160   0.000000 )
               a(3) = (   0.000000   0.000000   1.000000 )

     reciprocal axes: (cart. coord. in units 2 pi/alat)
               b(1) = (  1.000000  0.000000  0.000000 )
               b(2) = (  0.000000  0.945037  0.000000 )
               b(3) = (  0.000000  0.000000  1.000000 )

     PseudoPot. # 1 for W  read from file:
     /cluster/scratch/mnoe/QE/pps/W_ONCV_LDA-4.0.upf
     MD5 check sum: ba0307d5d4cd419d6f1d13dc49d7c13a
     Pseudo is Norm-conserving + core correction, Zval = 28.0
     Generated using ONCVPSP code by D. R. Hamann
     Using radial grid of 1380 points,  8 beta functions with:
                l(1) =   0
                l(2) =   0
                l(3) =   1
                l(4) =   1
                l(5) =   2
                l(6) =   2
                l(7) =   3
                l(8) =   3

     PseudoPot. # 2 for O  read from file:
     /cluster/scratch/mnoe/QE/pps/O_ONCV_LDA-3.0.upf
     MD5 check sum: a1bd6164e7280c17a38c229939bfbd54
     Pseudo is Norm-conserving + core correction, Zval =  6.0
     Generated using ONCVPSP code by D. R. Hamann
     Using radial grid of  926 points,  5 beta functions with:
                l(1) =   0
                l(2) =   0
                l(3) =   1
                l(4) =   1
                l(5) =   2

     atomic species   valence    mass     pseudopotential
        W             28.00   183.84000     W ( 1.00)
        O              6.00    15.99940     O ( 1.00)

      4 Sym. Ops. (no inversion) found ( 3 have fractional translation)

   Cartesian axes

     site n.     atom                  positions (alat units)
         1           W   tau(   1) = (   0.2439733   0.2970056   0.0010301  )
         2           W   tau(   2) = (   0.7513733   0.7611544  -0.0059579  )
         3           W   tau(   3) = (   0.2560267   0.2320744   0.5010301  )
         4           W   tau(   4) = (   0.7486267   0.8260857   0.4940421  )
         5           W   tau(   5) = (   0.7560267   0.2970056   0.4989699  )
         6           W   tau(   6) = (   0.2486267   0.7611544   0.5059579  )
         7           W   tau(   7) = (   0.7439733   0.2320744  -0.0010301  )
         8           W   tau(   8) = (   0.2513733   0.8260857   0.0059579  )
         9           O   tau(   9) = (   0.2424508   0.0084641  -0.0034595  )
        10           O   tau(  10) = (   0.7561028  -0.0084641  -0.0056315  )
        11           O   tau(  11) = (   0.2575492   0.5206160   0.4965405  )
        12           O   tau(  12) = (   0.7438972   0.5375441   0.4943685  )
        13           O   tau(  13) = (   0.7575492   0.0084641   0.5034595  )
        14           O   tau(  14) = (   0.2438972  -0.0084641   0.5056315  )
        15           O   tau(  15) = (   0.7424508   0.5206160   0.0034595  )
        16           O   tau(  16) = (   0.2561028   0.5375441   0.0056315  )
        17           O   tau(  17) = (   0.5020335   0.2560541   0.4524224  )
        18           O   tau(  18) = (   0.5000095   0.7999526   0.5475776  )
        19           O   tau(  19) = (  -0.0020335   0.2730259   0.9524224  )
        20           O   tau(  20) = (  -0.0000095   0.7872875   0.0475776  )
        21           O   tau(  21) = (   0.4979665   0.2560541   0.0475776  )
        22           O   tau(  22) = (   0.4999905   0.7999526   0.9524224  )
        23           O   tau(  23) = (   0.0020335   0.2730259   0.5475776  )
        24           O   tau(  24) = (   0.0000095   0.7872875   0.4524224  )
        25           O   tau(  25) = (   0.7024224   0.2678570   0.7491399  )
        26           O   tau(  26) = (   0.2975776   0.8001708   0.2522079  )
        27           O   tau(  27) = (   0.7975776   0.2612230   0.2491399  )
        28           O   tau(  28) = (   0.2024224   0.7870693   0.7522079  )
        29           O   tau(  29) = (   0.2975776   0.2678570   0.7508601  )
        30           O   tau(  30) = (   0.7024224   0.8001708   0.2477921  )
        31           O   tau(  31) = (   0.2024224   0.2612230   0.2508601  )
        32           O   tau(  32) = (   0.7975776   0.7870693   0.7477921  )

     number of k points=    64  gaussian smearing, width (Ry)=  0.0007
                       cart. coord. in units 2pi/alat
        k(    1) = (   0.0000000   0.0000000   0.0000000), wk =   0.0092593
        k(    2) = (   0.0000000   0.0000000   0.1666667), wk =   0.0185185
        k(    3) = (   0.0000000   0.0000000   0.3333333), wk =   0.0185185
        k(    4) = (   0.0000000   0.0000000  -0.5000000), wk =   0.0092593
        k(    5) = (   0.0000000   0.1575061   0.0000000), wk =   0.0185185
        k(    6) = (   0.0000000   0.1575061   0.1666667), wk =   0.0370370
        k(    7) = (   0.0000000   0.1575061   0.3333333), wk =   0.0370370
        k(    8) = (   0.0000000   0.1575061  -0.5000000), wk =   0.0185185
        k(    9) = (   0.0000000   0.3150122   0.0000000), wk =   0.0185185
        k(   10) = (   0.0000000   0.3150122   0.1666667), wk =   0.0370370
        k(   11) = (   0.0000000   0.3150122   0.3333333), wk =   0.0370370
        k(   12) = (   0.0000000   0.3150122  -0.5000000), wk =   0.0185185
        k(   13) = (   0.0000000  -0.4725183   0.0000000), wk =   0.0092593
        k(   14) = (   0.0000000  -0.4725183   0.1666667), wk =   0.0185185
        k(   15) = (   0.0000000  -0.4725183   0.3333333), wk =   0.0185185
        k(   16) = (   0.0000000  -0.4725183  -0.5000000), wk =   0.0092593
        k(   17) = (   0.1666667   0.0000000   0.1666667), wk =   0.0370370
        k(   18) = (   0.1666667   0.0000000   0.3333333), wk =   0.0370370
        k(   19) = (   0.1666667   0.0000000  -0.5000000), wk =   0.0185185
        k(   20) = (   0.1666667   0.1575061   0.1666667), wk =   0.0740741
        k(   21) = (   0.1666667   0.1575061   0.3333333), wk =   0.0740741
        k(   22) = (   0.1666667   0.1575061  -0.5000000), wk =   0.0370370
        k(   23) = (   0.1666667   0.3150122   0.1666667), wk =   0.0740741
        k(   24) = (   0.1666667   0.3150122   0.3333333), wk =   0.0740741
        k(   25) = (   0.1666667   0.3150122  -0.5000000), wk =   0.0370370
        k(   26) = (   0.1666667  -0.4725183   0.1666667), wk =   0.0370370
        k(   27) = (   0.1666667  -0.4725183   0.3333333), wk =   0.0370370
        k(   28) = (   0.1666667  -0.4725183  -0.5000000), wk =   0.0185185
        k(   29) = (   0.3333333   0.0000000   0.3333333), wk =   0.0370370
        k(   30) = (   0.3333333   0.0000000  -0.5000000), wk =   0.0185185
        k(   31) = (   0.3333333   0.1575061   0.3333333), wk =   0.0740741
        k(   32) = (   0.3333333   0.1575061  -0.5000000), wk =   0.0370370
        k(   33) = (   0.3333333   0.3150122   0.3333333), wk =   0.0740741
        k(   34) = (   0.3333333   0.3150122  -0.5000000), wk =   0.0370370
        k(   35) = (   0.3333333  -0.4725183   0.3333333), wk =   0.0370370
        k(   36) = (   0.3333333  -0.4725183  -0.5000000), wk =   0.0185185
        k(   37) = (  -0.5000000   0.0000000  -0.5000000), wk =   0.0092593
        k(   38) = (  -0.5000000   0.1575061  -0.5000000), wk =   0.0185185
        k(   39) = (  -0.5000000   0.3150122  -0.5000000), wk =   0.0185185
        k(   40) = (  -0.5000000  -0.4725183  -0.5000000), wk =   0.0092593
        k(   41) = (   0.1666667   0.0000000   0.0000000), wk =   0.0185185
        k(   42) = (   0.3333333   0.0000000   0.0000000), wk =   0.0185185
        k(   43) = (  -0.5000000   0.0000000   0.0000000), wk =   0.0092593
        k(   44) = (   0.1666667  -0.1575061   0.0000000), wk =   0.0370370
        k(   45) = (   0.3333333  -0.1575061   0.0000000), wk =   0.0370370
        k(   46) = (  -0.5000000  -0.1575061   0.0000000), wk =   0.0185185
        k(   47) = (   0.1666667  -0.3150122   0.0000000), wk =   0.0370370
        k(   48) = (   0.3333333  -0.3150122   0.0000000), wk =   0.0370370
        k(   49) = (  -0.5000000  -0.3150122   0.0000000), wk =   0.0185185
        k(   50) = (   0.1666667   0.4725183   0.0000000), wk =   0.0185185
        k(   51) = (   0.3333333   0.4725183   0.0000000), wk =   0.0185185
        k(   52) = (  -0.5000000   0.4725183   0.0000000), wk =   0.0092593
        k(   53) = (   0.3333333   0.0000000   0.1666667), wk =   0.0370370
        k(   54) = (  -0.5000000   0.0000000   0.1666667), wk =   0.0185185
        k(   55) = (   0.3333333  -0.1575061   0.1666667), wk =   0.0740741
        k(   56) = (  -0.5000000  -0.1575061   0.1666667), wk =   0.0370370
        k(   57) = (   0.3333333  -0.3150122   0.1666667), wk =   0.0740741
        k(   58) = (  -0.5000000  -0.3150122   0.1666667), wk =   0.0370370
        k(   59) = (   0.3333333   0.4725183   0.1666667), wk =   0.0370370
        k(   60) = (  -0.5000000   0.4725183   0.1666667), wk =   0.0185185
        k(   61) = (  -0.5000000   0.0000000   0.3333333), wk =   0.0185185
        k(   62) = (  -0.5000000  -0.1575061   0.3333333), wk =   0.0370370
        k(   63) = (  -0.5000000  -0.3150122   0.3333333), wk =   0.0370370
        k(   64) = (  -0.5000000   0.4725183   0.3333333), wk =   0.0185185

     Initial potential from superposition of free atoms

     starting charge  367.99656, renormalised to  368.00000
     Starting wfc are  232 randomized atomic wfcs

     Self-consistent Calculation

     iteration #  1     ecut=   120.00 Ry     beta= 0.70
     Davidson diagonalization with overlap
     ethr =  1.00E-02,  avg # of iterations =  5.0

     total energy              =   -6253.99965333 Ry
     Harris-Foulkes estimate   =   -6264.58627224 Ry
     estimated scf accuracy    <      13.40905928 Ry

[...]

     End of self-consistent calculation

[...]
     Results may differ from those at the preceding step.

     bravais-lattice index     =            0
     lattice parameter (alat)  =      13.8397  a.u.
     unit-cell volume          =    2812.5446 (a.u.)^3
     number of atoms/cell      =           32
     number of atomic types    =            2
     number of electrons       =       368.00
     number of Kohn-Sham states=          221
     kinetic-energy cutoff     =     120.0000  Ry
     charge density cutoff     =     480.0000  Ry
     convergence threshold     =      1.0E-10
     mixing beta               =       0.7000
     number of iterations used =            8  plain     mixing
     Exchange-correlation      = SLA PW NOGX NOGC ( 1  4  0  0 0 0)

     celldm(1)=  13.839685  celldm(2)=   0.000000  celldm(3)=   0.000000
     celldm(4)=   0.000000  celldm(5)=   0.000000  celldm(6)=   0.000000

     crystal axes: (cart. coord. in units of alat)
               a(1) = (   1.002785   0.000000   0.000000 )
               a(2) = (   0.000000   1.054947   0.000000 )
               a(3) = (   0.000000   0.000000   1.002957 )

     reciprocal axes: (cart. coord. in units 2 pi/alat)
               b(1) = (  0.997223  0.000000  0.000000 )
               b(2) = (  0.000000  0.947915  0.000000 )
               b(3) = (  0.000000  0.000000  0.997051 )

     PseudoPot. # 1 for W  read from file:
     /cluster/scratch/mnoe/QE/pps/W_ONCV_LDA-4.0.upf
     MD5 check sum: ba0307d5d4cd419d6f1d13dc49d7c13a
     Pseudo is Norm-conserving + core correction, Zval = 28.0
     Generated using ONCVPSP code by D. R. Hamann
     Using radial grid of 1380 points,  8 beta functions with:
                l(1) =   0
                l(2) =   0
                l(3) =   1
                l(4) =   1
                l(5) =   2
                l(6) =   2
                l(7) =   3
                l(8) =   3

     PseudoPot. # 2 for O  read from file:
     /cluster/scratch/mnoe/QE/pps/O_ONCV_LDA-3.0.upf
     MD5 check sum: a1bd6164e7280c17a38c229939bfbd54
     Pseudo is Norm-conserving + core correction, Zval =  6.0
     Generated using ONCVPSP code by D. R. Hamann
     Using radial grid of  926 points,  5 beta functions with:
                l(1) =   0
                l(2) =   0
                l(3) =   1
                l(4) =   1
                l(5) =   2

     atomic species   valence    mass     pseudopotential
        W             28.00   183.84000     W ( 1.00)
        O              6.00    15.99940     O ( 1.00)

      4 Sym. Ops. (no inversion) found ( 3 have fractional translation)

   Cartesian axes

     site n.     atom                  positions (alat units)
         1           W   tau(   1) = (   0.2446527   0.2961037   0.0010332  )
         2           W   tau(   2) = (   0.7534658   0.7588430  -0.0059755  )
         3           W   tau(   3) = (   0.2567397   0.2313697   0.5025119  )
         4           W   tau(   4) = (   0.7507115   0.8235770   0.4955032  )
         5           W   tau(   5) = (   0.7581321   0.2961037   0.5004455  )
         6           W   tau(   6) = (   0.2493191   0.7588430   0.5074542  )
         7           W   tau(   7) = (   0.7460452   0.2313697  -0.0010332  )
         8           W   tau(   8) = (   0.2520733   0.8235770   0.0059755  )
         9           O   tau(   9) = (   0.2431260   0.0084384  -0.0034697  )
        10           O   tau(  10) = (   0.7582084  -0.0084384  -0.0056482  )
        11           O   tau(  11) = (   0.2582664   0.5190350   0.4980089  )
        12           O   tau(  12) = (   0.7459688   0.5359117   0.4958305  )
        13           O   tau(  13) = (   0.7596588   0.0084384   0.5049484  )
        14           O   tau(  14) = (   0.2445764  -0.0084384   0.5071269  )
        15           O   tau(  15) = (   0.7445184   0.5190350   0.0034697  )
        16           O   tau(  16) = (   0.2568160   0.5359117   0.0056482  )
        17           O   tau(  17) = (   0.5034316   0.2552765   0.4537604  )
        18           O   tau(  18) = (   0.5014020   0.7975233   0.5491970  )
        19           O   tau(  19) = (  -0.0020392   0.2721968   0.9552391  )
        20           O   tau(  20) = (  -0.0000095   0.7848967   0.0477183  )
        21           O   tau(  21) = (   0.4993533   0.2552765   0.0477183  )
        22           O   tau(  22) = (   0.5013829   0.7975233   0.9552391  )
        23           O   tau(  23) = (   0.0020392   0.2721968   0.5491970  )
        24           O   tau(  24) = (   0.0000095   0.7848967   0.4537604  )
        25           O   tau(  25) = (   0.7043786   0.2670436   0.7513554  )
        26           O   tau(  26) = (   0.2984063   0.7977409   0.2529538  )
        27           O   tau(  27) = (   0.7997987   0.2604297   0.2498767  )
        28           O   tau(  28) = (   0.2029861   0.7846792   0.7544325  )
        29           O   tau(  29) = (   0.2984063   0.2670436   0.7530807  )
        30           O   tau(  30) = (   0.7043786   0.7977409   0.2485249  )
        31           O   tau(  31) = (   0.2029861   0.2604297   0.2516020  )
        32           O   tau(  32) = (   0.7997987   0.7846792   0.7500036  )

     number of k points=    64  gaussian smearing, width (Ry)=  0.0007
                       cart. coord. in units 2pi/alat
        k(    1) = (   0.0000000   0.0000000   0.0000000), wk =   0.0092593
        k(    2) = (   0.0000000   0.0000000   0.1661752), wk =   0.0185185
        k(    3) = (   0.0000000   0.0000000   0.3323504), wk =   0.0185185
        k(    4) = (   0.0000000   0.0000000  -0.4985257), wk =   0.0092593
        k(    5) = (   0.0000000   0.1579859   0.0000000), wk =   0.0185185
        k(    6) = (   0.0000000   0.1579859   0.1661752), wk =   0.0370370
        k(    7) = (   0.0000000   0.1579859   0.3323504), wk =   0.0370370
        k(    8) = (   0.0000000   0.1579859  -0.4985257), wk =   0.0185185
        k(    9) = (   0.0000000   0.3159717   0.0000000), wk =   0.0185185
        k(   10) = (   0.0000000   0.3159717   0.1661752), wk =   0.0370370
        k(   11) = (   0.0000000   0.3159717   0.3323504), wk =   0.0370370
        k(   12) = (   0.0000000   0.3159717  -0.4985257), wk =   0.0185185
        k(   13) = (   0.0000000  -0.4739576   0.0000000), wk =   0.0092593
        k(   14) = (   0.0000000  -0.4739576   0.1661752), wk =   0.0185185
        k(   15) = (   0.0000000  -0.4739576   0.3323504), wk =   0.0185185
        k(   16) = (   0.0000000  -0.4739576  -0.4985257), wk =   0.0092593
        k(   17) = (   0.1662038   0.0000000   0.1661752), wk =   0.0370370
        k(   18) = (   0.1662038   0.0000000   0.3323504), wk =   0.0370370
        k(   19) = (   0.1662038   0.0000000  -0.4985257), wk =   0.0185185
        k(   20) = (   0.1662038   0.1579859   0.1661752), wk =   0.0740741
        k(   21) = (   0.1662038   0.1579859   0.3323504), wk =   0.0740741
        k(   22) = (   0.1662038   0.1579859  -0.4985257), wk =   0.0370370
        k(   23) = (   0.1662038   0.3159717   0.1661752), wk =   0.0740741
        k(   24) = (   0.1662038   0.3159717   0.3323504), wk =   0.0740741
        k(   25) = (   0.1662038   0.3159717  -0.4985257), wk =   0.0370370
        k(   26) = (   0.1662038  -0.4739576   0.1661752), wk =   0.0370370
        k(   27) = (   0.1662038  -0.4739576   0.3323504), wk =   0.0370370
        k(   28) = (   0.1662038  -0.4739576  -0.4985257), wk =   0.0185185
        k(   29) = (   0.3324076   0.0000000   0.3323504), wk =   0.0370370
        k(   30) = (   0.3324076   0.0000000  -0.4985257), wk =   0.0185185
        k(   31) = (   0.3324076   0.1579859   0.3323504), wk =   0.0740741
        k(   32) = (   0.3324076   0.1579859  -0.4985257), wk =   0.0370370
        k(   33) = (   0.3324076   0.3159717   0.3323504), wk =   0.0740741
        k(   34) = (   0.3324076   0.3159717  -0.4985257), wk =   0.0370370
        k(   35) = (   0.3324076  -0.4739576   0.3323504), wk =   0.0370370
        k(   36) = (   0.3324076  -0.4739576  -0.4985257), wk =   0.0185185
        k(   37) = (  -0.4986114   0.0000000  -0.4985257), wk =   0.0092593
        k(   38) = (  -0.4986114   0.1579859  -0.4985257), wk =   0.0185185
        k(   39) = (  -0.4986114   0.3159717  -0.4985257), wk =   0.0185185
        k(   40) = (  -0.4986114  -0.4739576  -0.4985257), wk =   0.0092593
        k(   41) = (   0.1662038   0.0000000   0.0000000), wk =   0.0185185
        k(   42) = (   0.3324076   0.0000000   0.0000000), wk =   0.0185185
        k(   43) = (  -0.4986114   0.0000000   0.0000000), wk =   0.0092593
        k(   44) = (   0.1662038  -0.1579859   0.0000000), wk =   0.0370370
        k(   45) = (   0.3324076  -0.1579859   0.0000000), wk =   0.0370370
        k(   46) = (  -0.4986114  -0.1579859   0.0000000), wk =   0.0185185
        k(   47) = (   0.1662038  -0.3159717   0.0000000), wk =   0.0370370
        k(   48) = (   0.3324076  -0.3159717   0.0000000), wk =   0.0370370
        k(   49) = (  -0.4986114  -0.3159717   0.0000000), wk =   0.0185185
        k(   50) = (   0.1662038   0.4739576   0.0000000), wk =   0.0185185
        k(   51) = (   0.3324076   0.4739576   0.0000000), wk =   0.0185185
        k(   52) = (  -0.4986114   0.4739576   0.0000000), wk =   0.0092593
        k(   53) = (   0.3324076   0.0000000   0.1661752), wk =   0.0370370
        k(   54) = (  -0.4986114   0.0000000   0.1661752), wk =   0.0185185
        k(   55) = (   0.3324076  -0.1579859   0.1661752), wk =   0.0740741
        k(   56) = (  -0.4986114  -0.1579859   0.1661752), wk =   0.0370370
        k(   57) = (   0.3324076  -0.3159717   0.1661752), wk =   0.0740741
        k(   58) = (  -0.4986114  -0.3159717   0.1661752), wk =   0.0370370
        k(   59) = (   0.3324076   0.4739576   0.1661752), wk =   0.0370370
        k(   60) = (  -0.4986114   0.4739576   0.1661752), wk =   0.0185185
        k(   61) = (  -0.4986114   0.0000000   0.3323504), wk =   0.0185185
        k(   62) = (  -0.4986114  -0.1579859   0.3323504), wk =   0.0370370
        k(   63) = (  -0.4986114  -0.3159717   0.3323504), wk =   0.0370370
        k(   64) = (  -0.4986114   0.4739576   0.3323504), wk =   0.0185185

     Initial potential from superposition of free atoms

     starting charge  367.99656, renormalised to  368.00000
     Starting wfc are  232 randomized atomic wfcs

     Writing output data file Landau_4.save

     Self-consistent Calculation

     iteration #  1     ecut=   120.00 Ry     beta= 0.70
     Davidson diagonalization with overlap
     c_bands:  2 eigenvalues not converged
     ethr =  1.00E-06,  avg # of iterations = 14.8

[...]

     total energy              =   -6261.10991453 Ry
     Harris-Foulkes estimate   =   -6261.10991453 Ry
     estimated scf accuracy    <          1.5E-10 Ry

     iteration # 16     ecut=   120.00 Ry     beta= 0.70
     Davidson diagonalization with overlap
     ethr =  1.00E-13,  avg # of iterations =  2.0

     End of self-consistent calculation

[...]

          k = 0.3324 0.4740 0.1662 ( 62388 PWs)   bands (ev):

[...]

          k =-0.4986 0.4740 0.3324 ( 62408 PWs)   bands (ev):

   -66.2227 -66.2227 -66.2227 -66.2227 -66.2222 -66.2222 -66.2222 -66.2222
   -30.5828 -30.5828 -30.5821 -30.5821 -30.5803 -30.5803 -30.5798 -30.5798
   -30.5422 -30.5422 -30.5362 -30.5362 -30.5187 -30.5187 -30.5170 -30.5170
   -30.5125 -30.5125 -30.5098 -30.5098 -30.4942 -30.4942 -30.4872 -30.4872
   -20.3850 -20.3850 -20.3850 -20.3850 -20.3849 -20.3849 -20.3849 -20.3849
   -20.3632 -20.3632 -20.3631 -20.3631 -20.3630 -20.3630 -20.3629 -20.3629
   -20.3620 -20.3620 -20.3619 -20.3619 -20.3616 -20.3616 -20.3615 -20.3615
   -20.3601 -20.3601 -20.3599 -20.3599 -20.3597 -20.3597 -20.3595 -20.3595
   -20.3514 -20.3514 -20.3514 -20.3514 -20.3504 -20.3504 -20.3503 -20.3503
   -20.3494 -20.3494 -20.3489 -20.3489 -20.3479 -20.3479 -20.3471 -20.3471
   -20.3469 -20.3469 -20.3464 -20.3464 -20.3456 -20.3456 -20.3449 -20.3449
    -9.2291  -9.2291  -9.2190  -9.2190  -8.8312  -8.8312  -8.8190  -8.8190
    -8.5945  -8.5945  -8.5851  -8.5850  -8.4360  -8.4360  -8.4223  -8.4223
    -8.3910  -8.3910  -8.3772  -8.3772  -8.1586  -8.1586  -8.1433  -8.1433
     2.2087   2.2087   2.2223   2.2223   2.9457   2.9458   2.9747   2.9747
     3.0760   3.0760   3.0883   3.0883   3.2176   3.2176   3.2396   3.2396
     3.3357   3.3357   3.3716   3.3716   3.5858   3.5858   3.6220   3.6220
     3.7225   3.7225   3.7944   3.7944   4.2006   4.2006   4.2305   4.2305
     4.2815   4.2815   4.3413   4.3413   4.4127   4.4127   4.5111   4.5111
     4.6106   4.6106   4.7583   4.7583   5.0122   5.0122   5.0306   5.0306
     6.9778   6.9778   7.0292   7.0292   7.1377   7.1377   7.1433   7.1433
     7.2370   7.2370   7.2750   7.2751   7.3118   7.3118   7.3652   7.3653
     7.4392   7.4393   7.5050   7.5050   7.5672   7.5672   7.5952   7.5952
    11.3737  11.3737  11.4074  11.4074  11.6818  11.6818  11.7539  11.7539
    12.1293  12.1293  12.1780  12.1780  12.2502  12.2502  12.2797  12.2797
    12.4315  12.4315  12.5384  12.5384  12.8990  12.8990  12.9761  12.9761
    16.4370  16.4370  16.4831  16.4831  17.0309  17.0309  17.0573  17.0573
    17.2936  17.2937  17.3543  17.3547  17.3877

     the Fermi energy is     8.9220 ev

!    total energy              =   -6261.10991453 Ry
     Harris-Foulkes estimate   =   -6261.10991453 Ry
     estimated scf accuracy    <          2.1E-11 Ry

     The total energy is the sum of the following terms:

     one-electron contribution =   -4732.32403864 Ry
     hartree contribution      =    2602.23991584 Ry
     xc contribution           =    -965.66876129 Ry
     ewald contribution        =   -3165.35703044 Ry
     smearing contrib. (-TS)   =      -0.00000000 Ry

     convergence has been achieved in  16 iterations

     Forces acting on atoms (cartesian axes, Ry/au):

     atom    1 type  1   force =    -0.00204165    0.00238072    0.00026573
     atom    2 type  1   force =     0.00089359   -0.00239621   -0.00183479
     atom    3 type  1   force =     0.00204165   -0.00238072    0.00026573
     atom    4 type  1   force =    -0.00089359    0.00239621   -0.00183479
     atom    5 type  1   force =     0.00204165    0.00238072   -0.00026573
     atom    6 type  1   force =    -0.00089359   -0.00239621    0.00183479
     atom    7 type  1   force =    -0.00204165   -0.00238072   -0.00026573
     atom    8 type  1   force =     0.00089359    0.00239621    0.00183479
     atom    9 type  2   force =    -0.00032223   -0.00111323   -0.00000908
     atom   10 type  2   force =     0.00010498    0.00111110   -0.00026826
     atom   11 type  2   force =     0.00032223    0.00111323   -0.00000908
     atom   12 type  2   force =    -0.00010498   -0.00111110   -0.00026826
     atom   13 type  2   force =     0.00032223   -0.00111323    0.00000908
     atom   14 type  2   force =    -0.00010498    0.00111110    0.00026826
     atom   15 type  2   force =    -0.00032223    0.00111323    0.00000908
     atom   16 type  2   force =     0.00010498   -0.00111110    0.00026826
     atom   17 type  2   force =    -0.00100740   -0.00037315   -0.00040359
     atom   18 type  2   force =     0.00040759   -0.00039232    0.00030197
     atom   19 type  2   force =     0.00100740    0.00037315   -0.00040359
     atom   20 type  2   force =    -0.00040759    0.00039232    0.00030197
     atom   21 type  2   force =     0.00100740   -0.00037315    0.00040359
     atom   22 type  2   force =    -0.00040759   -0.00039232   -0.00030197
     atom   23 type  2   force =    -0.00100740    0.00037315    0.00040359
     atom   24 type  2   force =     0.00040759    0.00039232   -0.00030197
     atom   25 type  2   force =    -0.00041581   -0.00056105    0.00025780
     atom   26 type  2   force =     0.00050843    0.00051920   -0.00095801
     atom   27 type  2   force =     0.00041581    0.00056105    0.00025780
     atom   28 type  2   force =    -0.00050843   -0.00051920   -0.00095801
     atom   29 type  2   force =     0.00041581   -0.00056105   -0.00025780
     atom   30 type  2   force =    -0.00050843    0.00051920    0.00095801
     atom   31 type  2   force =    -0.00041581    0.00056105   -0.00025780
     atom   32 type  2   force =     0.00050843   -0.00051920    0.00095801

     Total force =     0.000000     Total SCF correction =     0.000000

     Computing stress (Cartesian axis) and pressure

          total   stress  (Ry/bohr**3)                   (kbar)     P=    0.09
   0.00000095   0.00000000   0.00000000          0.14      0.00      0.00
   0.00000000  -0.00000012   0.00000000          0.00     -0.02      0.00
   0.00000000   0.00000000   0.00000097          0.00      0.00      0.14

     Writing output data file Landau_4.save

     General routines

     Parallel routines

   This run was terminated on:   3:42:48  23Mar2020

   JOB DONE.