     Program PWSCF v.6.2 (svn rev. 14038) starts on 11Mar2020 at 12: 4:29

     K-points division:     npool     =      40
     Reading input from rscf.in

     Current dimensions of program PWSCF are:
     Max number of different atomic species (ntypx) = 10
     Max number of k-points (npk) =  40000
     Max angular momentum in pseudopotentials (lmaxx) =  3

     Subspace diagonalization in iterative solution of the eigenvalue problem:
     a serial algorithm will be used

     bravais-lattice index     =            0
     lattice parameter (alat)  =      13.8397  a.u.
     unit-cell volume          =    2804.9816 (a.u.)^3
     number of atoms/cell      =           32
     number of atomic types    =            2
     number of electrons       =       368.00
     number of Kohn-Sham states=          221
     kinetic-energy cutoff     =     120.0000  Ry
     charge density cutoff     =     480.0000  Ry
     convergence threshold     =      1.0E-08
     mixing beta               =       0.7000
     number of iterations used =            8  plain     mixing
     Exchange-correlation      = SLA PW NOGX NOGC ( 1  4  0  0 0 0)
     nstep                     =           50

     celldm(1)=  13.839685  celldm(2)=   0.000000  celldm(3)=   0.000000
     celldm(4)=   0.000000  celldm(5)=   0.000000  celldm(6)=   0.000000

     crystal axes: (cart. coord. in units of alat)
               a(1) = (   1.000000   0.000000   0.000000 )
               a(2) = (   0.000000   1.058160   0.000000 )
               a(3) = (   0.000000   0.000000   1.000000 )

     reciprocal axes: (cart. coord. in units 2 pi/alat)
               b(1) = (  1.000000  0.000000  0.000000 )
               b(2) = (  0.000000  0.945037  0.000000 )
               b(3) = (  0.000000  0.000000  1.000000 )

     PseudoPot. # 1 for W  read from file:
     /cluster/scratch/mnoe/QE/pps/W_ONCV_LDA-4.0.upf
     MD5 check sum: ba0307d5d4cd419d6f1d13dc49d7c13a
     Pseudo is Norm-conserving + core correction, Zval = 28.0
     Generated using ONCVPSP code by D. R. Hamann
     Using radial grid of 1380 points,  8 beta functions with:
                l(1) =   0
                l(2) =   0
                l(3) =   1
                l(4) =   1
                l(5) =   2
                l(6) =   2
                l(7) =   3
                l(8) =   3

     PseudoPot. # 2 for O  read from file:
     /cluster/scratch/mnoe/QE/pps/O_ONCV_LDA-3.0.upf
     MD5 check sum: a1bd6164e7280c17a38c229939bfbd54
     Pseudo is Norm-conserving + core correction, Zval =  6.0
     Generated using ONCVPSP code by D. R. Hamann
     Using radial grid of  926 points,  5 beta functions with:
                l(1) =   0
                l(2) =   0
                l(3) =   1
                l(4) =   1
                l(5) =   2

     atomic species   valence    mass     pseudopotential
        W             28.00   183.84000     W ( 1.00)
        O              6.00    15.99940     O ( 1.00)

      8 Sym. Ops., with inversion, found ( 6 have fractional translation)

   Cartesian axes

     site n.     atom                  positions (alat units)
         1           W   tau(   1) = (   0.2426000   0.2957376   0.0069900  )
         2           W   tau(   2) = (   0.7574000   0.7624225   0.9930100  )
         3           W   tau(   3) = (   0.2574000   0.2333424   0.5069900  )
         4           W   tau(   4) = (   0.7426000   0.8248176   0.4930100  )
         5           W   tau(   5) = (   0.7574000   0.2957376   0.4930100  )
         6           W   tau(   6) = (   0.2426000   0.7624225   0.5069900  )
         7           W   tau(   7) = (   0.7426000   0.2333424   0.9930100  )
         8           W   tau(   8) = (   0.2574000   0.8248176   0.0069900  )
         9           O   tau(   9) = (   0.2363500   0.0081186   0.0021700  )
        10           O   tau(  10) = (   0.7636500   1.0500415   0.9978300  )
        11           O   tau(  11) = (   0.2636500   0.5209614   0.5021700  )
        12           O   tau(  12) = (   0.7363500   0.5371987   0.4978300  )
        13           O   tau(  13) = (   0.7636500   0.0081186   0.4978300  )
        14           O   tau(  14) = (   0.2363500   1.0500415   0.5021700  )
        15           O   tau(  15) = (   0.7363500   0.5209614   0.9978300  )
        16           O   tau(  16) = (   0.2636500   0.5371987   0.0021700  )
        17           O   tau(  17) = (   0.5020200   0.2497258   0.4553526  )
        18           O   tau(  18) = (   0.4979800   0.8084343   0.5446474  )
        19           O   tau(  19) = (   0.9979800   0.2793542   0.9553526  )
        20           O   tau(  20) = (   0.0020200   0.7788058   0.0446474  )
        21           O   tau(  21) = (   0.4979800   0.2497258   0.0446474  )
        22           O   tau(  22) = (   0.5020200   0.8084343   0.9553526  )
        23           O   tau(  23) = (   0.0020200   0.2793542   0.5446474  )
        24           O   tau(  24) = (   0.9979800   0.7788058   0.4553526  )
        25           O   tau(  25) = (   0.7053526   0.2613020   0.7469300  )
        26           O   tau(  26) = (   0.2946474   0.7968580   0.2530700  )
        27           O   tau(  27) = (   0.7946474   0.2677780   0.2469300  )
        28           O   tau(  28) = (   0.2053526   0.7903821   0.7530700  )
        29           O   tau(  29) = (   0.2946474   0.2613020   0.7530700  )
        30           O   tau(  30) = (   0.7053526   0.7968580   0.2469300  )
        31           O   tau(  31) = (   0.2053526   0.2677780   0.2530700  )
        32           O   tau(  32) = (   0.7946474   0.7903821   0.7469300  )

     number of k points=    64  gaussian smearing, width (Ry)=  0.0007
                       cart. coord. in units 2pi/alat
        k(    1) = (   0.0000000   0.0000000   0.0000000), wk =   0.0092593
        k(    2) = (   0.0000000   0.0000000   0.1666667), wk =   0.0185185
        k(    3) = (   0.0000000   0.0000000   0.3333333), wk =   0.0185185
        k(    4) = (   0.0000000   0.0000000  -0.5000000), wk =   0.0092593
        k(    5) = (   0.0000000   0.1575061   0.0000000), wk =   0.0185185
        k(    6) = (   0.0000000   0.1575061   0.1666667), wk =   0.0370370
        k(    7) = (   0.0000000   0.1575061   0.3333333), wk =   0.0370370
        k(    8) = (   0.0000000   0.1575061  -0.5000000), wk =   0.0185185
        k(    9) = (   0.0000000   0.3150122   0.0000000), wk =   0.0185185
        k(   10) = (   0.0000000   0.3150122   0.1666667), wk =   0.0370370
        k(   11) = (   0.0000000   0.3150122   0.3333333), wk =   0.0370370
        k(   12) = (   0.0000000   0.3150122  -0.5000000), wk =   0.0185185
        k(   13) = (   0.0000000  -0.4725183   0.0000000), wk =   0.0092593
        k(   14) = (   0.0000000  -0.4725183   0.1666667), wk =   0.0185185
        k(   15) = (   0.0000000  -0.4725183   0.3333333), wk =   0.0185185
        k(   16) = (   0.0000000  -0.4725183  -0.5000000), wk =   0.0092593
        k(   17) = (   0.1666667   0.0000000   0.1666667), wk =   0.0370370
        k(   18) = (   0.1666667   0.0000000   0.3333333), wk =   0.0370370
        k(   19) = (   0.1666667   0.0000000  -0.5000000), wk =   0.0185185
        k(   20) = (   0.1666667   0.1575061   0.1666667), wk =   0.0740741
        k(   21) = (   0.1666667   0.1575061   0.3333333), wk =   0.0740741
        k(   22) = (   0.1666667   0.1575061  -0.5000000), wk =   0.0370370
        k(   23) = (   0.1666667   0.3150122   0.1666667), wk =   0.0740741
        k(   24) = (   0.1666667   0.3150122   0.3333333), wk =   0.0740741
        k(   25) = (   0.1666667   0.3150122  -0.5000000), wk =   0.0370370
        k(   26) = (   0.1666667  -0.4725183   0.1666667), wk =   0.0370370
        k(   27) = (   0.1666667  -0.4725183   0.3333333), wk =   0.0370370
        k(   28) = (   0.1666667  -0.4725183  -0.5000000), wk =   0.0185185
        k(   29) = (   0.3333333   0.0000000   0.3333333), wk =   0.0370370
        k(   30) = (   0.3333333   0.0000000  -0.5000000), wk =   0.0185185
        k(   31) = (   0.3333333   0.1575061   0.3333333), wk =   0.0740741
        k(   32) = (   0.3333333   0.1575061  -0.5000000), wk =   0.0370370
        k(   33) = (   0.3333333   0.3150122   0.3333333), wk =   0.0740741
        k(   34) = (   0.3333333   0.3150122  -0.5000000), wk =   0.0370370
        k(   35) = (   0.3333333  -0.4725183   0.3333333), wk =   0.0370370
        k(   36) = (   0.3333333  -0.4725183  -0.5000000), wk =   0.0185185
        k(   37) = (  -0.5000000   0.0000000  -0.5000000), wk =   0.0092593
        k(   38) = (  -0.5000000   0.1575061  -0.5000000), wk =   0.0185185
        k(   39) = (  -0.5000000   0.3150122  -0.5000000), wk =   0.0185185
        k(   40) = (  -0.5000000  -0.4725183  -0.5000000), wk =   0.0092593
        k(   41) = (   0.1666667   0.0000000   0.0000000), wk =   0.0185185
        k(   42) = (   0.3333333   0.0000000   0.0000000), wk =   0.0185185
        k(   43) = (  -0.5000000   0.0000000   0.0000000), wk =   0.0092593
        k(   44) = (   0.1666667  -0.1575061   0.0000000), wk =   0.0370370
        k(   45) = (   0.3333333  -0.1575061   0.0000000), wk =   0.0370370
        k(   46) = (  -0.5000000  -0.1575061   0.0000000), wk =   0.0185185
        k(   47) = (   0.1666667  -0.3150122   0.0000000), wk =   0.0370370
        k(   48) = (   0.3333333  -0.3150122   0.0000000), wk =   0.0370370
        k(   49) = (  -0.5000000  -0.3150122   0.0000000), wk =   0.0185185
        k(   50) = (   0.1666667   0.4725183   0.0000000), wk =   0.0185185
        k(   51) = (   0.3333333   0.4725183   0.0000000), wk =   0.0185185
        k(   52) = (  -0.5000000   0.4725183   0.0000000), wk =   0.0092593
        k(   53) = (   0.3333333   0.0000000   0.1666667), wk =   0.0370370
        k(   54) = (  -0.5000000   0.0000000   0.1666667), wk =   0.0185185
        k(   55) = (   0.3333333  -0.1575061   0.1666667), wk =   0.0740741
        k(   56) = (  -0.5000000  -0.1575061   0.1666667), wk =   0.0370370
        k(   57) = (   0.3333333  -0.3150122   0.1666667), wk =   0.0740741
        k(   58) = (  -0.5000000  -0.3150122   0.1666667), wk =   0.0370370
        k(   59) = (   0.3333333   0.4725183   0.1666667), wk =   0.0370370
        k(   60) = (  -0.5000000   0.4725183   0.1666667), wk =   0.0185185
        k(   61) = (  -0.5000000   0.0000000   0.3333333), wk =   0.0185185
        k(   62) = (  -0.5000000  -0.1575061   0.3333333), wk =   0.0370370
        k(   63) = (  -0.5000000  -0.3150122   0.3333333), wk =   0.0370370
        k(   64) = (  -0.5000000   0.4725183   0.3333333), wk =   0.0185185

     Initial potential from superposition of free atoms

     starting charge  367.99656, renormalised to  368.00000
     Starting wfc are  232 randomized atomic wfcs

     Self-consistent Calculation

     iteration #  1     ecut=   120.00 Ry     beta= 0.70
     Davidson diagonalization with overlap
     ethr =  1.00E-02,  avg # of iterations =  5.0

     total energy              =   -6254.01405716 Ry
     Harris-Foulkes estimate   =   -6264.58079370 Ry
     estimated scf accuracy    <      13.38737207 Ry

[...]

     End of self-consistent calculation

[...]

     bravais-lattice index     =            0
     lattice parameter (alat)  =      13.8397  a.u.
     unit-cell volume          =    2818.0550 (a.u.)^3
     number of atoms/cell      =           32
     number of atomic types    =            2
     number of electrons       =       368.00
     number of Kohn-Sham states=          221
     kinetic-energy cutoff     =     120.0000  Ry
     charge density cutoff     =     480.0000  Ry
     convergence threshold     =      1.0E-10
     mixing beta               =       0.7000
     number of iterations used =            8  plain     mixing
     Exchange-correlation      = SLA PW NOGX NOGC ( 1  4  0  0 0 0)

     celldm(1)=  13.839685  celldm(2)=   0.000000  celldm(3)=   0.000000
     celldm(4)=   0.000000  celldm(5)=   0.000000  celldm(6)=   0.000000

     crystal axes: (cart. coord. in units of alat)
               a(1) = (   1.005163   0.000000   0.000000 )
               a(2) = (   0.000000   1.050947   0.000000 )
               a(3) = (   0.000000   0.000000   1.006361 )

     reciprocal axes: (cart. coord. in units 2 pi/alat)
               b(1) = (  0.994864  0.000000  0.000000 )
               b(2) = (  0.000000  0.951523  0.000000 )
               b(3) = (  0.000000  0.000000  0.993680 )

     PseudoPot. # 1 for W  read from file:
     /cluster/scratch/mnoe/QE/pps/W_ONCV_LDA-4.0.upf
     MD5 check sum: ba0307d5d4cd419d6f1d13dc49d7c13a
     Pseudo is Norm-conserving + core correction, Zval = 28.0
     Generated using ONCVPSP code by D. R. Hamann
     Using radial grid of 1380 points,  8 beta functions with:
                l(1) =   0
                l(2) =   0
                l(3) =   1
                l(4) =   1
                l(5) =   2
                l(6) =   2
                l(7) =   3
                l(8) =   3

     PseudoPot. # 2 for O  read from file:
     /cluster/scratch/mnoe/QE/pps/O_ONCV_LDA-3.0.upf
     MD5 check sum: a1bd6164e7280c17a38c229939bfbd54
     Pseudo is Norm-conserving + core correction, Zval =  6.0
     Generated using ONCVPSP code by D. R. Hamann
     Using radial grid of  926 points,  5 beta functions with:
                l(1) =   0
                l(2) =   0
                l(3) =   1
                l(4) =   1
                l(5) =   2

     atomic species   valence    mass     pseudopotential
        W             28.00   183.84000     W ( 1.00)
        O              6.00    15.99940     O ( 1.00)

      8 Sym. Ops., with inversion, found ( 6 have fractional translation)

   Cartesian axes

     site n.     atom                  positions (alat units)
         1           W   tau(   1) = (   0.2438525   0.2937217   0.0070345  )
         2           W   tau(   2) = (   0.7613102   0.7572255   0.9993260  )
         3           W   tau(   3) = (   0.2587289   0.2317519   0.5102147  )
         4           W   tau(   4) = (   0.7464337   0.8191953   0.4961458  )
         5           W   tau(   5) = (   0.7613102   0.2937217   0.4961458  )
         6           W   tau(   6) = (   0.2438525   0.7572255   0.5102147  )
         7           W   tau(   7) = (   0.7464337   0.2317519   0.9993260  )
         8           W   tau(   8) = (   0.2587289   0.8191953   0.0070345  )
         9           O   tau(   9) = (   0.2375702   0.0080633   0.0021838  )
        10           O   tau(  10) = (   0.7675924   1.0428839   1.0041767  )
        11           O   tau(  11) = (   0.2650111   0.5174103   0.5053641  )
        12           O   tau(  12) = (   0.7401515   0.5335369   0.5009965  )
        13           O   tau(  13) = (   0.7675924   0.0080633   0.5009965  )
        14           O   tau(  14) = (   0.2375702   1.0428839   0.5053641  )
        15           O   tau(  15) = (   0.7401515   0.5174103   1.0041767  )
        16           O   tau(  16) = (   0.2650111   0.5335369   0.0021838  )
        17           O   tau(  17) = (   0.5046117   0.2480235   0.4582489  )
        18           O   tau(  18) = (   0.5005509   0.8029237   0.5481116  )
        19           O   tau(  19) = (   1.0031322   0.2774500   0.9614291  )
        20           O   tau(  20) = (   0.0020304   0.7734972   0.0449314  )
        21           O   tau(  21) = (   0.5005509   0.2480235   0.0449314  )
        22           O   tau(  22) = (   0.5046117   0.8029237   0.9614291  )
        23           O   tau(  23) = (   0.0020304   0.2774500   0.5481116  )
        24           O   tau(  24) = (   1.0031322   0.7734972   0.4582489  )
        25           O   tau(  25) = (   0.7089941   0.2595209   0.7516808  )
        26           O   tau(  26) = (   0.2961686   0.7914263   0.2546796  )
        27           O   tau(  27) = (   0.7987499   0.2659527   0.2485006  )
        28           O   tau(  28) = (   0.2064128   0.7849945   0.7578599  )
        29           O   tau(  29) = (   0.2961686   0.2595209   0.7578599  )
        30           O   tau(  30) = (   0.7089941   0.7914263   0.2485006  )
        31           O   tau(  31) = (   0.2064128   0.2659527   0.2546796  )
        32           O   tau(  32) = (   0.7987499   0.7849945   0.7516808  )

     number of k points=    64  gaussian smearing, width (Ry)=  0.0007
                       cart. coord. in units 2pi/alat
        k(    1) = (   0.0000000   0.0000000   0.0000000), wk =   0.0092593
        k(    2) = (   0.0000000   0.0000000   0.1656133), wk =   0.0185185
        k(    3) = (   0.0000000   0.0000000   0.3312266), wk =   0.0185185
        k(    4) = (   0.0000000   0.0000000  -0.4968398), wk =   0.0092593
        k(    5) = (   0.0000000   0.1585871   0.0000000), wk =   0.0185185
        k(    6) = (   0.0000000   0.1585871   0.1656133), wk =   0.0370370
        k(    7) = (   0.0000000   0.1585871   0.3312266), wk =   0.0370370
        k(    8) = (   0.0000000   0.1585871  -0.4968398), wk =   0.0185185
        k(    9) = (   0.0000000   0.3171742   0.0000000), wk =   0.0185185
        k(   10) = (   0.0000000   0.3171742   0.1656133), wk =   0.0370370
        k(   11) = (   0.0000000   0.3171742   0.3312266), wk =   0.0370370
        k(   12) = (   0.0000000   0.3171742  -0.4968398), wk =   0.0185185
        k(   13) = (   0.0000000  -0.4757613   0.0000000), wk =   0.0092593
        k(   14) = (   0.0000000  -0.4757613   0.1656133), wk =   0.0185185
        k(   15) = (   0.0000000  -0.4757613   0.3312266), wk =   0.0185185
        k(   16) = (   0.0000000  -0.4757613  -0.4968398), wk =   0.0092593
        k(   17) = (   0.1658106   0.0000000   0.1656133), wk =   0.0370370
        k(   18) = (   0.1658106   0.0000000   0.3312266), wk =   0.0370370
        k(   19) = (   0.1658106   0.0000000  -0.4968398), wk =   0.0185185
        k(   20) = (   0.1658106   0.1585871   0.1656133), wk =   0.0740741
        k(   21) = (   0.1658106   0.1585871   0.3312266), wk =   0.0740741
        k(   22) = (   0.1658106   0.1585871  -0.4968398), wk =   0.0370370
        k(   23) = (   0.1658106   0.3171742   0.1656133), wk =   0.0740741
        k(   24) = (   0.1658106   0.3171742   0.3312266), wk =   0.0740741
        k(   25) = (   0.1658106   0.3171742  -0.4968398), wk =   0.0370370
        k(   26) = (   0.1658106  -0.4757613   0.1656133), wk =   0.0370370
        k(   27) = (   0.1658106  -0.4757613   0.3312266), wk =   0.0370370
        k(   28) = (   0.1658106  -0.4757613  -0.4968398), wk =   0.0185185
        k(   29) = (   0.3316213   0.0000000   0.3312266), wk =   0.0370370
        k(   30) = (   0.3316213   0.0000000  -0.4968398), wk =   0.0185185
        k(   31) = (   0.3316213   0.1585871   0.3312266), wk =   0.0740741
        k(   32) = (   0.3316213   0.1585871  -0.4968398), wk =   0.0370370
        k(   33) = (   0.3316213   0.3171742   0.3312266), wk =   0.0740741
        k(   34) = (   0.3316213   0.3171742  -0.4968398), wk =   0.0370370
        k(   35) = (   0.3316213  -0.4757613   0.3312266), wk =   0.0370370
        k(   36) = (   0.3316213  -0.4757613  -0.4968398), wk =   0.0185185
        k(   37) = (  -0.4974319   0.0000000  -0.4968398), wk =   0.0092593
        k(   38) = (  -0.4974319   0.1585871  -0.4968398), wk =   0.0185185
        k(   39) = (  -0.4974319   0.3171742  -0.4968398), wk =   0.0185185
        k(   40) = (  -0.4974319  -0.4757613  -0.4968398), wk =   0.0092593
        k(   41) = (   0.1658106   0.0000000   0.0000000), wk =   0.0185185
        k(   42) = (   0.3316213   0.0000000   0.0000000), wk =   0.0185185
        k(   43) = (  -0.4974319   0.0000000   0.0000000), wk =   0.0092593
        k(   44) = (   0.1658106  -0.1585871   0.0000000), wk =   0.0370370
        k(   45) = (   0.3316213  -0.1585871   0.0000000), wk =   0.0370370
        k(   46) = (  -0.4974319  -0.1585871   0.0000000), wk =   0.0185185
        k(   47) = (   0.1658106  -0.3171742   0.0000000), wk =   0.0370370
        k(   48) = (   0.3316213  -0.3171742   0.0000000), wk =   0.0370370
        k(   49) = (  -0.4974319  -0.3171742   0.0000000), wk =   0.0185185
        k(   50) = (   0.1658106   0.4757613   0.0000000), wk =   0.0185185
        k(   51) = (   0.3316213   0.4757613   0.0000000), wk =   0.0185185
        k(   52) = (  -0.4974319   0.4757613   0.0000000), wk =   0.0092593
        k(   53) = (   0.3316213   0.0000000   0.1656133), wk =   0.0370370
        k(   54) = (  -0.4974319   0.0000000   0.1656133), wk =   0.0185185
        k(   55) = (   0.3316213  -0.1585871   0.1656133), wk =   0.0740741
        k(   56) = (  -0.4974319  -0.1585871   0.1656133), wk =   0.0370370
        k(   57) = (   0.3316213  -0.3171742   0.1656133), wk =   0.0740741
        k(   58) = (  -0.4974319  -0.3171742   0.1656133), wk =   0.0370370
        k(   59) = (   0.3316213   0.4757613   0.1656133), wk =   0.0370370
        k(   60) = (  -0.4974319   0.4757613   0.1656133), wk =   0.0185185
        k(   61) = (  -0.4974319   0.0000000   0.3312266), wk =   0.0185185
        k(   62) = (  -0.4974319  -0.1585871   0.3312266), wk =   0.0370370
        k(   63) = (  -0.4974319  -0.3171742   0.3312266), wk =   0.0370370
        k(   64) = (  -0.4974319   0.4757613   0.3312266), wk =   0.0185185

     Initial potential from superposition of free atoms

     starting charge  367.99656, renormalised to  368.00000
     Starting wfc are  232 randomized atomic wfcs

     Writing output data file Landau_16.save

     Self-consistent Calculation

     iteration #  1     ecut=   120.00 Ry     beta= 0.70
     Davidson diagonalization with overlap
     c_bands:  1 eigenvalues not converged
     ethr =  1.00E-06,  avg # of iterations = 14.5

[...]

     total energy              =   -6261.11080139 Ry
     Harris-Foulkes estimate   =   -6261.11080139 Ry
     estimated scf accuracy    <          1.2E-10 Ry

     iteration # 15     ecut=   120.00 Ry     beta= 0.70
     Davidson diagonalization with overlap
     ethr =  1.00E-13,  avg # of iterations =  2.0

     End of self-consistent calculation

[...]

          k = 0.3316 0.4758 0.1656 ( 62550 PWs)   bands (ev):

[...]

          k =-0.4974 0.4758 0.3312 ( 62540 PWs)   bands (ev):

   -66.2554 -66.2554 -66.2554 -66.2554 -66.2550 -66.2550 -66.2550 -66.2550
   -30.6104 -30.6104 -30.6098 -30.6098 -30.6074 -30.6074 -30.6067 -30.6067
   -30.5753 -30.5753 -30.5752 -30.5752 -30.5498 -30.5498 -30.5492 -30.5492
   -30.5480 -30.5480 -30.5472 -30.5472 -30.5272 -30.5272 -30.5271 -30.5271
   -20.4189 -20.4189 -20.4189 -20.4189 -20.4188 -20.4188 -20.4188 -20.4188
   -20.3968 -20.3968 -20.3968 -20.3968 -20.3964 -20.3964 -20.3963 -20.3963
   -20.3941 -20.3941 -20.3940 -20.3940 -20.3938 -20.3938 -20.3938 -20.3938
   -20.3933 -20.3933 -20.3933 -20.3933 -20.3931 -20.3931 -20.3931 -20.3931
   -20.3842 -20.3842 -20.3842 -20.3842 -20.3829 -20.3828 -20.3828 -20.3828
   -20.3823 -20.3823 -20.3823 -20.3823 -20.3805 -20.3805 -20.3805 -20.3805
   -20.3779 -20.3779 -20.3779 -20.3779 -20.3768 -20.3768 -20.3768 -20.3768
    -9.2557  -9.2557  -9.2493  -9.2493  -8.8641  -8.8641  -8.8474  -8.8474
    -8.6255  -8.6255  -8.6099  -8.6099  -8.4717  -8.4716  -8.4510  -8.4510
    -8.4238  -8.4238  -8.4070  -8.4070  -8.1857  -8.1857  -8.1849  -8.1849
     2.1742   2.1742   2.1832   2.1832   2.9062   2.9063   2.9538   2.9538
     3.0449   3.0449   3.0525   3.0525   3.1686   3.1686   3.1800   3.1800
     3.3359   3.3359   3.3754   3.3754   3.5404   3.5404   3.5886   3.5886
     3.6982   3.6982   3.8099   3.8099   4.1634   4.1634   4.1834   4.1834
     4.2299   4.2299   4.2982   4.2982   4.3828   4.3828   4.4733   4.4733
     4.5887   4.5887   4.7217   4.7217   4.9677   4.9677   4.9912   4.9912
     6.9298   6.9298   7.0099   7.0099   7.0925   7.0925   7.1031   7.1031
     7.1993   7.1993   7.2464   7.2464   7.3133   7.3134   7.3297   7.3297
     7.4082   7.4082   7.4868   7.4868   7.5303   7.5303   7.5727   7.5727
    11.3683  11.3683  11.4048  11.4048  11.6142  11.6142  11.6977  11.6977
    12.0974  12.0974  12.1547  12.1547  12.1860  12.1860  12.2559  12.2559
    12.3944  12.3944  12.5182  12.5182  12.8268  12.8268  12.9070  12.9070
    16.4175  16.4175  16.4636  16.4636  16.9817  16.9818  17.0341  17.0341
    17.2691  17.2691  17.3554  17.3559  17.3972

     the Fermi energy is     8.9086 ev

!    total energy              =   -6261.11080139 Ry
     Harris-Foulkes estimate   =   -6261.11080139 Ry
     estimated scf accuracy    <          8.5E-12 Ry

     The total energy is the sum of the following terms:

     one-electron contribution =   -4739.23910745 Ry
     hartree contribution      =    2605.26082634 Ry
     xc contribution           =    -965.66791245 Ry
     ewald contribution        =   -3161.46460783 Ry
     smearing contrib. (-TS)   =      -0.00000000 Ry

     convergence has been achieved in  15 iterations

     Forces acting on atoms (cartesian axes, Ry/au):

     atom    1 type  1   force =    -0.00321765    0.00409040    0.00241569
     atom    2 type  1   force =     0.00321765   -0.00409040   -0.00241569
     atom    3 type  1   force =     0.00321765   -0.00409040    0.00241569
     atom    4 type  1   force =    -0.00321765    0.00409040   -0.00241569
     atom    5 type  1   force =     0.00321765    0.00409040   -0.00241569
     atom    6 type  1   force =    -0.00321765   -0.00409040    0.00241569
     atom    7 type  1   force =    -0.00321765   -0.00409040   -0.00241569
     atom    8 type  1   force =     0.00321765    0.00409040    0.00241569
     atom    9 type  2   force =    -0.00030248   -0.00190495    0.00008166
     atom   10 type  2   force =     0.00030248    0.00190495   -0.00008166
     atom   11 type  2   force =     0.00030248    0.00190495    0.00008166
     atom   12 type  2   force =    -0.00030248   -0.00190495   -0.00008166
     atom   13 type  2   force =     0.00030248   -0.00190495   -0.00008166
     atom   14 type  2   force =    -0.00030248    0.00190495    0.00008166
     atom   15 type  2   force =    -0.00030248    0.00190495   -0.00008166
     atom   16 type  2   force =     0.00030248   -0.00190495    0.00008166
     atom   17 type  2   force =    -0.00163329   -0.00012459   -0.00019502
     atom   18 type  2   force =     0.00163329    0.00012459    0.00019502
     atom   19 type  2   force =     0.00163329    0.00012459   -0.00019502
     atom   20 type  2   force =    -0.00163329   -0.00012459    0.00019502
     atom   21 type  2   force =     0.00163329   -0.00012459    0.00019502
     atom   22 type  2   force =    -0.00163329    0.00012459   -0.00019502
     atom   23 type  2   force =    -0.00163329    0.00012459    0.00019502
     atom   24 type  2   force =     0.00163329   -0.00012459   -0.00019502
     atom   25 type  2   force =    -0.00098506   -0.00059455    0.00162178
     atom   26 type  2   force =     0.00098506    0.00059455   -0.00162178
     atom   27 type  2   force =     0.00098506    0.00059455    0.00162178
     atom   28 type  2   force =    -0.00098506   -0.00059455   -0.00162178
     atom   29 type  2   force =     0.00098506   -0.00059455   -0.00162178
     atom   30 type  2   force =    -0.00098506    0.00059455    0.00162178
     atom   31 type  2   force =    -0.00098506    0.00059455   -0.00162178
     atom   32 type  2   force =     0.00098506   -0.00059455    0.00162178

     Total force =     0.000000     Total SCF correction =     0.000000

     Computing stress (Cartesian axis) and pressure

          total   stress  (Ry/bohr**3)                   (kbar)     P=    0.17
   0.00000177   0.00000000   0.00000000          0.26      0.00      0.00
   0.00000000  -0.00000043   0.00000000          0.00     -0.06      0.00
   0.00000000   0.00000000   0.00000208          0.00      0.00      0.31

     Writing output data file Landau_16.save

     General routines

     Parallel routines

   This run was terminated on:  16: 0:57  11Mar2020

   JOB DONE.