     Program PWSCF v.6.2 (svn rev. 14038) starts on 11Mar2020 at 11:57:34

     K-points division:     npool     =      40
     Reading input from rscf.in

     Current dimensions of program PWSCF are:
     Max number of different atomic species (ntypx) = 10
     Max number of k-points (npk) =  40000
     Max angular momentum in pseudopotentials (lmaxx) =  3

     Subspace diagonalization in iterative solution of the eigenvalue problem:
     a serial algorithm will be used

     bravais-lattice index     =            0
     lattice parameter (alat)  =      13.8397  a.u.
     unit-cell volume          =    2804.9816 (a.u.)^3
     number of atoms/cell      =           32
     number of atomic types    =            2
     number of electrons       =       368.00
     number of Kohn-Sham states=          221
     kinetic-energy cutoff     =     120.0000  Ry
     charge density cutoff     =     480.0000  Ry
     convergence threshold     =      1.0E-08
     mixing beta               =       0.7000
     number of iterations used =            8  plain     mixing
     Exchange-correlation      = SLA PW NOGX NOGC ( 1  4  0  0 0 0)
     nstep                     =           50

     celldm(1)=  13.839685  celldm(2)=   0.000000  celldm(3)=   0.000000
     celldm(4)=   0.000000  celldm(5)=   0.000000  celldm(6)=   0.000000

     crystal axes: (cart. coord. in units of alat)
               a(1) = (   1.000000   0.000000   0.000000 )
               a(2) = (   0.000000   1.058160   0.000000 )
               a(3) = (   0.000000   0.000000   1.000000 )

     reciprocal axes: (cart. coord. in units 2 pi/alat)
               b(1) = (  1.000000  0.000000  0.000000 )
               b(2) = (  0.000000  0.945037  0.000000 )
               b(3) = (  0.000000  0.000000  1.000000 )

     PseudoPot. # 1 for W  read from file:
     /cluster/scratch/mnoe/QE/pps/W_ONCV_LDA-4.0.upf
     MD5 check sum: ba0307d5d4cd419d6f1d13dc49d7c13a
     Pseudo is Norm-conserving + core correction, Zval = 28.0
     Generated using ONCVPSP code by D. R. Hamann
     Using radial grid of 1380 points,  8 beta functions with:
                l(1) =   0
                l(2) =   0
                l(3) =   1
                l(4) =   1
                l(5) =   2
                l(6) =   2
                l(7) =   3
                l(8) =   3

     PseudoPot. # 2 for O  read from file:
     /cluster/scratch/mnoe/QE/pps/O_ONCV_LDA-3.0.upf
     MD5 check sum: a1bd6164e7280c17a38c229939bfbd54
     Pseudo is Norm-conserving + core correction, Zval =  6.0
     Generated using ONCVPSP code by D. R. Hamann
     Using radial grid of  926 points,  5 beta functions with:
                l(1) =   0
                l(2) =   0
                l(3) =   1
                l(4) =   1
                l(5) =   2

     atomic species   valence    mass     pseudopotential
        W             28.00   183.84000     W ( 1.00)
        O              6.00    15.99940     O ( 1.00)

      8 Sym. Ops., with inversion, found ( 6 have fractional translation)

   Cartesian axes

     site n.     atom                  positions (alat units)
         1           W   tau(   1) = (   0.2435300   0.2960520   0.0061200  )
         2           W   tau(   2) = (   0.7564700   0.7621080   0.9938800  )
         3           W   tau(   3) = (   0.2564700   0.2330280   0.5061200  )
         4           W   tau(   4) = (   0.7435300   0.8251321   0.4938800  )
         5           W   tau(   5) = (   0.7564700   0.2960520   0.4938800  )
         6           W   tau(   6) = (   0.2435300   0.7621080   0.5061200  )
         7           W   tau(   7) = (   0.7435300   0.2330280   0.9938800  )
         8           W   tau(   8) = (   0.2564700   0.8251321   0.0061200  )
         9           O   tau(   9) = (   0.2380600   0.0082043   0.0019000  )
        10           O   tau(  10) = (   0.7619400   1.0499558   0.9981000  )
        11           O   tau(  11) = (   0.2619400   0.5208758   0.5019000  )
        12           O   tau(  12) = (   0.7380600   0.5372843   0.4981000  )
        13           O   tau(  13) = (   0.7619400   0.0082043   0.4981000  )
        14           O   tau(  14) = (   0.2380600   1.0499558   0.5019000  )
        15           O   tau(  15) = (   0.7380600   0.5208758   0.9981000  )
        16           O   tau(  16) = (   0.2619400   0.5372843   0.0019000  )
        17           O   tau(  17) = (   0.5017700   0.2515776   0.4546260  )
        18           O   tau(  18) = (   0.4982300   0.8065826   0.5453740  )
        19           O   tau(  19) = (   0.9982300   0.2775025   0.9546260  )
        20           O   tau(  20) = (   0.0017700   0.7806576   0.0453740  )
        21           O   tau(  21) = (   0.4982300   0.2515776   0.0453740  )
        22           O   tau(  22) = (   0.5017700   0.8065826   0.9546260  )
        23           O   tau(  23) = (   0.0017700   0.2775025   0.5453740  )
        24           O   tau(  24) = (   0.9982300   0.7806576   0.4546260  )
        25           O   tau(  25) = (   0.7046260   0.2617042   0.7473200  )
        26           O   tau(  26) = (   0.2953740   0.7964560   0.2526800  )
        27           O   tau(  27) = (   0.7953740   0.2673759   0.2473199  )
        28           O   tau(  28) = (   0.2046260   0.7907842   0.7526800  )
        29           O   tau(  29) = (   0.2953740   0.2617042   0.7526800  )
        30           O   tau(  30) = (   0.7046260   0.7964560   0.2473199  )
        31           O   tau(  31) = (   0.2046260   0.2673759   0.2526800  )
        32           O   tau(  32) = (   0.7953740   0.7907842   0.7473200  )

     number of k points=    64  gaussian smearing, width (Ry)=  0.0007
                       cart. coord. in units 2pi/alat
        k(    1) = (   0.0000000   0.0000000   0.0000000), wk =   0.0092593
        k(    2) = (   0.0000000   0.0000000   0.1666667), wk =   0.0185185
        k(    3) = (   0.0000000   0.0000000   0.3333333), wk =   0.0185185
        k(    4) = (   0.0000000   0.0000000  -0.5000000), wk =   0.0092593
        k(    5) = (   0.0000000   0.1575061   0.0000000), wk =   0.0185185
        k(    6) = (   0.0000000   0.1575061   0.1666667), wk =   0.0370370
        k(    7) = (   0.0000000   0.1575061   0.3333333), wk =   0.0370370
        k(    8) = (   0.0000000   0.1575061  -0.5000000), wk =   0.0185185
        k(    9) = (   0.0000000   0.3150122   0.0000000), wk =   0.0185185
        k(   10) = (   0.0000000   0.3150122   0.1666667), wk =   0.0370370
        k(   11) = (   0.0000000   0.3150122   0.3333333), wk =   0.0370370
        k(   12) = (   0.0000000   0.3150122  -0.5000000), wk =   0.0185185
        k(   13) = (   0.0000000  -0.4725183   0.0000000), wk =   0.0092593
        k(   14) = (   0.0000000  -0.4725183   0.1666667), wk =   0.0185185
        k(   15) = (   0.0000000  -0.4725183   0.3333333), wk =   0.0185185
        k(   16) = (   0.0000000  -0.4725183  -0.5000000), wk =   0.0092593
        k(   17) = (   0.1666667   0.0000000   0.1666667), wk =   0.0370370
        k(   18) = (   0.1666667   0.0000000   0.3333333), wk =   0.0370370
        k(   19) = (   0.1666667   0.0000000  -0.5000000), wk =   0.0185185
        k(   20) = (   0.1666667   0.1575061   0.1666667), wk =   0.0740741
        k(   21) = (   0.1666667   0.1575061   0.3333333), wk =   0.0740741
        k(   22) = (   0.1666667   0.1575061  -0.5000000), wk =   0.0370370
        k(   23) = (   0.1666667   0.3150122   0.1666667), wk =   0.0740741
        k(   24) = (   0.1666667   0.3150122   0.3333333), wk =   0.0740741
        k(   25) = (   0.1666667   0.3150122  -0.5000000), wk =   0.0370370
        k(   26) = (   0.1666667  -0.4725183   0.1666667), wk =   0.0370370
        k(   27) = (   0.1666667  -0.4725183   0.3333333), wk =   0.0370370
        k(   28) = (   0.1666667  -0.4725183  -0.5000000), wk =   0.0185185
        k(   29) = (   0.3333333   0.0000000   0.3333333), wk =   0.0370370
        k(   30) = (   0.3333333   0.0000000  -0.5000000), wk =   0.0185185
        k(   31) = (   0.3333333   0.1575061   0.3333333), wk =   0.0740741
        k(   32) = (   0.3333333   0.1575061  -0.5000000), wk =   0.0370370
        k(   33) = (   0.3333333   0.3150122   0.3333333), wk =   0.0740741
        k(   34) = (   0.3333333   0.3150122  -0.5000000), wk =   0.0370370
        k(   35) = (   0.3333333  -0.4725183   0.3333333), wk =   0.0370370
        k(   36) = (   0.3333333  -0.4725183  -0.5000000), wk =   0.0185185
        k(   37) = (  -0.5000000   0.0000000  -0.5000000), wk =   0.0092593
        k(   38) = (  -0.5000000   0.1575061  -0.5000000), wk =   0.0185185
        k(   39) = (  -0.5000000   0.3150122  -0.5000000), wk =   0.0185185
        k(   40) = (  -0.5000000  -0.4725183  -0.5000000), wk =   0.0092593
        k(   41) = (   0.1666667   0.0000000   0.0000000), wk =   0.0185185
        k(   42) = (   0.3333333   0.0000000   0.0000000), wk =   0.0185185
        k(   43) = (  -0.5000000   0.0000000   0.0000000), wk =   0.0092593
        k(   44) = (   0.1666667  -0.1575061   0.0000000), wk =   0.0370370
        k(   45) = (   0.3333333  -0.1575061   0.0000000), wk =   0.0370370
        k(   46) = (  -0.5000000  -0.1575061   0.0000000), wk =   0.0185185
        k(   47) = (   0.1666667  -0.3150122   0.0000000), wk =   0.0370370
        k(   48) = (   0.3333333  -0.3150122   0.0000000), wk =   0.0370370
        k(   49) = (  -0.5000000  -0.3150122   0.0000000), wk =   0.0185185
        k(   50) = (   0.1666667   0.4725183   0.0000000), wk =   0.0185185
        k(   51) = (   0.3333333   0.4725183   0.0000000), wk =   0.0185185
        k(   52) = (  -0.5000000   0.4725183   0.0000000), wk =   0.0092593
        k(   53) = (   0.3333333   0.0000000   0.1666667), wk =   0.0370370
        k(   54) = (  -0.5000000   0.0000000   0.1666667), wk =   0.0185185
        k(   55) = (   0.3333333  -0.1575061   0.1666667), wk =   0.0740741
        k(   56) = (  -0.5000000  -0.1575061   0.1666667), wk =   0.0370370
        k(   57) = (   0.3333333  -0.3150122   0.1666667), wk =   0.0740741
        k(   58) = (  -0.5000000  -0.3150122   0.1666667), wk =   0.0370370
        k(   59) = (   0.3333333   0.4725183   0.1666667), wk =   0.0370370
        k(   60) = (  -0.5000000   0.4725183   0.1666667), wk =   0.0185185
        k(   61) = (  -0.5000000   0.0000000   0.3333333), wk =   0.0185185
        k(   62) = (  -0.5000000  -0.1575061   0.3333333), wk =   0.0370370
        k(   63) = (  -0.5000000  -0.3150122   0.3333333), wk =   0.0370370
        k(   64) = (  -0.5000000   0.4725183   0.3333333), wk =   0.0185185

     Initial potential from superposition of free atoms

     starting charge  367.99656, renormalised to  368.00000
     Starting wfc are  232 randomized atomic wfcs

     Self-consistent Calculation

     iteration #  1     ecut=   120.00 Ry     beta= 0.70
     Davidson diagonalization with overlap
     ethr =  1.00E-02,  avg # of iterations =  5.0

     total energy              =   -6254.01173229 Ry
     Harris-Foulkes estimate   =   -6264.58310350 Ry
     estimated scf accuracy    <      13.39259482 Ry

[...]

     End of self-consistent calculation

[...]

     bravais-lattice index     =            0
     lattice parameter (alat)  =      13.8397  a.u.
     unit-cell volume          =    2817.2682 (a.u.)^3
     number of atoms/cell      =           32
     number of atomic types    =            2
     number of electrons       =       368.00
     number of Kohn-Sham states=          221
     kinetic-energy cutoff     =     120.0000  Ry
     charge density cutoff     =     480.0000  Ry
     convergence threshold     =      1.0E-10
     mixing beta               =       0.7000
     number of iterations used =            8  plain     mixing
     Exchange-correlation      = SLA PW NOGX NOGC ( 1  4  0  0 0 0)

     celldm(1)=  13.839685  celldm(2)=   0.000000  celldm(3)=   0.000000
     celldm(4)=   0.000000  celldm(5)=   0.000000  celldm(6)=   0.000000

     crystal axes: (cart. coord. in units of alat)
               a(1) = (   1.004568   0.000000   0.000000 )
               a(2) = (   0.000000   1.052173   0.000000 )
               a(3) = (   0.000000   0.000000   1.005502 )

     reciprocal axes: (cart. coord. in units 2 pi/alat)
               b(1) = (  0.995453  0.000000  0.000000 )
               b(2) = (  0.000000  0.950414  0.000000 )
               b(3) = (  0.000000  0.000000  0.994528 )

     PseudoPot. # 1 for W  read from file:
     /cluster/scratch/mnoe/QE/pps/W_ONCV_LDA-4.0.upf
     MD5 check sum: ba0307d5d4cd419d6f1d13dc49d7c13a
     Pseudo is Norm-conserving + core correction, Zval = 28.0
     Generated using ONCVPSP code by D. R. Hamann
     Using radial grid of 1380 points,  8 beta functions with:
                l(1) =   0
                l(2) =   0
                l(3) =   1
                l(4) =   1
                l(5) =   2
                l(6) =   2
                l(7) =   3
                l(8) =   3

     PseudoPot. # 2 for O  read from file:
     /cluster/scratch/mnoe/QE/pps/O_ONCV_LDA-3.0.upf
     MD5 check sum: a1bd6164e7280c17a38c229939bfbd54
     Pseudo is Norm-conserving + core correction, Zval =  6.0
     Generated using ONCVPSP code by D. R. Hamann
     Using radial grid of  926 points,  5 beta functions with:
                l(1) =   0
                l(2) =   0
                l(3) =   1
                l(4) =   1
                l(5) =   2

     atomic species   valence    mass     pseudopotential
        W             28.00   183.84000     W ( 1.00)
        O              6.00    15.99940     O ( 1.00)

      8 Sym. Ops., with inversion, found ( 6 have fractional translation)

   Cartesian axes

     site n.     atom                  positions (alat units)
         1           W   tau(   1) = (   0.2446425   0.2943770   0.0061537  )
         2           W   tau(   2) = (   0.7599257   0.7577961   0.9993482  )
         3           W   tau(   3) = (   0.2576416   0.2317096   0.5089047  )
         4           W   tau(   4) = (   0.7469267   0.8204635   0.4965973  )
         5           W   tau(   5) = (   0.7599257   0.2943770   0.4965973  )
         6           W   tau(   6) = (   0.2446425   0.7577961   0.5089047  )
         7           W   tau(   7) = (   0.7469267   0.2317096   0.9993482  )
         8           W   tau(   8) = (   0.2576416   0.8204635   0.0061537  )
         9           O   tau(   9) = (   0.2391475   0.0081579   0.0019105  )
        10           O   tau(  10) = (   0.7654208   1.0440153   1.0035914  )
        11           O   tau(  11) = (   0.2631366   0.5179287   0.5046614  )
        12           O   tau(  12) = (   0.7414316   0.5342444   0.5008405  )
        13           O   tau(  13) = (   0.7654208   0.0081579   0.5008405  )
        14           O   tau(  14) = (   0.2391475   1.0440153   0.5046614  )
        15           O   tau(  15) = (   0.7414316   0.5179287   1.0035914  )
        16           O   tau(  16) = (   0.2631366   0.5342444   0.0019105  )
        17           O   tau(  17) = (   0.5040622   0.2501542   0.4571273  )
        18           O   tau(  18) = (   0.5005060   0.8020190   0.5483746  )
        19           O   tau(  19) = (   1.0027902   0.2759324   0.9598783  )
        20           O   tau(  20) = (   0.0017781   0.7762407   0.0456236  )
        21           O   tau(  21) = (   0.5005060   0.2501542   0.0456236  )
        22           O   tau(  22) = (   0.5040622   0.8020190   0.9598783  )
        23           O   tau(  23) = (   0.0017781   0.2759324   0.5483746  )
        24           O   tau(  24) = (   1.0027902   0.7762407   0.4571273  )
        25           O   tau(  25) = (   0.7078449   0.2602235   0.7514317  )
        26           O   tau(  26) = (   0.2967233   0.7919497   0.2540702  )
        27           O   tau(  27) = (   0.7990075   0.2658631   0.2486807  )
        28           O   tau(  28) = (   0.2055608   0.7863100   0.7568212  )
        29           O   tau(  29) = (   0.2967233   0.2602235   0.7568212  )
        30           O   tau(  30) = (   0.7078449   0.7919497   0.2486807  )
        31           O   tau(  31) = (   0.2055608   0.2658631   0.2540702  )
        32           O   tau(  32) = (   0.7990075   0.7863100   0.7514317  )

     number of k points=    64  gaussian smearing, width (Ry)=  0.0007
                       cart. coord. in units 2pi/alat
        k(    1) = (   0.0000000   0.0000000   0.0000000), wk =   0.0092593
        k(    2) = (   0.0000000   0.0000000   0.1657547), wk =   0.0185185
        k(    3) = (   0.0000000   0.0000000   0.3315094), wk =   0.0185185
        k(    4) = (   0.0000000   0.0000000  -0.4972641), wk =   0.0092593
        k(    5) = (   0.0000000   0.1584023   0.0000000), wk =   0.0185185
        k(    6) = (   0.0000000   0.1584023   0.1657547), wk =   0.0370370
        k(    7) = (   0.0000000   0.1584023   0.3315094), wk =   0.0370370
        k(    8) = (   0.0000000   0.1584023  -0.4972641), wk =   0.0185185
        k(    9) = (   0.0000000   0.3168046   0.0000000), wk =   0.0185185
        k(   10) = (   0.0000000   0.3168046   0.1657547), wk =   0.0370370
        k(   11) = (   0.0000000   0.3168046   0.3315094), wk =   0.0370370
        k(   12) = (   0.0000000   0.3168046  -0.4972641), wk =   0.0185185
        k(   13) = (   0.0000000  -0.4752070   0.0000000), wk =   0.0092593
        k(   14) = (   0.0000000  -0.4752070   0.1657547), wk =   0.0185185
        k(   15) = (   0.0000000  -0.4752070   0.3315094), wk =   0.0185185
        k(   16) = (   0.0000000  -0.4752070  -0.4972641), wk =   0.0092593
        k(   17) = (   0.1659088   0.0000000   0.1657547), wk =   0.0370370
        k(   18) = (   0.1659088   0.0000000   0.3315094), wk =   0.0370370
        k(   19) = (   0.1659088   0.0000000  -0.4972641), wk =   0.0185185
        k(   20) = (   0.1659088   0.1584023   0.1657547), wk =   0.0740741
        k(   21) = (   0.1659088   0.1584023   0.3315094), wk =   0.0740741
        k(   22) = (   0.1659088   0.1584023  -0.4972641), wk =   0.0370370
        k(   23) = (   0.1659088   0.3168046   0.1657547), wk =   0.0740741
        k(   24) = (   0.1659088   0.3168046   0.3315094), wk =   0.0740741
        k(   25) = (   0.1659088   0.3168046  -0.4972641), wk =   0.0370370
        k(   26) = (   0.1659088  -0.4752070   0.1657547), wk =   0.0370370
        k(   27) = (   0.1659088  -0.4752070   0.3315094), wk =   0.0370370
        k(   28) = (   0.1659088  -0.4752070  -0.4972641), wk =   0.0185185
        k(   29) = (   0.3318175   0.0000000   0.3315094), wk =   0.0370370
        k(   30) = (   0.3318175   0.0000000  -0.4972641), wk =   0.0185185
        k(   31) = (   0.3318175   0.1584023   0.3315094), wk =   0.0740741
        k(   32) = (   0.3318175   0.1584023  -0.4972641), wk =   0.0370370
        k(   33) = (   0.3318175   0.3168046   0.3315094), wk =   0.0740741
        k(   34) = (   0.3318175   0.3168046  -0.4972641), wk =   0.0370370
        k(   35) = (   0.3318175  -0.4752070   0.3315094), wk =   0.0370370
        k(   36) = (   0.3318175  -0.4752070  -0.4972641), wk =   0.0185185
        k(   37) = (  -0.4977263   0.0000000  -0.4972641), wk =   0.0092593
        k(   38) = (  -0.4977263   0.1584023  -0.4972641), wk =   0.0185185
        k(   39) = (  -0.4977263   0.3168046  -0.4972641), wk =   0.0185185
        k(   40) = (  -0.4977263  -0.4752070  -0.4972641), wk =   0.0092593
        k(   41) = (   0.1659088   0.0000000   0.0000000), wk =   0.0185185
        k(   42) = (   0.3318175   0.0000000   0.0000000), wk =   0.0185185
        k(   43) = (  -0.4977263   0.0000000   0.0000000), wk =   0.0092593
        k(   44) = (   0.1659088  -0.1584023   0.0000000), wk =   0.0370370
        k(   45) = (   0.3318175  -0.1584023   0.0000000), wk =   0.0370370
        k(   46) = (  -0.4977263  -0.1584023   0.0000000), wk =   0.0185185
        k(   47) = (   0.1659088  -0.3168046   0.0000000), wk =   0.0370370
        k(   48) = (   0.3318175  -0.3168046   0.0000000), wk =   0.0370370
        k(   49) = (  -0.4977263  -0.3168046   0.0000000), wk =   0.0185185
        k(   50) = (   0.1659088   0.4752070   0.0000000), wk =   0.0185185
        k(   51) = (   0.3318175   0.4752070   0.0000000), wk =   0.0185185
        k(   52) = (  -0.4977263   0.4752070   0.0000000), wk =   0.0092593
        k(   53) = (   0.3318175   0.0000000   0.1657547), wk =   0.0370370
        k(   54) = (  -0.4977263   0.0000000   0.1657547), wk =   0.0185185
        k(   55) = (   0.3318175  -0.1584023   0.1657547), wk =   0.0740741
        k(   56) = (  -0.4977263  -0.1584023   0.1657547), wk =   0.0370370
        k(   57) = (   0.3318175  -0.3168046   0.1657547), wk =   0.0740741
        k(   58) = (  -0.4977263  -0.3168046   0.1657547), wk =   0.0370370
        k(   59) = (   0.3318175   0.4752070   0.1657547), wk =   0.0370370
        k(   60) = (  -0.4977263   0.4752070   0.1657547), wk =   0.0185185
        k(   61) = (  -0.4977263   0.0000000   0.3315094), wk =   0.0185185
        k(   62) = (  -0.4977263  -0.1584023   0.3315094), wk =   0.0370370
        k(   63) = (  -0.4977263  -0.3168046   0.3315094), wk =   0.0370370
        k(   64) = (  -0.4977263   0.4752070   0.3315094), wk =   0.0185185

     Initial potential from superposition of free atoms

     starting charge  367.99656, renormalised to  368.00000
     Starting wfc are  232 randomized atomic wfcs

     Writing output data file Landau_14.save

     Self-consistent Calculation

     iteration #  1     ecut=   120.00 Ry     beta= 0.70
     Davidson diagonalization with overlap
     c_bands:  1 eigenvalues not converged
     ethr =  1.00E-06,  avg # of iterations = 14.5

[...]

     total energy              =   -6261.11046077 Ry
     Harris-Foulkes estimate   =   -6261.11046077 Ry
     estimated scf accuracy    <          1.2E-10 Ry

     iteration # 15     ecut=   120.00 Ry     beta= 0.70
     Davidson diagonalization with overlap
     ethr =  1.00E-13,  avg # of iterations =  2.0

     End of self-consistent calculation

[...]

          k = 0.3318 0.4752 0.1658 ( 62532 PWs)   bands (ev):

[...]

          k =-0.4977 0.4752 0.3315 ( 62524 PWs)   bands (ev):

   -66.2514 -66.2514 -66.2514 -66.2514 -66.2510 -66.2510 -66.2510 -66.2510
   -30.6075 -30.6075 -30.6070 -30.6070 -30.6047 -30.6047 -30.6042 -30.6042
   -30.5702 -30.5702 -30.5700 -30.5700 -30.5451 -30.5451 -30.5445 -30.5445
   -30.5432 -30.5432 -30.5426 -30.5426 -30.5221 -30.5221 -30.5220 -30.5220
   -20.4147 -20.4147 -20.4147 -20.4147 -20.4146 -20.4146 -20.4146 -20.4146
   -20.3924 -20.3924 -20.3924 -20.3924 -20.3920 -20.3920 -20.3920 -20.3920
   -20.3902 -20.3902 -20.3902 -20.3902 -20.3899 -20.3899 -20.3899 -20.3899
   -20.3895 -20.3895 -20.3895 -20.3895 -20.3893 -20.3893 -20.3893 -20.3893
   -20.3803 -20.3803 -20.3803 -20.3803 -20.3790 -20.3790 -20.3790 -20.3790
   -20.3782 -20.3782 -20.3782 -20.3782 -20.3765 -20.3765 -20.3765 -20.3765
   -20.3747 -20.3747 -20.3746 -20.3746 -20.3734 -20.3734 -20.3734 -20.3734
    -9.2515  -9.2515  -9.2458  -9.2458  -8.8587  -8.8587  -8.8439  -8.8439
    -8.6214  -8.6214  -8.6075  -8.6075  -8.4664  -8.4664  -8.4474  -8.4474
    -8.4193  -8.4193  -8.4037  -8.4037  -8.1803  -8.1803  -8.1795  -8.1795
     2.1799   2.1799   2.1880   2.1880   2.9139   2.9139   2.9575   2.9575
     3.0504   3.0504   3.0583   3.0583   3.1780   3.1780   3.1912   3.1912
     3.3327   3.3327   3.3714   3.3714   3.5482   3.5482   3.5928   3.5928
     3.6980   3.6980   3.8013   3.8013   4.1704   4.1704   4.1919   4.1919
     4.2382   4.2382   4.3055   4.3055   4.3859   4.3859   4.4786   4.4786
     4.5898   4.5898   4.7265   4.7265   4.9752   4.9752   4.9976   4.9976
     6.9395   6.9395   7.0127   7.0127   7.1012   7.1012   7.1107   7.1107
     7.2061   7.2061   7.2501   7.2501   7.3092   7.3092   7.3356   7.3356
     7.4127   7.4127   7.4876   7.4876   7.5372   7.5372   7.5755   7.5755
    11.3641  11.3641  11.3992  11.3992  11.6265  11.6265  11.7063  11.7063
    12.1020  12.1020  12.1575  12.1575  12.1971  12.1971  12.2564  12.2564
    12.3989  12.3989  12.5181  12.5181  12.8417  12.8417  12.9210  12.9210
    16.4214  16.4214  16.4672  16.4672  16.9916  16.9917  17.0364  17.0364
    17.2728  17.2729  17.3535  17.3541  17.3917

     the Fermi energy is     8.9090 ev

!    total energy              =   -6261.11046076 Ry
     Harris-Foulkes estimate   =   -6261.11046077 Ry
     estimated scf accuracy    <          7.3E-12 Ry

     The total energy is the sum of the following terms:

     one-electron contribution =   -4738.53051700 Ry
     hartree contribution      =    2604.96496385 Ry
     xc contribution           =    -965.66812198 Ry
     ewald contribution        =   -3161.87678562 Ry
     smearing contrib. (-TS)   =      -0.00000000 Ry

     convergence has been achieved in  15 iterations

     Forces acting on atoms (cartesian axes, Ry/au):

     atom    1 type  1   force =    -0.00295672    0.00383515    0.00218480
     atom    2 type  1   force =     0.00295672   -0.00383515   -0.00218480
     atom    3 type  1   force =     0.00295672   -0.00383515    0.00218480
     atom    4 type  1   force =    -0.00295672    0.00383515   -0.00218480
     atom    5 type  1   force =     0.00295672    0.00383515   -0.00218480
     atom    6 type  1   force =    -0.00295672   -0.00383515    0.00218480
     atom    7 type  1   force =    -0.00295672   -0.00383515   -0.00218480
     atom    8 type  1   force =     0.00295672    0.00383515    0.00218480
     atom    9 type  2   force =    -0.00030775   -0.00179217    0.00008549
     atom   10 type  2   force =     0.00030775    0.00179217   -0.00008549
     atom   11 type  2   force =     0.00030775    0.00179217    0.00008549
     atom   12 type  2   force =    -0.00030775   -0.00179217   -0.00008549
     atom   13 type  2   force =     0.00030775   -0.00179217   -0.00008549
     atom   14 type  2   force =    -0.00030775    0.00179217    0.00008549
     atom   15 type  2   force =    -0.00030775    0.00179217   -0.00008549
     atom   16 type  2   force =     0.00030775   -0.00179217    0.00008549
     atom   17 type  2   force =    -0.00151188   -0.00008499   -0.00027264
     atom   18 type  2   force =     0.00151188    0.00008499    0.00027264
     atom   19 type  2   force =     0.00151188    0.00008499   -0.00027264
     atom   20 type  2   force =    -0.00151188   -0.00008499    0.00027264
     atom   21 type  2   force =     0.00151188   -0.00008499    0.00027264
     atom   22 type  2   force =    -0.00151188    0.00008499   -0.00027264
     atom   23 type  2   force =    -0.00151188    0.00008499    0.00027264
     atom   24 type  2   force =     0.00151188   -0.00008499   -0.00027264
     atom   25 type  2   force =    -0.00087952   -0.00061799    0.00140520
     atom   26 type  2   force =     0.00087952    0.00061799   -0.00140520
     atom   27 type  2   force =     0.00087952    0.00061799    0.00140520
     atom   28 type  2   force =    -0.00087952   -0.00061799   -0.00140520
     atom   29 type  2   force =     0.00087952   -0.00061799   -0.00140520
     atom   30 type  2   force =    -0.00087952    0.00061799    0.00140520
     atom   31 type  2   force =    -0.00087952    0.00061799   -0.00140520
     atom   32 type  2   force =     0.00087952   -0.00061799    0.00140520

     Total force =     0.000000     Total SCF correction =     0.000000

     Computing stress (Cartesian axis) and pressure

          total   stress  (Ry/bohr**3)                   (kbar)     P=    0.14
   0.00000151   0.00000000   0.00000000          0.22      0.00      0.00
   0.00000000  -0.00000037   0.00000000          0.00     -0.05      0.00
   0.00000000   0.00000000   0.00000175          0.00      0.00      0.26

     Writing output data file Landau_14.save

     General routines

     Parallel routines

   This run was terminated on:  17: 0:10  11Mar2020

   JOB DONE.