     Program PWSCF v.6.2 (svn rev. 14038) starts on 10Sep2019 at 18: 2: 0

     K-points division:     npool     =      40
     Reading input from scf.in

     Current dimensions of program PWSCF are:
     Max number of different atomic species (ntypx) = 10
     Max number of k-points (npk) =  40000
     Max angular momentum in pseudopotentials (lmaxx) =  3

     Subspace diagonalization in iterative solution of the eigenvalue problem:
     a serial algorithm will be used

     bravais-lattice index     =            0
     lattice parameter (alat)  =      13.9065  a.u.
     unit-cell volume          =    2735.6412 (a.u.)^3
     number of atoms/cell      =           32
     number of atomic types    =            2
     number of electrons       =       368.10
     number of Kohn-Sham states=          221
     kinetic-energy cutoff     =     120.0000  Ry
     charge density cutoff     =     480.0000  Ry
     convergence threshold     =      1.0E-08
     mixing beta               =       0.7000
     number of iterations used =            8  plain     mixing
     Exchange-correlation      = SLA PW NOGX NOGC ( 1  4  0  0 0 0)

     celldm(1)=  13.906459  celldm(2)=   0.000000  celldm(3)=   0.000000
     celldm(4)=   0.000000  celldm(5)=   0.000000  celldm(6)=   0.000000

     crystal axes: (cart. coord. in units of alat)
               a(1) = (   1.000000   0.000000   0.000000 )
               a(2) = (   0.000000   1.017207   0.000000 )
               a(3) = (   0.000000   0.000000   1.000000 )

     reciprocal axes: (cart. coord. in units 2 pi/alat)
               b(1) = (  1.000000  0.000000  0.000000 )
               b(2) = (  0.000000  0.983084  0.000000 )
               b(3) = (  0.000000  0.000000  1.000000 )

     PseudoPot. # 1 for W  read from file:
     /cluster/scratch/mnoe/QE/pps/W_ONCV_LDA-4.0.upf
     MD5 check sum: ba0307d5d4cd419d6f1d13dc49d7c13a
     Pseudo is Norm-conserving + core correction, Zval = 28.0
     Generated using ONCVPSP code by D. R. Hamann
     Using radial grid of 1380 points,  8 beta functions with:
                l(1) =   0
                l(2) =   0
                l(3) =   1
                l(4) =   1
                l(5) =   2
                l(6) =   2
                l(7) =   3
                l(8) =   3

     PseudoPot. # 2 for O  read from file:
     /cluster/scratch/mnoe/QE/pps/O_ONCV_LDA-3.0.upf
     MD5 check sum: ca1549d10c4e927e51167f6fca52ae32
     Pseudo is Norm-conserving + core correction, Zval =  6.0
     Generated using ONCVPSP code by D. R. Hamann
     Using radial grid of  926 points,  5 beta functions with:
                l(1) =   0
                l(2) =   0
                l(3) =   1
                l(4) =   1
                l(5) =   2

     atomic species   valence    mass     pseudopotential
        W             28.00   183.84000     W ( 1.00)
        O              6.00    15.99940     O ( 1.00)

      8 Sym. Ops. (no inversion) found ( 4 have fractional translation)

   Cartesian axes

     site n.     atom                  positions (alat units)
         1           W   tau(   1) = (   0.2841700   0.2867100   0.2509700  )
         2           W   tau(   2) = (  -0.2509700   0.7304972  -0.7158300  )
         3           W   tau(   3) = (   0.2158300   0.2218936   0.7509700  )
         4           W   tau(   4) = (   0.7509700   0.7953136   0.7841700  )
         5           W   tau(   5) = (   0.7158300   0.2867100   0.7490300  )
         6           W   tau(   6) = (   0.2509700   0.7304972   0.7158300  )
         7           W   tau(   7) = (  -0.2158300   0.2218936  -0.7509700  )
         8           W   tau(   8) = (   0.2490300   0.7953136   0.2158300  )
         9           O   tau(   9) = (   0.2875800   0.0084632   0.2772600  )
        10           O   tau(  10) = (  -0.2772600   1.0087441  -0.7124200  )
        11           O   tau(  11) = (   0.2124200   0.5001404   0.7772600  )
        12           O   tau(  12) = (   0.7772600   0.5170667   0.7875800  )
        13           O   tau(  13) = (   0.7124200   0.0084632   0.7227400  )
        14           O   tau(  14) = (   0.2772600   1.0087441   0.7124200  )
        15           O   tau(  15) = (  -0.2124200   0.5001404  -0.7772600  )
        16           O   tau(  16) = (   0.2227400   0.5170667   0.2124200  )
        17           O   tau(  17) = (   0.4879100   0.2955190   0.6995400  )
        18           O   tau(  18) = (   0.4975100   0.7364579   0.8004600  )
        19           O   tau(  19) = (  -0.9879099   0.2130846   1.1995400  )
        20           O   tau(  20) = (   0.0024899   0.7893528   0.3004600  )
        21           O   tau(  21) = (   0.5120900   0.2955190   0.3004600  )
        22           O   tau(  22) = (   0.5024900   0.7364579   1.1995400  )
        23           O   tau(  23) = (  -0.0120901   0.2130846   0.8004600  )
        24           O   tau(  24) = (  -1.0024900   0.7893528   0.6995400  )
        25           O   tau(  25) = (   0.6995400   0.2278544   2.0024899  )
        26           O   tau(  26) = (   0.3004600   0.7216882   0.4879100  )
        27           O   tau(  27) = (   0.8004600   0.2807492   0.5024900  )
        28           O   tau(  28) = (   0.1995400   0.8041226   1.9879100  )
        29           O   tau(  29) = (   0.3004600   0.2278544   0.9975101  )
        30           O   tau(  30) = (   0.6995400   0.7216882   0.5120900  )
        31           O   tau(  31) = (   0.1995400   0.2807492   0.4975100  )
        32           O   tau(  32) = (   0.8004600   0.8041226   1.0120901  )

     number of k points=    40  gaussian smearing, width (Ry)=  0.0007
                       cart. coord. in units 2pi/alat
        k(    1) = (   0.0000000   0.0000000   0.0000000), wk =   0.0092593
        k(    2) = (   0.0000000   0.0000000   0.1666667), wk =   0.0370370
        k(    3) = (   0.0000000   0.0000000   0.3333333), wk =   0.0370370
        k(    4) = (   0.0000000   0.0000000  -0.5000000), wk =   0.0185185
        k(    5) = (   0.0000000   0.1638473   0.0000000), wk =   0.0185185
        k(    6) = (   0.0000000   0.1638473   0.1666667), wk =   0.0740741
        k(    7) = (   0.0000000   0.1638473   0.3333333), wk =   0.0740741
        k(    8) = (   0.0000000   0.1638473  -0.5000000), wk =   0.0370370
        k(    9) = (   0.0000000   0.3276946   0.0000000), wk =   0.0185185
        k(   10) = (   0.0000000   0.3276946   0.1666667), wk =   0.0740741
        k(   11) = (   0.0000000   0.3276946   0.3333333), wk =   0.0740741
        k(   12) = (   0.0000000   0.3276946  -0.5000000), wk =   0.0370370
        k(   13) = (   0.0000000  -0.4915419   0.0000000), wk =   0.0092593
        k(   14) = (   0.0000000  -0.4915419   0.1666667), wk =   0.0370370
        k(   15) = (   0.0000000  -0.4915419   0.3333333), wk =   0.0370370
        k(   16) = (   0.0000000  -0.4915419  -0.5000000), wk =   0.0185185
        k(   17) = (   0.1666667   0.0000000   0.1666667), wk =   0.0370370
        k(   18) = (   0.1666667   0.0000000   0.3333333), wk =   0.0740741
        k(   19) = (   0.1666667   0.0000000  -0.5000000), wk =   0.0370370
        k(   20) = (   0.1666667   0.1638473   0.1666667), wk =   0.0740741
        k(   21) = (   0.1666667   0.1638473   0.3333333), wk =   0.1481481
        k(   22) = (   0.1666667   0.1638473  -0.5000000), wk =   0.0740741
        k(   23) = (   0.1666667   0.3276946   0.1666667), wk =   0.0740741
        k(   24) = (   0.1666667   0.3276946   0.3333333), wk =   0.1481481
        k(   25) = (   0.1666667   0.3276946  -0.5000000), wk =   0.0740741
        k(   26) = (   0.1666667  -0.4915419   0.1666667), wk =   0.0370370
        k(   27) = (   0.1666667  -0.4915419   0.3333333), wk =   0.0740741
        k(   28) = (   0.1666667  -0.4915419  -0.5000000), wk =   0.0370370
        k(   29) = (   0.3333333   0.0000000   0.3333333), wk =   0.0370370
        k(   30) = (   0.3333333   0.0000000  -0.5000000), wk =   0.0370370
        k(   31) = (   0.3333333   0.1638473   0.3333333), wk =   0.0740741
        k(   32) = (   0.3333333   0.1638473  -0.5000000), wk =   0.0740741
        k(   33) = (   0.3333333   0.3276946   0.3333333), wk =   0.0740741
        k(   34) = (   0.3333333   0.3276946  -0.5000000), wk =   0.0740741
        k(   35) = (   0.3333333  -0.4915419   0.3333333), wk =   0.0370370
        k(   36) = (   0.3333333  -0.4915419  -0.5000000), wk =   0.0370370
        k(   37) = (  -0.5000000   0.0000000  -0.5000000), wk =   0.0092593
        k(   38) = (  -0.5000000   0.1638473  -0.5000000), wk =   0.0185185
        k(   39) = (  -0.5000000   0.3276946  -0.5000000), wk =   0.0185185
        k(   40) = (  -0.5000000  -0.4915419  -0.5000000), wk =   0.0092593

     Initial potential from superposition of free atoms

     starting charge  367.99656, renormalised to  368.10000
     Starting wfc are  232 randomized atomic wfcs

     Self-consistent Calculation

     iteration #  1     ecut=   120.00 Ry     beta= 0.70
     Davidson diagonalization with overlap
     ethr =  1.00E-02,  avg # of iterations =  4.2

     total energy              =   -6253.88692324 Ry
     Harris-Foulkes estimate   =   -6264.40097578 Ry
     estimated scf accuracy    <      13.30847503 Ry

[...]

     total energy              =   -6260.96338704 Ry
     Harris-Foulkes estimate   =   -6260.96338708 Ry
     estimated scf accuracy    <       0.00000009 Ry

     iteration # 12     ecut=   120.00 Ry     beta= 0.70
     Davidson diagonalization with overlap
     ethr =  2.32E-11,  avg # of iterations =  2.0

     End of self-consistent calculation

          k = 0.0000 0.0000 0.0000 ( 60773 PWs)   bands (ev):

   -65.6901 -65.6893 -65.6892 -65.6892 -65.6884 -65.6884 -65.6882 -65.6875
   -30.2253 -30.2225 -30.2195 -30.2195 -30.1404 -30.1404 -30.1392 -30.1327
   -30.0482 -30.0417 -30.0417 -30.0353 -29.9690 -29.9656 -29.9656 -29.9618
   -29.9562 -29.9542 -29.9467 -29.9467 -29.8746 -29.8746 -29.8701 -29.8683
   -19.8427 -19.8424 -19.8422 -19.8422 -19.8418 -19.8418 -19.8415 -19.8413
   -19.8318 -19.8318 -19.8316 -19.8314 -19.8306 -19.8303 -19.8301 -19.8301
   -19.8227 -19.8226 -19.8223 -19.8223 -19.8183 -19.8183 -19.8181 -19.8179
   -19.8074 -19.8069 -19.8069 -19.8065 -19.8052 -19.8050 -19.8050 -19.8048
   -19.8031 -19.8029 -19.8029 -19.8026 -19.8009 -19.8004 -19.8003 -19.7999
   -19.7963 -19.7960 -19.7956 -19.7956 -19.7922 -19.7922 -19.7920 -19.7915
   -19.7875 -19.7870 -19.7868 -19.7868 -19.7851 -19.7850 -19.7848 -19.7843
    -9.5717  -9.2259  -9.1541  -9.1541  -8.6785  -8.6785  -8.6569  -8.5383
    -8.3771  -8.2837  -8.2837  -8.2824  -7.7350  -7.6646  -7.5494  -7.5494
    -7.3777  -7.3061  -7.3061  -7.2519  -7.2396  -7.2212  -7.0955  -7.0955
     1.7505   1.8071   1.8239   1.8239   1.9999   2.0292   2.0438   2.0438
     2.2262   2.2262   2.3380   2.5082   2.7426   2.8255   2.9138   3.0691
     3.0854   3.0854   4.5852   4.5852   4.8132   4.9808   4.9821   5.0041
     5.0041   5.1369   5.1531   5.1531   5.5470   5.5547   5.5547   5.7269
     5.7402   5.8075   5.8283   5.8283   6.0847   6.0847   6.1123   6.1348
     6.1569   6.1569   6.1756   6.2911   6.2982   6.2982   6.4435   6.4611
     6.6114   6.7249   6.7928   6.7928   6.9591   7.0286   7.2147   7.2147
     7.2369   7.3703   7.3897   7.3909   7.3909   7.5422   7.5422   7.5975
     7.8912   7.8912   8.0299   8.0931   8.2231   8.3498   8.3498   8.5311
    10.3824  10.5567  10.6930  10.6930  10.7346  10.8056  12.4899  12.5363
    12.5364  12.7298  12.7298  12.8313  13.0555  13.2780  13.2780  13.4166
    13.4857  13.6175  13.6281  13.6281  14.0713  14.0713  14.0818  14.3605
    15.1100  15.2771  15.2771  15.3340  15.6665  16.0718  16.2238  16.2609
    16.2609  17.0172  17.2738  17.2738  18.1224

[...]

          k = 0.3333-0.4915-0.5000 ( 60732 PWs)   bands (ev):

[...]

          k =-0.5000 0.0000-0.5000 ( 60740 PWs)   bands (ev):

[...]

          k =-0.5000-0.4915-0.5000 ( 60704 PWs)   bands (ev):

   -65.6888 -65.6888 -65.6888 -65.6888 -65.6888 -65.6888 -65.6888 -65.6888
   -30.1801 -30.1801 -30.1792 -30.1791 -30.1790 -30.1790 -30.1789 -30.1789
   -30.0051 -30.0051 -30.0050 -30.0050 -30.0050 -30.0050 -30.0043 -30.0042
   -29.9116 -29.9116 -29.9116 -29.9116 -29.9116 -29.9116 -29.9113 -29.9113
   -19.8420 -19.8420 -19.8420 -19.8420 -19.8420 -19.8420 -19.8420 -19.8419
   -19.8310 -19.8310 -19.8310 -19.8309 -19.8309 -19.8309 -19.8309 -19.8308
   -19.8205 -19.8205 -19.8205 -19.8205 -19.8204 -19.8204 -19.8204 -19.8203
   -19.8046 -19.8046 -19.8045 -19.8045 -19.8043 -19.8043 -19.8042 -19.8042
   -19.8035 -19.8035 -19.8034 -19.8034 -19.8031 -19.8031 -19.8031 -19.8031
   -19.7938 -19.7938 -19.7938 -19.7938 -19.7938 -19.7937 -19.7937 -19.7937
   -19.7861 -19.7861 -19.7861 -19.7861 -19.7861 -19.7860 -19.7860 -19.7860
    -8.6637  -8.6636  -8.5847  -8.5847  -8.5633  -8.5633  -8.5633  -8.5633
    -8.0954  -8.0954  -7.9908  -7.9908  -7.9908  -7.9908  -7.9340  -7.9340
    -7.8007  -7.8007  -7.8007  -7.8007  -7.7202  -7.7202  -7.6999  -7.6999
     3.2290   3.2290   3.2331   3.2331   3.2332   3.2332   3.3083   3.3084
     3.4069   3.4069   3.5874   3.5874   3.5874   3.5874   3.7611   3.7611
     3.8442   3.8442   3.9049   3.9049   3.9538   3.9538   3.9538   3.9538
     4.4966   4.4966   4.5051   4.5051   4.6233   4.6233   4.6233   4.6233
     4.7907   4.7907   4.8265   4.8265   4.8265   4.8265   4.9018   4.9018
     5.0065   5.0065   5.0763   5.0763   5.0763   5.0764   5.0956   5.0956
     7.3256   7.3256   7.4669   7.4669   7.4669   7.4669   7.6392   7.6392
     7.7257   7.7257   7.7257   7.7258   7.8161   7.8161   7.9003   7.9003
     8.0449   8.0449   8.0449   8.0449   8.0724   8.0724   8.1200   8.1200
    12.2197  12.2197  12.2976  12.2976  12.2976  12.2976  12.3718  12.3719
    12.7092  12.7092  12.7092  12.7092  12.7728  12.7728  12.9224  12.9225
    12.9972  12.9973  13.1476  13.1476  13.1476  13.1476  13.1877  13.1877
    17.0541  17.0541  17.0542  17.0542  17.2097  17.2098  17.2478  17.2478
    17.6465  17.6465  17.7446  17.7446  17.7447

     the Fermi energy is    10.5623 ev

!    total energy              =   -6260.96338705 Ry
     Harris-Foulkes estimate   =   -6260.96338705 Ry
     estimated scf accuracy    <          9.0E-09 Ry

     The total energy is the sum of the following terms:

     one-electron contribution =   -4590.59351945 Ry
     hartree contribution      =    2538.20792492 Ry
     xc contribution           =    -965.71786549 Ry
     ewald contribution        =   -3242.85991868 Ry
     smearing contrib. (-TS)   =      -0.00000836 Ry

     convergence has been achieved in  12 iterations

     Writing output data file Landau_38.save

     General routines

     Parallel routines

   This run was terminated on:  18:17: 7  10Sep2019

   JOB DONE.