     Program PWSCF v.6.4.1 starts on 22Nov2019 at  1:39: 3

     K-points division:     npool     =      40
     Reading input from scf.in

     Current dimensions of program PWSCF are:
     Max number of different atomic species (ntypx) = 10
     Max number of k-points (npk) =  40000
     Max angular momentum in pseudopotentials (lmaxx) =  3

     Subspace diagonalization in iterative solution of the eigenvalue problem:
     a serial algorithm will be used

     Message from routine setup:
     using ibrav=0 with symmetry is DISCOURAGED, use correct ibrav instead

     bravais-lattice index     =            0
     lattice parameter (alat)  =      14.1050  a.u.
     unit-cell volume          =    2801.1042 (a.u.)^3
     number of atoms/cell      =           32
     number of atomic types    =            2
     number of electrons       =       368.52
     number of Kohn-Sham states=          221
     kinetic-energy cutoff     =     120.0000  Ry
     charge density cutoff     =     480.0000  Ry
     convergence threshold     =      1.0E-08
     mixing beta               =       0.7000
     number of iterations used =            8  plain     mixing
     Exchange-correlation      = SLA PW NOGX NOGC ( 1  4  0  0 0 0)

     celldm(1)=  14.104975  celldm(2)=   0.000000  celldm(3)=   0.000000
     celldm(4)=   0.000000  celldm(5)=   0.000000  celldm(6)=   0.000000

     crystal axes: (cart. coord. in units of alat)
               a(1) = (   1.000000   0.000000   0.000000 )
               a(2) = (   0.000000   1.005566   0.000000 )
               a(3) = (   0.000000   0.000000   0.992663 )

     reciprocal axes: (cart. coord. in units 2 pi/alat)
               b(1) = (  1.000000  0.000000  0.000000 )
               b(2) = (  0.000000  0.994465  0.000000 )
               b(3) = (  0.000000  0.000000  1.007391 )

     PseudoPot. # 1 for W  read from file:
     /cluster/scratch/mnoe/QE/pps/W_ONCV_LDA-4.0.upf
     MD5 check sum: ba0307d5d4cd419d6f1d13dc49d7c13a
     Pseudo is Norm-conserving + core correction, Zval = 28.0
     Generated using ONCVPSP code by D. R. Hamann
     Using radial grid of 1380 points,  8 beta functions with:
                l(1) =   0
                l(2) =   0
                l(3) =   1
                l(4) =   1
                l(5) =   2
                l(6) =   2
                l(7) =   3
                l(8) =   3

     PseudoPot. # 2 for O  read from file:
     /cluster/scratch/mnoe/QE/pps/O_ONCV_LDA-3.0.upf
     MD5 check sum: b55cdb4f45ae2203d24ad12cf8d61a31
     Pseudo is Norm-conserving + core correction, Zval =  6.0
     Generated using ONCVPSP code by D. R. Hamann
     Using radial grid of  926 points,  5 beta functions with:
                l(1) =   0
                l(2) =   0
                l(3) =   1
                l(4) =   1
                l(5) =   2

     atomic species   valence    mass     pseudopotential
        W             28.00   183.84000     W ( 1.00)
        O              6.00    15.99940     O ( 1.00)

      8 Sym. Ops., with inversion, found ( 6 have fractional translation)

   Cartesian axes

     site n.     atom                  positions (alat units)
         1           W   tau(   1) = (   0.2324300   0.2964054   0.0164782  )
         2           W   tau(   2) = (   0.7675700   0.7091604   0.9761846  )
         3           W   tau(   3) = (   0.2675700   0.2063775   0.5128096  )
         4           W   tau(   4) = (   0.7324300   0.7991883   0.4798532  )
         5           W   tau(   5) = (   0.7675700   0.2964054   0.4798532  )
         6           W   tau(   6) = (   0.2324300   0.7091604   0.5128096  )
         7           W   tau(   7) = (   0.7324300   0.2063775   0.9761846  )
         8           W   tau(   8) = (   0.2675700   0.7991883   0.0164782  )
         9           O   tau(   9) = (   0.2175800   0.0329210   0.0051221  )
        10           O   tau(  10) = (   0.7824200   0.9726449   0.9875407  )
        11           O   tau(  11) = (   0.2824200   0.4698619   0.5014536  )
        12           O   tau(  12) = (   0.7175800   0.5357040   0.4912093  )
        13           O   tau(  13) = (   0.7824200   0.0329210   0.4912093  )
        14           O   tau(  14) = (   0.2175800   0.9726449   0.5014536  )
        15           O   tau(  15) = (   0.7175800   0.4698619   0.9875407  )
        16           O   tau(  16) = (   0.2824200   0.5357040   0.0051221  )
        17           O   tau(  17) = (   0.5048000   0.2179463   0.5124537  )
        18           O   tau(  18) = (   0.4952000   0.7876195   0.4802092  )
        19           O   tau(  19) = (   0.9952000   0.2848366   1.0087851  )
        20           O   tau(  20) = (   0.0048001   0.7207293  -0.0161222  )
        21           O   tau(  21) = (   0.4952000   0.2179463  -0.0161222  )
        22           O   tau(  22) = (   0.5048000   0.7876195   1.0087851  )
        23           O   tau(  23) = (   0.0048001   0.2848366   0.4802092  )
        24           O   tau(  24) = (   0.9952000   0.7207293   0.5124537  )
        25           O   tau(  25) = (   0.7662415   0.2440911   0.7372606  )
        26           O   tau(  26) = (   0.2337586   0.7614747   0.2554022  )
        27           O   tau(  27) = (   0.7337586   0.2586919   0.2409292  )
        28           O   tau(  28) = (   0.2662415   0.7468740   0.7517336  )
        29           O   tau(  29) = (   0.2337586   0.2440911   0.7517336  )
        30           O   tau(  30) = (   0.7662415   0.7614747   0.2409292  )
        31           O   tau(  31) = (   0.2662415   0.2586919   0.2554022  )
        32           O   tau(  32) = (   0.7337586   0.7468740   0.7372606  )

     number of k points=    64  gaussian smearing, width (Ry)=  0.0007
                       cart. coord. in units 2pi/alat
        k(    1) = (   0.0000000   0.0000000   0.0000000), wk =   0.0092593
        k(    2) = (   0.0000000   0.0000000   0.1678986), wk =   0.0185185
        k(    3) = (   0.0000000   0.0000000   0.3357971), wk =   0.0185185
        k(    4) = (   0.0000000   0.0000000  -0.5036957), wk =   0.0092593
        k(    5) = (   0.0000000   0.1657442   0.0000000), wk =   0.0185185
        k(    6) = (   0.0000000   0.1657442   0.1678986), wk =   0.0370370
        k(    7) = (   0.0000000   0.1657442   0.3357971), wk =   0.0370370
        k(    8) = (   0.0000000   0.1657442  -0.5036957), wk =   0.0185185
        k(    9) = (   0.0000000   0.3314883   0.0000000), wk =   0.0185185
        k(   10) = (   0.0000000   0.3314883   0.1678986), wk =   0.0370370
        k(   11) = (   0.0000000   0.3314883   0.3357971), wk =   0.0370370
        k(   12) = (   0.0000000   0.3314883  -0.5036957), wk =   0.0185185
        k(   13) = (   0.0000000  -0.4972325   0.0000000), wk =   0.0092593
        k(   14) = (   0.0000000  -0.4972325   0.1678986), wk =   0.0185185
        k(   15) = (   0.0000000  -0.4972325   0.3357971), wk =   0.0185185
        k(   16) = (   0.0000000  -0.4972325  -0.5036957), wk =   0.0092593
        k(   17) = (   0.1666667   0.0000000   0.0000000), wk =   0.0185185
        k(   18) = (   0.1666667   0.0000000   0.1678986), wk =   0.0370370
        k(   19) = (   0.1666667   0.0000000   0.3357971), wk =   0.0370370
        k(   20) = (   0.1666667   0.0000000  -0.5036957), wk =   0.0185185
        k(   21) = (   0.1666667   0.1657442   0.0000000), wk =   0.0370370
        k(   22) = (   0.1666667   0.1657442   0.1678986), wk =   0.0740741
        k(   23) = (   0.1666667   0.1657442   0.3357971), wk =   0.0740741
        k(   24) = (   0.1666667   0.1657442  -0.5036957), wk =   0.0370370
        k(   25) = (   0.1666667   0.3314883   0.0000000), wk =   0.0370370
        k(   26) = (   0.1666667   0.3314883   0.1678986), wk =   0.0740741
        k(   27) = (   0.1666667   0.3314883   0.3357971), wk =   0.0740741
        k(   28) = (   0.1666667   0.3314883  -0.5036957), wk =   0.0370370
        k(   29) = (   0.1666667  -0.4972325   0.0000000), wk =   0.0185185
        k(   30) = (   0.1666667  -0.4972325   0.1678986), wk =   0.0370370
        k(   31) = (   0.1666667  -0.4972325   0.3357971), wk =   0.0370370
        k(   32) = (   0.1666667  -0.4972325  -0.5036957), wk =   0.0185185
        k(   33) = (   0.3333333   0.0000000   0.0000000), wk =   0.0185185
        k(   34) = (   0.3333333   0.0000000   0.1678986), wk =   0.0370370
        k(   35) = (   0.3333333   0.0000000   0.3357971), wk =   0.0370370
        k(   36) = (   0.3333333   0.0000000  -0.5036957), wk =   0.0185185
        k(   37) = (   0.3333333   0.1657442   0.0000000), wk =   0.0370370
        k(   38) = (   0.3333333   0.1657442   0.1678986), wk =   0.0740741
        k(   39) = (   0.3333333   0.1657442   0.3357971), wk =   0.0740741
        k(   40) = (   0.3333333   0.1657442  -0.5036957), wk =   0.0370370
        k(   41) = (   0.3333333   0.3314883   0.0000000), wk =   0.0370370
        k(   42) = (   0.3333333   0.3314883   0.1678986), wk =   0.0740741
        k(   43) = (   0.3333333   0.3314883   0.3357971), wk =   0.0740741
        k(   44) = (   0.3333333   0.3314883  -0.5036957), wk =   0.0370370
        k(   45) = (   0.3333333  -0.4972325   0.0000000), wk =   0.0185185
        k(   46) = (   0.3333333  -0.4972325   0.1678986), wk =   0.0370370
        k(   47) = (   0.3333333  -0.4972325   0.3357971), wk =   0.0370370
        k(   48) = (   0.3333333  -0.4972325  -0.5036957), wk =   0.0185185
        k(   49) = (  -0.5000000   0.0000000   0.0000000), wk =   0.0092593
        k(   50) = (  -0.5000000   0.0000000   0.1678986), wk =   0.0185185
        k(   51) = (  -0.5000000   0.0000000   0.3357971), wk =   0.0185185
        k(   52) = (  -0.5000000   0.0000000  -0.5036957), wk =   0.0092593
        k(   53) = (  -0.5000000   0.1657442   0.0000000), wk =   0.0185185
        k(   54) = (  -0.5000000   0.1657442   0.1678986), wk =   0.0370370
        k(   55) = (  -0.5000000   0.1657442   0.3357971), wk =   0.0370370
        k(   56) = (  -0.5000000   0.1657442  -0.5036957), wk =   0.0185185
        k(   57) = (  -0.5000000   0.3314883   0.0000000), wk =   0.0185185
        k(   58) = (  -0.5000000   0.3314883   0.1678986), wk =   0.0370370
        k(   59) = (  -0.5000000   0.3314883   0.3357971), wk =   0.0370370
        k(   60) = (  -0.5000000   0.3314883  -0.5036957), wk =   0.0185185
        k(   61) = (  -0.5000000  -0.4972325   0.0000000), wk =   0.0092593
        k(   62) = (  -0.5000000  -0.4972325   0.1678986), wk =   0.0185185
        k(   63) = (  -0.5000000  -0.4972325   0.3357971), wk =   0.0185185
        k(   64) = (  -0.5000000  -0.4972325  -0.5036957), wk =   0.0092593

     Initial potential from superposition of free atoms

     starting charge  367.99656, renormalised to  368.52000
     Starting wfcs are  232 randomized atomic wfcs

     Self-consistent Calculation

     iteration #  1     ecut=   120.00 Ry     beta= 0.70
     Davidson diagonalization with overlap
     ethr =  1.00E-02,  avg # of iterations =  5.2

     total energy              =   -6253.13020953 Ry
     Harris-Foulkes estimate   =   -6264.21156281 Ry
     estimated scf accuracy    <      13.95505415 Ry

[...]

     total energy              =   -6260.57031645 Ry
     Harris-Foulkes estimate   =   -6260.57031647 Ry
     estimated scf accuracy    <       0.00000003 Ry

     iteration # 13     ecut=   120.00 Ry     beta= 0.70
     Davidson diagonalization with overlap
     ethr =  6.91E-12,  avg # of iterations =  3.0

     End of self-consistent calculation

          k = 0.0000 0.0000 0.0000 ( 62229 PWs)   bands (ev):

   -66.0069 -66.0063 -66.0063 -66.0062 -66.0057 -66.0056 -66.0056 -66.0050
   -30.4285 -30.4236 -30.4222 -30.4174 -30.3675 -30.3629 -30.3599 -30.3539
   -30.3524 -30.3496 -30.3489 -30.3416 -30.3357 -30.3273 -30.3234 -30.3144
   -30.2762 -30.2728 -30.2646 -30.2608 -30.2507 -30.2479 -30.2455 -30.2429
   -20.1690 -20.1688 -20.1687 -20.1684 -20.1678 -20.1676 -20.1676 -20.1673
   -20.1621 -20.1620 -20.1617 -20.1616 -20.1606 -20.1606 -20.1602 -20.1601
   -20.1523 -20.1518 -20.1515 -20.1510 -20.1489 -20.1482 -20.1482 -20.1475
   -20.1394 -20.1394 -20.1385 -20.1385 -20.1380 -20.1380 -20.1372 -20.1371
   -20.1262 -20.1261 -20.1255 -20.1254 -20.1238 -20.1238 -20.1219 -20.1218
   -20.1176 -20.1175 -20.1159 -20.1158 -20.1136 -20.1135 -20.1128 -20.1128
   -20.1068 -20.1066 -20.1065 -20.1063 -20.1056 -20.1055 -20.1050 -20.1049
    -9.9191  -9.5210  -9.5161  -9.4713  -9.1067  -9.0731  -9.0650  -8.7899
    -8.7499  -8.6828  -8.6817  -8.6751  -7.9174  -7.8243  -7.8166  -7.7444
    -7.7214  -7.7100  -7.6892  -7.6703  -7.5248  -7.4974  -7.4639  -7.4433
     1.3922   1.4232   1.4308   1.4324   1.4497   1.4868   1.4996   1.5464
     1.6531   1.6927   1.7220   1.7970   2.4898   2.5397   2.5575   2.6265
     2.6311   2.7570   4.0715   4.2331   4.2804   4.4848   4.6673   4.7500
     4.7682   4.7695   4.8406   4.8860   4.9837   5.0788   5.3749   5.5829
     5.5961   5.6103   5.7720   5.7736   5.8130   5.8756   5.9093   5.9314
     5.9356   6.0157   6.0786   6.1147   6.1390   6.1669   6.1858   6.1960
     6.3609   6.5186   6.5426   6.5595   6.5733   6.8532   6.8701   6.9175
     6.9532   6.9855   7.0363   7.0673   7.1484   7.1529   7.1947   7.2277
     7.3134   7.3254   8.1890   8.2460   8.2997   8.3266   8.6036   8.6089
     9.7067   9.7457   9.8412  10.0209  10.0701  10.2265  12.4300  12.4423
    12.4466  12.6600  12.7450  12.8234  12.8430  12.9589  12.9728  13.0316
    13.0478  13.1853  13.3239  13.3677  13.8030  14.0277  14.1342  14.2001
    14.2074  14.3640  14.6810  14.8622  15.0988  15.1257  15.3900  15.6021
    16.0045  16.3737  16.9038  17.0441  17.2401

[...]

          k = 0.3333-0.4972-0.5037 ( 62164 PWs)   bands (ev):

[...]

          k =-0.5000 0.0000 0.0000 ( 62186 PWs)   bands (ev):

[...]

          k =-0.5000-0.4972-0.5037 ( 62120 PWs)   bands (ev):

   -66.0060 -66.0060 -66.0059 -66.0059 -66.0059 -66.0059 -66.0059 -66.0059
   -30.3896 -30.3895 -30.3895 -30.3895 -30.3886 -30.3886 -30.3886 -30.3886
   -30.3159 -30.3159 -30.3159 -30.3159 -30.3155 -30.3155 -30.3155 -30.3155
   -30.2828 -30.2828 -30.2828 -30.2828 -30.2815 -30.2815 -30.2815 -30.2815
   -20.1684 -20.1684 -20.1684 -20.1683 -20.1682 -20.1681 -20.1681 -20.1681
   -20.1612 -20.1612 -20.1612 -20.1611 -20.1609 -20.1609 -20.1609 -20.1609
   -20.1500 -20.1500 -20.1500 -20.1500 -20.1499 -20.1499 -20.1499 -20.1499
   -20.1383 -20.1383 -20.1383 -20.1383 -20.1382 -20.1382 -20.1382 -20.1382
   -20.1241 -20.1241 -20.1240 -20.1240 -20.1240 -20.1240 -20.1240 -20.1240
   -20.1153 -20.1153 -20.1153 -20.1153 -20.1153 -20.1153 -20.1153 -20.1153
   -20.1060 -20.1060 -20.1059 -20.1059 -20.1059 -20.1059 -20.1059 -20.1059
    -8.9510  -8.9510  -8.9510  -8.9510  -8.8993  -8.8993  -8.8993  -8.8993
    -8.3130  -8.3130  -8.3130  -8.3130  -8.2872  -8.2872  -8.2872  -8.2872
    -8.1810  -8.1810  -8.1810  -8.1810  -8.1179  -8.1179  -8.1179  -8.1179
     2.8026   2.8026   2.8026   2.8026   2.9013   2.9013   2.9013   2.9013
     3.1372   3.1372   3.1372   3.1372   3.2914   3.2914   3.2914   3.2914
     3.4085   3.4085   3.4085   3.4085   3.5604   3.5604   3.5604   3.5604
     4.2478   4.2478   4.2478   4.2478   4.3632   4.3632   4.3632   4.3632
     4.4468   4.4468   4.4469   4.4469   4.5083   4.5084   4.5084   4.5084
     4.6597   4.6597   4.6597   4.6597   4.7671   4.7671   4.7671   4.7671
     7.2930   7.2930   7.2931   7.2931   7.3518   7.3518   7.3519   7.3519
     7.5087   7.5087   7.5087   7.5087   7.6466   7.6466   7.6466   7.6466
     7.7373   7.7373   7.7373   7.7374   7.8332   7.8332   7.8333   7.8333
    11.9831  11.9831  11.9831  11.9831  12.1238  12.1238  12.1238  12.1238
    12.3220  12.3220  12.3220  12.3221  12.4202  12.4202  12.4202  12.4202
    12.5399  12.5399  12.5399  12.5399  12.5938  12.5938  12.5938  12.5938
    16.7902  16.7902  16.7902  16.7902  17.0502  17.0503  17.0503  17.0503
    17.3190  17.3191  17.3192  17.3192  17.3804

     the Fermi energy is    10.0432 ev

!    total energy              =   -6260.57031646 Ry
     Harris-Foulkes estimate   =   -6260.57031646 Ry
     estimated scf accuracy    <          1.1E-09 Ry

     The total energy is the sum of the following terms:

     one-electron contribution =   -4710.12604120 Ry
     hartree contribution      =    2594.19825937 Ry
     xc contribution           =    -966.26149182 Ry
     ewald contribution        =   -3178.38100687 Ry
     smearing contrib. (-TS)   =      -0.00003594 Ry

     convergence has been achieved in  13 iterations

     Writing output data file Landau_38.save/

     General routines

     Parallel routines

   This run was terminated on:   2: 4:58  22Nov2019

   JOB DONE.