     Program PWSCF v.6.2 (svn rev. 14038) starts on 21Mar2020 at  2: 1: 1

     K-points division:     npool     =      40
     Reading input from scf.in

     Current dimensions of program PWSCF are:
     Max number of different atomic species (ntypx) = 10
     Max number of k-points (npk) =  40000
     Max angular momentum in pseudopotentials (lmaxx) =  3

     Subspace diagonalization in iterative solution of the eigenvalue problem:
     a serial algorithm will be used

     bravais-lattice index     =            0
     lattice parameter (alat)  =      13.8945  a.u.
     unit-cell volume          =    2816.2080 (a.u.)^3
     number of atoms/cell      =           32
     number of atomic types    =            2
     number of electrons       =       368.60
     number of Kohn-Sham states=          221
     kinetic-energy cutoff     =     120.0000  Ry
     charge density cutoff     =     480.0000  Ry
     convergence threshold     =      1.0E-08
     mixing beta               =       0.7000
     number of iterations used =            8  plain     mixing
     Exchange-correlation      = SLA PW NOGX NOGC ( 1  4  0  0 0 0)

     celldm(1)=  13.894542  celldm(2)=   0.000000  celldm(3)=   0.000000
     celldm(4)=   0.000000  celldm(5)=   0.000000  celldm(6)=   0.000000

     crystal axes: (cart. coord. in units of alat)
               a(1) = (   1.000000   0.000000   0.000000 )
               a(2) = (   0.000000   1.049145   0.000000 )
               a(3) = (   0.000000   0.000000   1.000683 )

     reciprocal axes: (cart. coord. in units 2 pi/alat)
               b(1) = (  1.000000  0.000000  0.000000 )
               b(2) = (  0.000000  0.953157  0.000000 )
               b(3) = (  0.000000  0.000000  0.999318 )

     PseudoPot. # 1 for W  read from file:
     /cluster/scratch/mnoe/QE/pps/W_ONCV_LDA-4.0.upf
     MD5 check sum: ba0307d5d4cd419d6f1d13dc49d7c13a
     Pseudo is Norm-conserving + core correction, Zval = 28.0
     Generated using ONCVPSP code by D. R. Hamann
     Using radial grid of 1380 points,  8 beta functions with:
                l(1) =   0
                l(2) =   0
                l(3) =   1
                l(4) =   1
                l(5) =   2
                l(6) =   2
                l(7) =   3
                l(8) =   3

     PseudoPot. # 2 for O  read from file:
     /cluster/scratch/mnoe/QE/pps/O_ONCV_LDA-3.0.upf
     MD5 check sum: a1bd6164e7280c17a38c229939bfbd54
     Pseudo is Norm-conserving + core correction, Zval =  6.0
     Generated using ONCVPSP code by D. R. Hamann
     Using radial grid of  926 points,  5 beta functions with:
                l(1) =   0
                l(2) =   0
                l(3) =   1
                l(4) =   1
                l(5) =   2

     atomic species   valence    mass     pseudopotential
        W             28.00   183.84000     W ( 1.00)
        O              6.00    15.99940     O ( 1.00)

      8 Sym. Ops., with inversion, found ( 6 have fractional translation)

   Cartesian axes

     site n.     atom                  positions (alat units)
         1           W   tau(   1) = (   0.2444500   0.2938416   0.0052436  )
         2           W   tau(   2) = (   0.7555500   0.7553036   0.9954393  )
         3           W   tau(   3) = (   0.2555500   0.2307310   0.5055850  )
         4           W   tau(   4) = (   0.7444500   0.8184141   0.4950979  )
         5           W   tau(   5) = (   0.7555500   0.2938416   0.4950979  )
         6           W   tau(   6) = (   0.2444500   0.7553036   0.5055850  )
         7           W   tau(   7) = (   0.7444500   0.2307310   0.9954393  )
         8           W   tau(   8) = (   0.2555500   0.8184141   0.0052436  )
         9           O   tau(   9) = (   0.2397600   0.0082193   0.0016311  )
        10           O   tau(  10) = (   0.7602400   1.0409258   0.9990517  )
        11           O   tau(  11) = (   0.2602400   0.5163533   0.5019726  )
        12           O   tau(  12) = (   0.7397600   0.5327919   0.4987103  )
        13           O   tau(  13) = (   0.7602400   0.0082193   0.4987103  )
        14           O   tau(  14) = (   0.2397600   1.0409258   0.5019726  )
        15           O   tau(  15) = (   0.7397600   0.5163533   0.9990517  )
        16           O   tau(  16) = (   0.2602400   0.5327919   0.0016311  )
        17           O   tau(  17) = (   0.5015200   0.2512703   0.4542094  )
        18           O   tau(  18) = (   0.4984800   0.7978749   0.5464735  )
        19           O   tau(  19) = (   0.9984800   0.2733023   0.9545509  )
        20           O   tau(  20) = (   0.0015199   0.7758428   0.0461320  )
        21           O   tau(  21) = (   0.4984800   0.2512703   0.0461320  )
        22           O   tau(  22) = (   0.5015200   0.7978749   0.9545509  )
        23           O   tau(  23) = (   0.0015199   0.2733023   0.5464735  )
        24           O   tau(  24) = (   0.9984800   0.7758428   0.4542094  )
        25           O   tau(  25) = (   0.7038995   0.2598838   0.7482106  )
        26           O   tau(  26) = (   0.2961006   0.7892614   0.2524723  )
        27           O   tau(  27) = (   0.7961006   0.2646888   0.2478691  )
        28           O   tau(  28) = (   0.2038995   0.7844563   0.7528137  )
        29           O   tau(  29) = (   0.2961006   0.2598838   0.7528137  )
        30           O   tau(  30) = (   0.7038995   0.7892614   0.2478691  )
        31           O   tau(  31) = (   0.2038995   0.2646888   0.2524723  )
        32           O   tau(  32) = (   0.7961006   0.7844563   0.7482106  )

     number of k points=    64  gaussian smearing, width (Ry)=  0.0007
                       cart. coord. in units 2pi/alat
        k(    1) = (   0.0000000   0.0000000   0.0000000), wk =   0.0092593
        k(    2) = (   0.0000000   0.0000000   0.1665529), wk =   0.0185185
        k(    3) = (   0.0000000   0.0000000   0.3331059), wk =   0.0185185
        k(    4) = (   0.0000000   0.0000000  -0.4996588), wk =   0.0092593
        k(    5) = (   0.0000000   0.1588595   0.0000000), wk =   0.0185185
        k(    6) = (   0.0000000   0.1588595   0.1665529), wk =   0.0370370
        k(    7) = (   0.0000000   0.1588595   0.3331059), wk =   0.0370370
        k(    8) = (   0.0000000   0.1588595  -0.4996588), wk =   0.0185185
        k(    9) = (   0.0000000   0.3177190   0.0000000), wk =   0.0185185
        k(   10) = (   0.0000000   0.3177190   0.1665529), wk =   0.0370370
        k(   11) = (   0.0000000   0.3177190   0.3331059), wk =   0.0370370
        k(   12) = (   0.0000000   0.3177190  -0.4996588), wk =   0.0185185
        k(   13) = (   0.0000000  -0.4765785   0.0000000), wk =   0.0092593
        k(   14) = (   0.0000000  -0.4765785   0.1665529), wk =   0.0185185
        k(   15) = (   0.0000000  -0.4765785   0.3331059), wk =   0.0185185
        k(   16) = (   0.0000000  -0.4765785  -0.4996588), wk =   0.0092593
        k(   17) = (   0.1666667   0.0000000   0.0000000), wk =   0.0185185
        k(   18) = (   0.1666667   0.0000000   0.1665529), wk =   0.0370370
        k(   19) = (   0.1666667   0.0000000   0.3331059), wk =   0.0370370
        k(   20) = (   0.1666667   0.0000000  -0.4996588), wk =   0.0185185
        k(   21) = (   0.1666667   0.1588595   0.0000000), wk =   0.0370370
        k(   22) = (   0.1666667   0.1588595   0.1665529), wk =   0.0740741
        k(   23) = (   0.1666667   0.1588595   0.3331059), wk =   0.0740741
        k(   24) = (   0.1666667   0.1588595  -0.4996588), wk =   0.0370370
        k(   25) = (   0.1666667   0.3177190   0.0000000), wk =   0.0370370
        k(   26) = (   0.1666667   0.3177190   0.1665529), wk =   0.0740741
        k(   27) = (   0.1666667   0.3177190   0.3331059), wk =   0.0740741
        k(   28) = (   0.1666667   0.3177190  -0.4996588), wk =   0.0370370
        k(   29) = (   0.1666667  -0.4765785   0.0000000), wk =   0.0185185
        k(   30) = (   0.1666667  -0.4765785   0.1665529), wk =   0.0370370
        k(   31) = (   0.1666667  -0.4765785   0.3331059), wk =   0.0370370
        k(   32) = (   0.1666667  -0.4765785  -0.4996588), wk =   0.0185185
        k(   33) = (   0.3333333   0.0000000   0.0000000), wk =   0.0185185
        k(   34) = (   0.3333333   0.0000000   0.1665529), wk =   0.0370370
        k(   35) = (   0.3333333   0.0000000   0.3331059), wk =   0.0370370
        k(   36) = (   0.3333333   0.0000000  -0.4996588), wk =   0.0185185
        k(   37) = (   0.3333333   0.1588595   0.0000000), wk =   0.0370370
        k(   38) = (   0.3333333   0.1588595   0.1665529), wk =   0.0740741
        k(   39) = (   0.3333333   0.1588595   0.3331059), wk =   0.0740741
        k(   40) = (   0.3333333   0.1588595  -0.4996588), wk =   0.0370370
        k(   41) = (   0.3333333   0.3177190   0.0000000), wk =   0.0370370
        k(   42) = (   0.3333333   0.3177190   0.1665529), wk =   0.0740741
        k(   43) = (   0.3333333   0.3177190   0.3331059), wk =   0.0740741
        k(   44) = (   0.3333333   0.3177190  -0.4996588), wk =   0.0370370
        k(   45) = (   0.3333333  -0.4765785   0.0000000), wk =   0.0185185
        k(   46) = (   0.3333333  -0.4765785   0.1665529), wk =   0.0370370
        k(   47) = (   0.3333333  -0.4765785   0.3331059), wk =   0.0370370
        k(   48) = (   0.3333333  -0.4765785  -0.4996588), wk =   0.0185185
        k(   49) = (  -0.5000000   0.0000000   0.0000000), wk =   0.0092593
        k(   50) = (  -0.5000000   0.0000000   0.1665529), wk =   0.0185185
        k(   51) = (  -0.5000000   0.0000000   0.3331059), wk =   0.0185185
        k(   52) = (  -0.5000000   0.0000000  -0.4996588), wk =   0.0092593
        k(   53) = (  -0.5000000   0.1588595   0.0000000), wk =   0.0185185
        k(   54) = (  -0.5000000   0.1588595   0.1665529), wk =   0.0370370
        k(   55) = (  -0.5000000   0.1588595   0.3331059), wk =   0.0370370
        k(   56) = (  -0.5000000   0.1588595  -0.4996588), wk =   0.0185185
        k(   57) = (  -0.5000000   0.3177190   0.0000000), wk =   0.0185185
        k(   58) = (  -0.5000000   0.3177190   0.1665529), wk =   0.0370370
        k(   59) = (  -0.5000000   0.3177190   0.3331059), wk =   0.0370370
        k(   60) = (  -0.5000000   0.3177190  -0.4996588), wk =   0.0185185
        k(   61) = (  -0.5000000  -0.4765785   0.0000000), wk =   0.0092593
        k(   62) = (  -0.5000000  -0.4765785   0.1665529), wk =   0.0185185
        k(   63) = (  -0.5000000  -0.4765785   0.3331059), wk =   0.0185185
        k(   64) = (  -0.5000000  -0.4765785  -0.4996588), wk =   0.0092593

     Initial potential from superposition of free atoms

     starting charge  367.99656, renormalised to  368.60000
     Starting wfc are  232 randomized atomic wfcs

     Self-consistent Calculation

     iteration #  1     ecut=   120.00 Ry     beta= 0.70
     Davidson diagonalization with overlap
     ethr =  1.00E-02,  avg # of iterations =  5.2

     total energy              =   -6253.44178212 Ry
     Harris-Foulkes estimate   =   -6264.27708409 Ry
     estimated scf accuracy    <      13.64947990 Ry

[...]

     total energy              =   -6260.68913751 Ry
     Harris-Foulkes estimate   =   -6260.68913755 Ry
     estimated scf accuracy    <       0.00000008 Ry

     iteration # 13     ecut=   120.00 Ry     beta= 0.70
     Davidson diagonalization with overlap
     ethr =  2.13E-11,  avg # of iterations =  2.4

     End of self-consistent calculation

          k = 0.0000 0.0000 0.0000 ( 62451 PWs)   bands (ev):

   -66.1066 -66.1061 -66.1056 -66.1056 -66.1052 -66.1052 -66.1047 -66.1042
   -30.5438 -30.5399 -30.5396 -30.5359 -30.4839 -30.4795 -30.4786 -30.4744
   -30.4480 -30.4468 -30.4427 -30.4411 -30.4406 -30.4389 -30.4382 -30.4353
   -30.3491 -30.3474 -30.3465 -30.3456 -30.3442 -30.3442 -30.3413 -30.3394
   -20.2585 -20.2583 -20.2581 -20.2579 -20.2567 -20.2566 -20.2564 -20.2563
   -20.2556 -20.2555 -20.2554 -20.2553 -20.2521 -20.2518 -20.2516 -20.2513
   -20.2472 -20.2469 -20.2467 -20.2465 -20.2459 -20.2457 -20.2455 -20.2453
   -20.2444 -20.2439 -20.2438 -20.2438 -20.2430 -20.2428 -20.2427 -20.2424
   -20.2330 -20.2329 -20.2325 -20.2324 -20.2323 -20.2321 -20.2318 -20.2317
   -20.2055 -20.2055 -20.2045 -20.2044 -20.2040 -20.2040 -20.2030 -20.2030
   -20.1996 -20.1995 -20.1987 -20.1987 -20.1982 -20.1981 -20.1972 -20.1972
    -9.9718  -9.6729  -9.5538  -9.5537  -9.2619  -9.2566  -9.1564  -9.0537
    -9.0391  -8.9401  -8.9085  -8.9072  -7.9028  -7.8417  -7.8375  -7.7863
    -7.7835  -7.7792  -7.7537  -7.7532  -7.6510  -7.6482  -7.6263  -7.6247
     1.1880   1.1900   1.2563   1.2620   1.2841   1.2958   1.3124   1.5379
     1.5559   1.5643   1.6024   1.8070   2.4077   2.4903   2.5287   2.5342
     2.6709   2.6799   4.1395   4.1538   4.3507   4.3757   4.7419   4.7741
     4.7864   4.7979   4.8220   4.8231   4.9606   4.9616   5.0623   5.4071
     5.4242   5.4385   5.4701   5.5141   5.5175   5.5449   5.5692   5.7993
     5.8139   5.8160   5.8190   5.8571   5.9270   6.0489   6.0572   6.1001
     6.1028   6.2460   6.2542   6.4889   6.4922   6.7763   6.7972   6.8174
     6.8224   6.8354   6.9757   6.9904   7.0383   7.0495   7.3203   7.3356
     7.3499   7.3640   7.8449   7.8597   8.0249   8.0491   8.0921   8.1162
     9.2931   9.2990   9.9051   9.9123   9.9230   9.9322  12.2772  12.2795
    12.3335  12.3573  12.3739  12.3957  12.5079  12.5224  12.8807  12.9759
    13.1846  13.2481  13.3159  13.3353  13.7814  14.0240  14.1290  14.1373
    14.2157  14.3758  14.4759  14.7968  15.3686  15.3822  15.5038  16.0306
    16.0464  16.8329  17.0337  17.0535  17.4073

[...]

          k = 0.3333-0.4766-0.4997 ( 62488 PWs)   bands (ev):

[...]

          k =-0.5000 0.0000 0.0000 ( 62552 PWs)   bands (ev):

[...]

          k =-0.5000-0.4766-0.4997 ( 62440 PWs)   bands (ev):

   -66.1054 -66.1054 -66.1054 -66.1054 -66.1054 -66.1054 -66.1054 -66.1054
   -30.5098 -30.5097 -30.5097 -30.5097 -30.5095 -30.5095 -30.5095 -30.5095
   -30.3975 -30.3975 -30.3975 -30.3975 -30.3956 -30.3956 -30.3956 -30.3956
   -30.3912 -30.3912 -30.3912 -30.3912 -30.3893 -30.3893 -30.3893 -30.3893
   -20.2569 -20.2568 -20.2568 -20.2568 -20.2568 -20.2568 -20.2568 -20.2568
   -20.2543 -20.2543 -20.2543 -20.2543 -20.2542 -20.2542 -20.2542 -20.2542
   -20.2455 -20.2455 -20.2455 -20.2454 -20.2451 -20.2451 -20.2451 -20.2451
   -20.2444 -20.2444 -20.2444 -20.2444 -20.2441 -20.2441 -20.2441 -20.2441
   -20.2323 -20.2323 -20.2323 -20.2323 -20.2322 -20.2322 -20.2322 -20.2322
   -20.2021 -20.2021 -20.2021 -20.2021 -20.2020 -20.2020 -20.2020 -20.2020
   -20.2009 -20.2009 -20.2009 -20.2009 -20.2008 -20.2008 -20.2008 -20.2008
    -8.9647  -8.9647  -8.9646  -8.9646  -8.9555  -8.9555  -8.9555  -8.9555
    -8.4449  -8.4449  -8.4449  -8.4449  -8.4283  -8.4283  -8.4283  -8.4283
    -8.3836  -8.3836  -8.3836  -8.3836  -8.3749  -8.3749  -8.3749  -8.3749
     2.9612   2.9612   2.9612   2.9612   3.0008   3.0008   3.0008   3.0008
     3.1194   3.1194   3.1194   3.1194   3.1714   3.1714   3.1714   3.1714
     3.3729   3.3729   3.3729   3.3729   3.4600   3.4600   3.4600   3.4600
     4.1215   4.1215   4.1215   4.1215   4.1346   4.1346   4.1346   4.1346
     4.3106   4.3106   4.3106   4.3107   4.3301   4.3301   4.3301   4.3301
     4.4116   4.4116   4.4116   4.4116   4.4405   4.4405   4.4405   4.4405
     7.1132   7.1132   7.1132   7.1132   7.2115   7.2115   7.2115   7.2115
     7.2963   7.2963   7.2963   7.2963   7.3131   7.3131   7.3131   7.3131
     7.5598   7.5598   7.5599   7.5599   7.5875   7.5875   7.5875   7.5875
    11.8392  11.8392  11.8392  11.8392  11.8497  11.8497  11.8497  11.8497
    12.1911  12.1911  12.1912  12.1912  12.2844  12.2844  12.2844  12.2844
    12.4704  12.4704  12.4704  12.4704  12.5140  12.5140  12.5140  12.5140
    17.0960  17.0960  17.0960  17.0960  17.1489  17.1489  17.1489  17.1489
    17.3904  17.3904  17.3905  17.3906  17.4145

     the Fermi energy is     9.8687 ev

!    total energy              =   -6260.68913753 Ry
     Harris-Foulkes estimate   =   -6260.68913753 Ry
     estimated scf accuracy    <          1.6E-09 Ry

     The total energy is the sum of the following terms:

     one-electron contribution =   -4738.84079021 Ry
     hartree contribution      =    2607.01858547 Ry
     xc contribution           =    -966.33142448 Ry
     ewald contribution        =   -3162.53549867 Ry
     smearing contrib. (-TS)   =      -0.00000964 Ry

     convergence has been achieved in  13 iterations

     Writing output data file Landau_6.save

     General routines

     Parallel routines

   This run was terminated on:   2:40: 0  21Mar2020

   JOB DONE.