     Program PWSCF v.6.2 (svn rev. 14038) starts on 24Mar2020 at  0:45:51

     K-points division:     npool     =      40
     Reading input from rscf.in

     Current dimensions of program PWSCF are:
     Max number of different atomic species (ntypx) = 10
     Max number of k-points (npk) =  40000
     Max angular momentum in pseudopotentials (lmaxx) =  3

     Subspace diagonalization in iterative solution of the eigenvalue problem:
     a serial algorithm will be used

     bravais-lattice index     =            0
     lattice parameter (alat)  =      13.8397  a.u.
     unit-cell volume          =    2804.9816 (a.u.)^3
     number of atoms/cell      =           32
     number of atomic types    =            2
     number of electrons       =       368.00
     number of Kohn-Sham states=          221
     kinetic-energy cutoff     =     120.0000  Ry
     charge density cutoff     =     480.0000  Ry
     convergence threshold     =      1.0E-08
     mixing beta               =       0.7000
     number of iterations used =            8  plain     mixing
     Exchange-correlation      = SLA PW NOGX NOGC ( 1  4  0  0 0 0)
     nstep                     =           50

     celldm(1)=  13.839685  celldm(2)=   0.000000  celldm(3)=   0.000000
     celldm(4)=   0.000000  celldm(5)=   0.000000  celldm(6)=   0.000000

     crystal axes: (cart. coord. in units of alat)
               a(1) = (   1.000000   0.000000   0.000000 )
               a(2) = (   0.000000   1.058160   0.000000 )
               a(3) = (   0.000000   0.000000   1.000000 )

     reciprocal axes: (cart. coord. in units 2 pi/alat)
               b(1) = (  1.000000  0.000000  0.000000 )
               b(2) = (  0.000000  0.945037  0.000000 )
               b(3) = (  0.000000  0.000000  1.000000 )

     PseudoPot. # 1 for W  read from file:
     /cluster/scratch/mnoe/QE/pps/W_ONCV_LDA-4.0.upf
     MD5 check sum: ba0307d5d4cd419d6f1d13dc49d7c13a
     Pseudo is Norm-conserving + core correction, Zval = 28.0
     Generated using ONCVPSP code by D. R. Hamann
     Using radial grid of 1380 points,  8 beta functions with:
                l(1) =   0
                l(2) =   0
                l(3) =   1
                l(4) =   1
                l(5) =   2
                l(6) =   2
                l(7) =   3
                l(8) =   3

     PseudoPot. # 2 for O  read from file:
     /cluster/scratch/mnoe/QE/pps/O_ONCV_LDA-3.0.upf
     MD5 check sum: a1bd6164e7280c17a38c229939bfbd54
     Pseudo is Norm-conserving + core correction, Zval =  6.0
     Generated using ONCVPSP code by D. R. Hamann
     Using radial grid of  926 points,  5 beta functions with:
                l(1) =   0
                l(2) =   0
                l(3) =   1
                l(4) =   1
                l(5) =   2

     atomic species   valence    mass     pseudopotential
        W             28.00   183.84000     W ( 1.00)
        O              6.00    15.99940     O ( 1.00)

      4 Sym. Ops. (no inversion) found ( 3 have fractional translation)

   Cartesian axes

     site n.     atom                  positions (alat units)
         1           W   tau(   1) = (   0.2457471   0.2925125   0.0019764  )
         2           W   tau(   2) = (   0.7522165   0.7656476  -0.0041328  )
         3           W   tau(   3) = (   0.2542529   0.2365676   0.5019764  )
         4           W   tau(   4) = (   0.7477835   0.8215925   0.4958672  )
         5           W   tau(   5) = (   0.7542529   0.2925125   0.4980236  )
         6           W   tau(   6) = (   0.2477835   0.7656476   0.5041328  )
         7           W   tau(   7) = (   0.7457471   0.2365676  -0.0019764  )
         8           W   tau(   8) = (   0.2522165   0.8215925   0.0041328  )
         9           O   tau(   9) = (   0.2437159   0.0072400  -0.0010398  )
        10           O   tau(  10) = (   0.7556511  -0.0072400  -0.0029386  )
        11           O   tau(  11) = (   0.2562841   0.5218401   0.4989602  )
        12           O   tau(  12) = (   0.7443489   0.5363201   0.4970614  )
        13           O   tau(  13) = (   0.7562840   0.0072400   0.5010398  )
        14           O   tau(  14) = (   0.2443489  -0.0072400   0.5029386  )
        15           O   tau(  15) = (   0.7437159   0.5218401   0.0010398  )
        16           O   tau(  16) = (   0.2556511   0.5363201   0.0029386  )
        17           O   tau(  17) = (   0.5013318   0.2575914   0.4628052  )
        18           O   tau(  18) = (   0.4995623   0.7996264   0.5371948  )
        19           O   tau(  19) = (  -0.0013318   0.2714887   0.9628053  )
        20           O   tau(  20) = (   0.0004377   0.7876138   0.0371947  )
        21           O   tau(  21) = (   0.4986682   0.2575914   0.0371947  )
        22           O   tau(  22) = (   0.5004377   0.7996264   0.9628053  )
        23           O   tau(  23) = (   0.0013318   0.2714887   0.5371948  )
        24           O   tau(  24) = (  -0.0004377   0.7876138   0.4628052  )
        25           O   tau(  25) = (   0.7128052   0.2652856   0.7489538  )
        26           O   tau(  26) = (   0.2871947   0.7971928   0.2516360  )
        27           O   tau(  27) = (   0.7871948   0.2637944   0.2489538  )
        28           O   tau(  28) = (   0.2128053   0.7900474   0.7516360  )
        29           O   tau(  29) = (   0.2871947   0.2652856   0.7510461  )
        30           O   tau(  30) = (   0.7128052   0.7971928   0.2483640  )
        31           O   tau(  31) = (   0.2128053   0.2637944   0.2510462  )
        32           O   tau(  32) = (   0.7871948   0.7900474   0.7483640  )

     number of k points=    64  gaussian smearing, width (Ry)=  0.0007
                       cart. coord. in units 2pi/alat
        k(    1) = (   0.0000000   0.0000000   0.0000000), wk =   0.0092593
        k(    2) = (   0.0000000   0.0000000   0.1666667), wk =   0.0185185
        k(    3) = (   0.0000000   0.0000000   0.3333333), wk =   0.0185185
        k(    4) = (   0.0000000   0.0000000  -0.5000000), wk =   0.0092593
        k(    5) = (   0.0000000   0.1575061   0.0000000), wk =   0.0185185
        k(    6) = (   0.0000000   0.1575061   0.1666667), wk =   0.0370370
        k(    7) = (   0.0000000   0.1575061   0.3333333), wk =   0.0370370
        k(    8) = (   0.0000000   0.1575061  -0.5000000), wk =   0.0185185
        k(    9) = (   0.0000000   0.3150122   0.0000000), wk =   0.0185185
        k(   10) = (   0.0000000   0.3150122   0.1666667), wk =   0.0370370
        k(   11) = (   0.0000000   0.3150122   0.3333333), wk =   0.0370370
        k(   12) = (   0.0000000   0.3150122  -0.5000000), wk =   0.0185185
        k(   13) = (   0.0000000  -0.4725183   0.0000000), wk =   0.0092593
        k(   14) = (   0.0000000  -0.4725183   0.1666667), wk =   0.0185185
        k(   15) = (   0.0000000  -0.4725183   0.3333333), wk =   0.0185185
        k(   16) = (   0.0000000  -0.4725183  -0.5000000), wk =   0.0092593
        k(   17) = (   0.1666667   0.0000000   0.1666667), wk =   0.0370370
        k(   18) = (   0.1666667   0.0000000   0.3333333), wk =   0.0370370
        k(   19) = (   0.1666667   0.0000000  -0.5000000), wk =   0.0185185
        k(   20) = (   0.1666667   0.1575061   0.1666667), wk =   0.0740741
        k(   21) = (   0.1666667   0.1575061   0.3333333), wk =   0.0740741
        k(   22) = (   0.1666667   0.1575061  -0.5000000), wk =   0.0370370
        k(   23) = (   0.1666667   0.3150122   0.1666667), wk =   0.0740741
        k(   24) = (   0.1666667   0.3150122   0.3333333), wk =   0.0740741
        k(   25) = (   0.1666667   0.3150122  -0.5000000), wk =   0.0370370
        k(   26) = (   0.1666667  -0.4725183   0.1666667), wk =   0.0370370
        k(   27) = (   0.1666667  -0.4725183   0.3333333), wk =   0.0370370
        k(   28) = (   0.1666667  -0.4725183  -0.5000000), wk =   0.0185185
        k(   29) = (   0.3333333   0.0000000   0.3333333), wk =   0.0370370
        k(   30) = (   0.3333333   0.0000000  -0.5000000), wk =   0.0185185
        k(   31) = (   0.3333333   0.1575061   0.3333333), wk =   0.0740741
        k(   32) = (   0.3333333   0.1575061  -0.5000000), wk =   0.0370370
        k(   33) = (   0.3333333   0.3150122   0.3333333), wk =   0.0740741
        k(   34) = (   0.3333333   0.3150122  -0.5000000), wk =   0.0370370
        k(   35) = (   0.3333333  -0.4725183   0.3333333), wk =   0.0370370
        k(   36) = (   0.3333333  -0.4725183  -0.5000000), wk =   0.0185185
        k(   37) = (  -0.5000000   0.0000000  -0.5000000), wk =   0.0092593
        k(   38) = (  -0.5000000   0.1575061  -0.5000000), wk =   0.0185185
        k(   39) = (  -0.5000000   0.3150122  -0.5000000), wk =   0.0185185
        k(   40) = (  -0.5000000  -0.4725183  -0.5000000), wk =   0.0092593
        k(   41) = (   0.1666667   0.0000000   0.0000000), wk =   0.0185185
        k(   42) = (   0.3333333   0.0000000   0.0000000), wk =   0.0185185
        k(   43) = (  -0.5000000   0.0000000   0.0000000), wk =   0.0092593
        k(   44) = (   0.1666667  -0.1575061   0.0000000), wk =   0.0370370
        k(   45) = (   0.3333333  -0.1575061   0.0000000), wk =   0.0370370
        k(   46) = (  -0.5000000  -0.1575061   0.0000000), wk =   0.0185185
        k(   47) = (   0.1666667  -0.3150122   0.0000000), wk =   0.0370370
        k(   48) = (   0.3333333  -0.3150122   0.0000000), wk =   0.0370370
        k(   49) = (  -0.5000000  -0.3150122   0.0000000), wk =   0.0185185
        k(   50) = (   0.1666667   0.4725183   0.0000000), wk =   0.0185185
        k(   51) = (   0.3333333   0.4725183   0.0000000), wk =   0.0185185
        k(   52) = (  -0.5000000   0.4725183   0.0000000), wk =   0.0092593
        k(   53) = (   0.3333333   0.0000000   0.1666667), wk =   0.0370370
        k(   54) = (  -0.5000000   0.0000000   0.1666667), wk =   0.0185185
        k(   55) = (   0.3333333  -0.1575061   0.1666667), wk =   0.0740741
        k(   56) = (  -0.5000000  -0.1575061   0.1666667), wk =   0.0370370
        k(   57) = (   0.3333333  -0.3150122   0.1666667), wk =   0.0740741
        k(   58) = (  -0.5000000  -0.3150122   0.1666667), wk =   0.0370370
        k(   59) = (   0.3333333   0.4725183   0.1666667), wk =   0.0370370
        k(   60) = (  -0.5000000   0.4725183   0.1666667), wk =   0.0185185
        k(   61) = (  -0.5000000   0.0000000   0.3333333), wk =   0.0185185
        k(   62) = (  -0.5000000  -0.1575061   0.3333333), wk =   0.0370370
        k(   63) = (  -0.5000000  -0.3150122   0.3333333), wk =   0.0370370
        k(   64) = (  -0.5000000   0.4725183   0.3333333), wk =   0.0185185

     Initial potential from superposition of free atoms

     starting charge  367.99656, renormalised to  368.00000
     Starting wfc are  232 randomized atomic wfcs

     Self-consistent Calculation

     iteration #  1     ecut=   120.00 Ry     beta= 0.70
     Davidson diagonalization with overlap
     ethr =  1.00E-02,  avg # of iterations =  5.2

     total energy              =   -6254.04643190 Ry
     Harris-Foulkes estimate   =   -6264.57720566 Ry
     estimated scf accuracy    <      13.35547790 Ry

[...]

     End of self-consistent calculation

[...]
End final coordinates

     A final scf calculation at the relaxed structure.
     The G-vectors are recalculated for the final unit cell
     Results may differ from those at the preceding step.

     bravais-lattice index     =            0
     lattice parameter (alat)  =      13.8397  a.u.
     unit-cell volume          =    2845.7813 (a.u.)^3
     number of atoms/cell      =           32
     number of atomic types    =            2
     number of electrons       =       368.00
     number of Kohn-Sham states=          221
     kinetic-energy cutoff     =     120.0000  Ry
     charge density cutoff     =     480.0000  Ry
     convergence threshold     =      1.0E-10
     mixing beta               =       0.7000
     number of iterations used =            8  plain     mixing
     Exchange-correlation      = SLA PW NOGX NOGC ( 1  4  0  0 0 0)

     celldm(1)=  13.839685  celldm(2)=   0.000000  celldm(3)=   0.000000
     celldm(4)=   0.000000  celldm(5)=   0.000000  celldm(6)=   0.000000

     crystal axes: (cart. coord. in units of alat)
               a(1) = (   1.011629   0.000000   0.000000 )
               a(2) = (   0.000000   1.048825   0.000000 )
               a(3) = (   0.000000   0.000000   1.011809 )

     reciprocal axes: (cart. coord. in units 2 pi/alat)
               b(1) = (  0.988505  0.000000  0.000000 )
               b(2) = (  0.000000  0.953448  0.000000 )
               b(3) = (  0.000000  0.000000  0.988329 )

     PseudoPot. # 1 for W  read from file:
     /cluster/scratch/mnoe/QE/pps/W_ONCV_LDA-4.0.upf
     MD5 check sum: ba0307d5d4cd419d6f1d13dc49d7c13a
     Pseudo is Norm-conserving + core correction, Zval = 28.0
     Generated using ONCVPSP code by D. R. Hamann
     Using radial grid of 1380 points,  8 beta functions with:
                l(1) =   0
                l(2) =   0
                l(3) =   1
                l(4) =   1
                l(5) =   2
                l(6) =   2
                l(7) =   3
                l(8) =   3

     PseudoPot. # 2 for O  read from file:
     /cluster/scratch/mnoe/QE/pps/O_ONCV_LDA-3.0.upf
     MD5 check sum: a1bd6164e7280c17a38c229939bfbd54
     Pseudo is Norm-conserving + core correction, Zval =  6.0
     Generated using ONCVPSP code by D. R. Hamann
     Using radial grid of  926 points,  5 beta functions with:
                l(1) =   0
                l(2) =   0
                l(3) =   1
                l(4) =   1
                l(5) =   2

     atomic species   valence    mass     pseudopotential
        W             28.00   183.84000     W ( 1.00)
        O              6.00    15.99940     O ( 1.00)

      4 Sym. Ops. (no inversion) found ( 3 have fractional translation)

   Cartesian axes

     site n.     atom                  positions (alat units)
         1           W   tau(   1) = (   0.2486049   0.2899319   0.0019997  )
         2           W   tau(   2) = (   0.7609641   0.7588931  -0.0041816  )
         3           W   tau(   3) = (   0.2572096   0.2344806   0.5079042  )
         4           W   tau(   4) = (   0.7564795   0.8143445   0.5017228  )
         5           W   tau(   5) = (   0.7630242   0.2899319   0.5039047  )
         6           W   tau(   6) = (   0.2506650   0.7588931   0.5100861  )
         7           W   tau(   7) = (   0.7544195   0.2344806  -0.0019997  )
         8           W   tau(   8) = (   0.2551495   0.8143445   0.0041816  )
         9           O   tau(   9) = (   0.2465501   0.0071761  -0.0010520  )
        10           O   tau(  10) = (   0.7644386  -0.0071761  -0.0029733  )
        11           O   tau(  11) = (   0.2592644   0.5172364   0.5048524  )
        12           O   tau(  12) = (   0.7530050   0.5315887   0.5029311  )
        13           O   tau(  13) = (   0.7650789   0.0071761   0.5069565  )
        14           O   tau(  14) = (   0.2471905  -0.0071761   0.5088778  )
        15           O   tau(  15) = (   0.7523647   0.5172364   0.0010520  )
        16           O   tau(  16) = (   0.2586241   0.5315887   0.0029733  )
        17           O   tau(  17) = (   0.5071618   0.2553189   0.4682705  )
        18           O   tau(  18) = (   0.5053718   0.7925721   0.5435385  )
        19           O   tau(  19) = (  -0.0013473   0.2690936   0.9741750  )
        20           O   tau(  20) = (   0.0004428   0.7806655   0.0376339  )
        21           O   tau(  21) = (   0.5044673   0.2553189   0.0376339  )
        22           O   tau(  22) = (   0.5062574   0.7925721   0.9741750  )
        23           O   tau(  23) = (   0.0013472   0.2690936   0.5435385  )
        24           O   tau(  24) = (  -0.0004428   0.7806655   0.4682705  )
        25           O   tau(  25) = (   0.7210945   0.2629453   0.7577981  )
        26           O   tau(  26) = (   0.2905345   0.7901600   0.2546075  )
        27           O   tau(  27) = (   0.7963492   0.2614672   0.2518937  )
        28           O   tau(  28) = (   0.2152800   0.7830776   0.7605120  )
        29           O   tau(  29) = (   0.2905345   0.2629453   0.7599152  )
        30           O   tau(  30) = (   0.7210945   0.7901600   0.2512969  )
        31           O   tau(  31) = (   0.2152800   0.2614672   0.2540108  )
        32           O   tau(  32) = (   0.7963492   0.7830776   0.7572013  )

     number of k points=    64  gaussian smearing, width (Ry)=  0.0007
                       cart. coord. in units 2pi/alat
        k(    1) = (   0.0000000   0.0000000   0.0000000), wk =   0.0092593
        k(    2) = (   0.0000000   0.0000000   0.1647215), wk =   0.0185185
        k(    3) = (   0.0000000   0.0000000   0.3294430), wk =   0.0185185
        k(    4) = (   0.0000000   0.0000000  -0.4941645), wk =   0.0092593
        k(    5) = (   0.0000000   0.1589080   0.0000000), wk =   0.0185185
        k(    6) = (   0.0000000   0.1589080   0.1647215), wk =   0.0370370
        k(    7) = (   0.0000000   0.1589080   0.3294430), wk =   0.0370370
        k(    8) = (   0.0000000   0.1589080  -0.4941645), wk =   0.0185185
        k(    9) = (   0.0000000   0.3178160   0.0000000), wk =   0.0185185
        k(   10) = (   0.0000000   0.3178160   0.1647215), wk =   0.0370370
        k(   11) = (   0.0000000   0.3178160   0.3294430), wk =   0.0370370
        k(   12) = (   0.0000000   0.3178160  -0.4941645), wk =   0.0185185
        k(   13) = (   0.0000000  -0.4767239   0.0000000), wk =   0.0092593
        k(   14) = (   0.0000000  -0.4767239   0.1647215), wk =   0.0185185
        k(   15) = (   0.0000000  -0.4767239   0.3294430), wk =   0.0185185
        k(   16) = (   0.0000000  -0.4767239  -0.4941645), wk =   0.0092593
        k(   17) = (   0.1647508   0.0000000   0.1647215), wk =   0.0370370
        k(   18) = (   0.1647508   0.0000000   0.3294430), wk =   0.0370370
        k(   19) = (   0.1647508   0.0000000  -0.4941645), wk =   0.0185185
        k(   20) = (   0.1647508   0.1589080   0.1647215), wk =   0.0740741
        k(   21) = (   0.1647508   0.1589080   0.3294430), wk =   0.0740741
        k(   22) = (   0.1647508   0.1589080  -0.4941645), wk =   0.0370370
        k(   23) = (   0.1647508   0.3178160   0.1647215), wk =   0.0740741
        k(   24) = (   0.1647508   0.3178160   0.3294430), wk =   0.0740741
        k(   25) = (   0.1647508   0.3178160  -0.4941645), wk =   0.0370370
        k(   26) = (   0.1647508  -0.4767239   0.1647215), wk =   0.0370370
        k(   27) = (   0.1647508  -0.4767239   0.3294430), wk =   0.0370370
        k(   28) = (   0.1647508  -0.4767239  -0.4941645), wk =   0.0185185
        k(   29) = (   0.3295015   0.0000000   0.3294430), wk =   0.0370370
        k(   30) = (   0.3295015   0.0000000  -0.4941645), wk =   0.0185185
        k(   31) = (   0.3295015   0.1589080   0.3294430), wk =   0.0740741
        k(   32) = (   0.3295015   0.1589080  -0.4941645), wk =   0.0370370
        k(   33) = (   0.3295015   0.3178160   0.3294430), wk =   0.0740741
        k(   34) = (   0.3295015   0.3178160  -0.4941645), wk =   0.0370370
        k(   35) = (   0.3295015  -0.4767239   0.3294430), wk =   0.0370370
        k(   36) = (   0.3295015  -0.4767239  -0.4941645), wk =   0.0185185
        k(   37) = (  -0.4942523   0.0000000  -0.4941645), wk =   0.0092593
        k(   38) = (  -0.4942523   0.1589080  -0.4941645), wk =   0.0185185
        k(   39) = (  -0.4942523   0.3178160  -0.4941645), wk =   0.0185185
        k(   40) = (  -0.4942523  -0.4767239  -0.4941645), wk =   0.0092593
        k(   41) = (   0.1647508   0.0000000   0.0000000), wk =   0.0185185
        k(   42) = (   0.3295015   0.0000000   0.0000000), wk =   0.0185185
        k(   43) = (  -0.4942523   0.0000000   0.0000000), wk =   0.0092593
        k(   44) = (   0.1647508  -0.1589080   0.0000000), wk =   0.0370370
        k(   45) = (   0.3295015  -0.1589080   0.0000000), wk =   0.0370370
        k(   46) = (  -0.4942523  -0.1589080   0.0000000), wk =   0.0185185
        k(   47) = (   0.1647508  -0.3178160   0.0000000), wk =   0.0370370
        k(   48) = (   0.3295015  -0.3178160   0.0000000), wk =   0.0370370
        k(   49) = (  -0.4942523  -0.3178160   0.0000000), wk =   0.0185185
        k(   50) = (   0.1647508   0.4767239   0.0000000), wk =   0.0185185
        k(   51) = (   0.3295015   0.4767239   0.0000000), wk =   0.0185185
        k(   52) = (  -0.4942523   0.4767239   0.0000000), wk =   0.0092593
        k(   53) = (   0.3295015   0.0000000   0.1647215), wk =   0.0370370
        k(   54) = (  -0.4942523   0.0000000   0.1647215), wk =   0.0185185
        k(   55) = (   0.3295015  -0.1589080   0.1647215), wk =   0.0740741
        k(   56) = (  -0.4942523  -0.1589080   0.1647215), wk =   0.0370370
        k(   57) = (   0.3295015  -0.3178160   0.1647215), wk =   0.0740741
        k(   58) = (  -0.4942523  -0.3178160   0.1647215), wk =   0.0370370
        k(   59) = (   0.3295015   0.4767239   0.1647215), wk =   0.0370370
        k(   60) = (  -0.4942523   0.4767239   0.1647215), wk =   0.0185185
        k(   61) = (  -0.4942523   0.0000000   0.3294430), wk =   0.0185185
        k(   62) = (  -0.4942523  -0.1589080   0.3294430), wk =   0.0370370
        k(   63) = (  -0.4942523  -0.3178160   0.3294430), wk =   0.0370370
        k(   64) = (  -0.4942523   0.4767239   0.3294430), wk =   0.0185185

     Initial potential from superposition of free atoms

     starting charge  367.99656, renormalised to  368.00000
     Starting wfc are  232 randomized atomic wfcs

     Writing output data file Landau_7.save

     Self-consistent Calculation

[...]

     total energy              =   -6261.10419802 Ry
     Harris-Foulkes estimate   =   -6261.10419802 Ry
     estimated scf accuracy    <          5.1E-10 Ry

     iteration # 16     ecut=   120.00 Ry     beta= 0.70
     Davidson diagonalization with overlap
     ethr =  1.40E-13,  avg # of iterations =  2.3

     End of self-consistent calculation

[...]

          k = 0.3295 0.4767 0.1647 ( 63156 PWs)   bands (ev):

[...]

          k =-0.4943 0.4767 0.3294 ( 63172 PWs)   bands (ev):

   -66.4387 -66.4387 -66.4387 -66.4387 -66.4383 -66.4383 -66.4383 -66.4383
   -30.7804 -30.7804 -30.7800 -30.7800 -30.7780 -30.7780 -30.7777 -30.7777
   -30.7521 -30.7521 -30.7498 -30.7498 -30.7301 -30.7301 -30.7281 -30.7281
   -30.7276 -30.7276 -30.7253 -30.7253 -30.7066 -30.7066 -30.7038 -30.7038
   -20.6060 -20.6060 -20.6060 -20.6060 -20.6059 -20.6059 -20.6059 -20.6059
   -20.5810 -20.5810 -20.5809 -20.5809 -20.5807 -20.5807 -20.5805 -20.5805
   -20.5801 -20.5801 -20.5801 -20.5801 -20.5798 -20.5798 -20.5796 -20.5796
   -20.5793 -20.5793 -20.5791 -20.5791 -20.5790 -20.5790 -20.5789 -20.5789
   -20.5724 -20.5724 -20.5723 -20.5723 -20.5716 -20.5716 -20.5716 -20.5716
   -20.5703 -20.5703 -20.5699 -20.5699 -20.5687 -20.5687 -20.5683 -20.5682
   -20.5682 -20.5682 -20.5679 -20.5679 -20.5666 -20.5666 -20.5663 -20.5663
    -9.4001  -9.4001  -9.3957  -9.3957  -9.0131  -9.0131  -9.0059  -9.0059
    -8.7814  -8.7814  -8.7751  -8.7751  -8.6303  -8.6303  -8.6204  -8.6204
    -8.5968  -8.5968  -8.5879  -8.5878  -8.3349  -8.3349  -8.3289  -8.3289
     2.0044   2.0044   2.0104   2.0104   2.7996   2.7997   2.8259   2.8259
     2.8969   2.8970   2.9074   2.9074   3.0464   3.0464   3.0750   3.0750
     3.1479   3.1479   3.1716   3.1717   3.4153   3.4153   3.4453   3.4453
     3.5357   3.5357   3.5892   3.5892   4.0020   4.0020   4.0166   4.0166
     4.0565   4.0565   4.1104   4.1104   4.1813   4.1813   4.2487   4.2487
     4.4199   4.4199   4.5281   4.5281   4.8058   4.8058   4.8200   4.8200
     6.8200   6.8200   6.8606   6.8606   6.9506   6.9506   6.9519   6.9519
     7.0847   7.0847   7.1189   7.1190   7.1451   7.1451   7.2013   7.2013
     7.2692   7.2692   7.3265   7.3265   7.4213   7.4213   7.4478   7.4478
    11.1687  11.1687  11.2116  11.2116  11.4084  11.4084  11.4829  11.4829
    11.9091  11.9091  11.9567  11.9567  11.9781  11.9781  11.9994  11.9994
    12.1940  12.1940  12.3180  12.3180  12.5993  12.5993  12.6807  12.6807
    16.3389  16.3389  16.3782  16.3782  16.8363  16.8363  16.8500  16.8500
    17.2157  17.2157  17.3043  17.3047  17.3516

     the Fermi energy is     8.7549 ev

!    total energy              =   -6261.10419802 Ry
     Harris-Foulkes estimate   =   -6261.10419802 Ry
     estimated scf accuracy    <          2.0E-11 Ry

     The total energy is the sum of the following terms:

     one-electron contribution =   -4783.01765916 Ry
     hartree contribution      =    2624.87598114 Ry
     xc contribution           =    -965.67034296 Ry
     ewald contribution        =   -3137.29217705 Ry
     smearing contrib. (-TS)   =      -0.00000000 Ry

     convergence has been achieved in  16 iterations

     Forces acting on atoms (cartesian axes, Ry/au):

     atom    1 type  1   force =    -0.00341886    0.01193488    0.00144307
     atom    2 type  1   force =     0.00206649   -0.01193804   -0.00308188
     atom    3 type  1   force =     0.00341886   -0.01193488    0.00144307
     atom    4 type  1   force =    -0.00206649    0.01193804   -0.00308188
     atom    5 type  1   force =     0.00341886    0.01193488   -0.00144307
     atom    6 type  1   force =    -0.00206649   -0.01193804    0.00308188
     atom    7 type  1   force =    -0.00341886   -0.01193488   -0.00144307
     atom    8 type  1   force =     0.00206649    0.01193804    0.00308188
     atom    9 type  2   force =    -0.00008854   -0.00621062   -0.00013655
     atom   10 type  2   force =     0.00012727    0.00620972    0.00006748
     atom   11 type  2   force =     0.00008854    0.00621062   -0.00013655
     atom   12 type  2   force =    -0.00012727   -0.00620972    0.00006748
     atom   13 type  2   force =     0.00008854   -0.00621062    0.00013655
     atom   14 type  2   force =    -0.00012727    0.00620972   -0.00006748
     atom   15 type  2   force =    -0.00008854    0.00621062    0.00013655
     atom   16 type  2   force =     0.00012727   -0.00620972   -0.00006748
     atom   17 type  2   force =    -0.00196445   -0.00023058   -0.00136016
     atom   18 type  2   force =     0.00095410    0.00022298    0.00137780
     atom   19 type  2   force =     0.00196445    0.00023058   -0.00136016
     atom   20 type  2   force =    -0.00095410   -0.00022298    0.00137780
     atom   21 type  2   force =     0.00196445   -0.00023058    0.00136016
     atom   22 type  2   force =    -0.00095410    0.00022298   -0.00137780
     atom   23 type  2   force =    -0.00196445    0.00023058    0.00136016
     atom   24 type  2   force =     0.00095410   -0.00022298   -0.00137780
     atom   25 type  2   force =    -0.00152792    0.00009378    0.00127407
     atom   26 type  2   force =     0.00150600    0.00004646   -0.00212517
     atom   27 type  2   force =     0.00152792   -0.00009378    0.00127407
     atom   28 type  2   force =    -0.00150600   -0.00004646   -0.00212517
     atom   29 type  2   force =     0.00152792    0.00009378   -0.00127407
     atom   30 type  2   force =    -0.00150600    0.00004646    0.00212517
     atom   31 type  2   force =    -0.00152792   -0.00009378   -0.00127407
     atom   32 type  2   force =     0.00150600   -0.00004646    0.00212517

     Total force =     0.000000     Total SCF correction =     0.000000

     Computing stress (Cartesian axis) and pressure

          total   stress  (Ry/bohr**3)                   (kbar)     P=    0.53
   0.00000526   0.00000000   0.00000000          0.77      0.00      0.00
   0.00000000   0.00000022   0.00000000          0.00      0.03      0.00
   0.00000000   0.00000000   0.00000534          0.00      0.00      0.79

     Writing output data file Landau_7.save

     General routines

     Parallel routines

   This run was terminated on:   7: 4:35  24Mar2020

   JOB DONE.