     Program PWSCF v.6.4.1 starts on 17Dec2019 at 14:52: 3

     K-points division:     npool     =      40
     Reading input from scf.in

     Current dimensions of program PWSCF are:
     Max number of different atomic species (ntypx) = 10
     Max number of k-points (npk) =  40000
     Max angular momentum in pseudopotentials (lmaxx) =  3

     Subspace diagonalization in iterative solution of the eigenvalue problem:
     a serial algorithm will be used

     Message from routine setup:
     using ibrav=0 with symmetry is DISCOURAGED, use correct ibrav instead

     bravais-lattice index     =            0
     lattice parameter (alat)  =      13.8270  a.u.
     unit-cell volume          =    2783.6906 (a.u.)^3
     number of atoms/cell      =           32
     number of atomic types    =            2
     number of electrons       =       368.20
     number of Kohn-Sham states=          221
     kinetic-energy cutoff     =     120.0000  Ry
     charge density cutoff     =     480.0000  Ry
     convergence threshold     =      1.0E-08
     mixing beta               =       0.7000
     number of iterations used =            8  plain     mixing
     Exchange-correlation      = SLA PW NOGX NOGC ( 1  4  0  0 0 0)

     celldm(1)=  13.827018  celldm(2)=   0.000000  celldm(3)=   0.000000
     celldm(4)=   0.000000  celldm(5)=   0.000000  celldm(6)=   0.000000

     crystal axes: (cart. coord. in units of alat)
               a(1) = (   1.000000   0.000000   0.000000 )
               a(2) = (   0.000000   1.048421   0.000000 )
               a(3) = (   0.000000   0.000000   1.004384 )

     reciprocal axes: (cart. coord. in units 2 pi/alat)
               b(1) = (  1.000000  0.000000  0.000000 )
               b(2) = (  0.000000  0.953815  0.000000 )
               b(3) = (  0.000000  0.000000  0.995635 )

     PseudoPot. # 1 for W  read from file:
     /cluster/scratch/mnoe/QE/pps/W_ONCV_LDA-4.0.upf
     MD5 check sum: ba0307d5d4cd419d6f1d13dc49d7c13a
     Pseudo is Norm-conserving + core correction, Zval = 28.0
     Generated using ONCVPSP code by D. R. Hamann
     Using radial grid of 1380 points,  8 beta functions with:
                l(1) =   0
                l(2) =   0
                l(3) =   1
                l(4) =   1
                l(5) =   2
                l(6) =   2
                l(7) =   3
                l(8) =   3

     PseudoPot. # 2 for O  read from file:
     /cluster/scratch/mnoe/QE/pps/O_ONCV_LDA-3.0.upf
     MD5 check sum: b55cdb4f45ae2203d24ad12cf8d61a31
     Pseudo is Norm-conserving + core correction, Zval =  6.0
     Generated using ONCVPSP code by D. R. Hamann
     Using radial grid of  926 points,  5 beta functions with:
                l(1) =   0
                l(2) =   0
                l(3) =   1
                l(4) =   1
                l(5) =   2

     atomic species   valence    mass     pseudopotential
        W             28.00   183.84000     W ( 1.00)
        O              6.00    15.99940     O ( 1.00)

      8 Sym. Ops., with inversion, found ( 6 have fractional translation)

   Cartesian axes

     site n.     atom                  positions (alat units)
         1           W   tau(   1) = (   0.2365900   0.2955080   0.0127255  )
         2           W   tau(   2) = (   0.7634100   0.7529131   0.9916582  )
         3           W   tau(   3) = (   0.2634100   0.2287026   0.5149174  )
         4           W   tau(   4) = (   0.7365900   0.8197184   0.4894663  )
         5           W   tau(   5) = (   0.7634100   0.2955080   0.4894663  )
         6           W   tau(   6) = (   0.2365900   0.7529131   0.5149174  )
         7           W   tau(   7) = (   0.7365900   0.2287026   0.9916582  )
         8           W   tau(   8) = (   0.2634100   0.8197184   0.0127255  )
         9           O   tau(   9) = (   0.2252600   0.0087229   0.0039573  )
        10           O   tau(  10) = (   0.7747400   1.0396982   1.0004265  )
        11           O   tau(  11) = (   0.2747400   0.5154877   0.5061491  )
        12           O   tau(  12) = (   0.7252600   0.5329334   0.4982346  )
        13           O   tau(  13) = (   0.7747400   0.0087229   0.4982346  )
        14           O   tau(  14) = (   0.2252600   1.0396982   0.5061491  )
        15           O   tau(  15) = (   0.7252600   0.5154877   1.0004265  )
        16           O   tau(  16) = (   0.2747400   0.5329334   0.0039573  )
        17           O   tau(  17) = (   0.5036700   0.2354963   0.4515107  )
        18           O   tau(  18) = (   0.4963300   0.8129247   0.5528730  )
        19           O   tau(  19) = (   0.9963300   0.2887142   0.9537026  )
        20           O   tau(  20) = (   0.0036700   0.7597068   0.0506812  )
        21           O   tau(  21) = (   0.4963300   0.2354963   0.0506812  )
        22           O   tau(  22) = (   0.5036700   0.8129247   0.9537026  )
        23           O   tau(  23) = (   0.0036700   0.2887142   0.5528730  )
        24           O   tau(  24) = (   0.9963300   0.7597068   0.4515107  )
        25           O   tau(  25) = (   0.6995400   0.2562970   0.7477035  )
        26           O   tau(  26) = (   0.3004600   0.7921240   0.2566803  )
        27           O   tau(  27) = (   0.8004600   0.2679135   0.2455116  )
        28           O   tau(  28) = (   0.1995400   0.7805075   0.7588721  )
        29           O   tau(  29) = (   0.3004600   0.2562970   0.7588721  )
        30           O   tau(  30) = (   0.6995400   0.7921240   0.2455116  )
        31           O   tau(  31) = (   0.1995400   0.2679135   0.2566803  )
        32           O   tau(  32) = (   0.8004600   0.7805075   0.7477035  )

     number of k points=    64  gaussian smearing, width (Ry)=  0.0007
                       cart. coord. in units 2pi/alat
        k(    1) = (   0.0000000   0.0000000   0.0000000), wk =   0.0092593
        k(    2) = (   0.0000000   0.0000000   0.1659392), wk =   0.0185185
        k(    3) = (   0.0000000   0.0000000   0.3318785), wk =   0.0185185
        k(    4) = (   0.0000000   0.0000000  -0.4978177), wk =   0.0092593
        k(    5) = (   0.0000000   0.1589692   0.0000000), wk =   0.0185185
        k(    6) = (   0.0000000   0.1589692   0.1659392), wk =   0.0370370
        k(    7) = (   0.0000000   0.1589692   0.3318785), wk =   0.0370370
        k(    8) = (   0.0000000   0.1589692  -0.4978177), wk =   0.0185185
        k(    9) = (   0.0000000   0.3179384   0.0000000), wk =   0.0185185
        k(   10) = (   0.0000000   0.3179384   0.1659392), wk =   0.0370370
        k(   11) = (   0.0000000   0.3179384   0.3318785), wk =   0.0370370
        k(   12) = (   0.0000000   0.3179384  -0.4978177), wk =   0.0185185
        k(   13) = (   0.0000000  -0.4769076   0.0000000), wk =   0.0092593
        k(   14) = (   0.0000000  -0.4769076   0.1659392), wk =   0.0185185
        k(   15) = (   0.0000000  -0.4769076   0.3318785), wk =   0.0185185
        k(   16) = (   0.0000000  -0.4769076  -0.4978177), wk =   0.0092593
        k(   17) = (   0.1666667   0.0000000   0.0000000), wk =   0.0185185
        k(   18) = (   0.1666667   0.0000000   0.1659392), wk =   0.0370370
        k(   19) = (   0.1666667   0.0000000   0.3318785), wk =   0.0370370
        k(   20) = (   0.1666667   0.0000000  -0.4978177), wk =   0.0185185
        k(   21) = (   0.1666667   0.1589692   0.0000000), wk =   0.0370370
        k(   22) = (   0.1666667   0.1589692   0.1659392), wk =   0.0740741
        k(   23) = (   0.1666667   0.1589692   0.3318785), wk =   0.0740741
        k(   24) = (   0.1666667   0.1589692  -0.4978177), wk =   0.0370370
        k(   25) = (   0.1666667   0.3179384   0.0000000), wk =   0.0370370
        k(   26) = (   0.1666667   0.3179384   0.1659392), wk =   0.0740741
        k(   27) = (   0.1666667   0.3179384   0.3318785), wk =   0.0740741
        k(   28) = (   0.1666667   0.3179384  -0.4978177), wk =   0.0370370
        k(   29) = (   0.1666667  -0.4769076   0.0000000), wk =   0.0185185
        k(   30) = (   0.1666667  -0.4769076   0.1659392), wk =   0.0370370
        k(   31) = (   0.1666667  -0.4769076   0.3318785), wk =   0.0370370
        k(   32) = (   0.1666667  -0.4769076  -0.4978177), wk =   0.0185185
        k(   33) = (   0.3333333   0.0000000   0.0000000), wk =   0.0185185
        k(   34) = (   0.3333333   0.0000000   0.1659392), wk =   0.0370370
        k(   35) = (   0.3333333   0.0000000   0.3318785), wk =   0.0370370
        k(   36) = (   0.3333333   0.0000000  -0.4978177), wk =   0.0185185
        k(   37) = (   0.3333333   0.1589692   0.0000000), wk =   0.0370370
        k(   38) = (   0.3333333   0.1589692   0.1659392), wk =   0.0740741
        k(   39) = (   0.3333333   0.1589692   0.3318785), wk =   0.0740741
        k(   40) = (   0.3333333   0.1589692  -0.4978177), wk =   0.0370370
        k(   41) = (   0.3333333   0.3179384   0.0000000), wk =   0.0370370
        k(   42) = (   0.3333333   0.3179384   0.1659392), wk =   0.0740741
        k(   43) = (   0.3333333   0.3179384   0.3318785), wk =   0.0740741
        k(   44) = (   0.3333333   0.3179384  -0.4978177), wk =   0.0370370
        k(   45) = (   0.3333333  -0.4769076   0.0000000), wk =   0.0185185
        k(   46) = (   0.3333333  -0.4769076   0.1659392), wk =   0.0370370
        k(   47) = (   0.3333333  -0.4769076   0.3318785), wk =   0.0370370
        k(   48) = (   0.3333333  -0.4769076  -0.4978177), wk =   0.0185185
        k(   49) = (  -0.5000000   0.0000000   0.0000000), wk =   0.0092593
        k(   50) = (  -0.5000000   0.0000000   0.1659392), wk =   0.0185185
        k(   51) = (  -0.5000000   0.0000000   0.3318785), wk =   0.0185185
        k(   52) = (  -0.5000000   0.0000000  -0.4978177), wk =   0.0092593
        k(   53) = (  -0.5000000   0.1589692   0.0000000), wk =   0.0185185
        k(   54) = (  -0.5000000   0.1589692   0.1659392), wk =   0.0370370
        k(   55) = (  -0.5000000   0.1589692   0.3318785), wk =   0.0370370
        k(   56) = (  -0.5000000   0.1589692  -0.4978177), wk =   0.0185185
        k(   57) = (  -0.5000000   0.3179384   0.0000000), wk =   0.0185185
        k(   58) = (  -0.5000000   0.3179384   0.1659392), wk =   0.0370370
        k(   59) = (  -0.5000000   0.3179384   0.3318785), wk =   0.0370370
        k(   60) = (  -0.5000000   0.3179384  -0.4978177), wk =   0.0185185
        k(   61) = (  -0.5000000  -0.4769076   0.0000000), wk =   0.0092593
        k(   62) = (  -0.5000000  -0.4769076   0.1659392), wk =   0.0185185
        k(   63) = (  -0.5000000  -0.4769076   0.3318785), wk =   0.0185185
        k(   64) = (  -0.5000000  -0.4769076  -0.4978177), wk =   0.0092593

     Initial potential from superposition of free atoms

     starting charge  367.99656, renormalised to  368.20000
     Starting wfcs are  232 randomized atomic wfcs

     Self-consistent Calculation

     iteration #  1     ecut=   120.00 Ry     beta= 0.70
     Davidson diagonalization with overlap
     ethr =  1.00E-02,  avg # of iterations =  5.2

     total energy              =   -6253.83957234 Ry
     Harris-Foulkes estimate   =   -6264.44749124 Ry
     estimated scf accuracy    <      13.41194842 Ry

[...]

     total energy              =   -6260.96733121 Ry
     Harris-Foulkes estimate   =   -6260.96733122 Ry
     estimated scf accuracy    <       0.00000002 Ry

     iteration # 13     ecut=   120.00 Ry     beta= 0.70
     Davidson diagonalization with overlap
     ethr =  4.92E-12,  avg # of iterations =  2.5

     End of self-consistent calculation

          k = 0.0000 0.0000 0.0000 ( 61735 PWs)   bands (ev):

   -65.9752 -65.9747 -65.9742 -65.9742 -65.9738 -65.9737 -65.9732 -65.9727
   -30.3902 -30.3833 -30.3822 -30.3751 -30.3521 -30.3450 -30.3408 -30.3402
   -30.3400 -30.3261 -30.3205 -30.3152 -30.3144 -30.3053 -30.2984 -30.2871
   -30.2416 -30.2399 -30.2378 -30.2371 -30.2292 -30.2234 -30.2217 -30.2161
   -20.1309 -20.1307 -20.1305 -20.1304 -20.1304 -20.1303 -20.1300 -20.1299
   -20.1131 -20.1127 -20.1126 -20.1122 -20.1118 -20.1114 -20.1113 -20.1108
   -20.1094 -20.1092 -20.1088 -20.1087 -20.1081 -20.1077 -20.1076 -20.1072
   -20.1071 -20.1068 -20.1064 -20.1062 -20.1045 -20.1043 -20.1038 -20.1036
   -20.0980 -20.0977 -20.0976 -20.0974 -20.0931 -20.0930 -20.0926 -20.0923
   -20.0921 -20.0918 -20.0917 -20.0916 -20.0866 -20.0865 -20.0855 -20.0854
   -20.0823 -20.0821 -20.0809 -20.0806 -20.0796 -20.0794 -20.0783 -20.0781
    -9.8163  -9.5126  -9.3678  -9.3653  -9.0831  -9.0551  -8.9394  -8.8690
    -8.8510  -8.7379  -8.7009  -8.6969  -7.7697  -7.6963  -7.6707  -7.6491
    -7.6423  -7.6399  -7.6395  -7.5845  -7.5376  -7.5158  -7.5056  -7.4984
     1.4129   1.4217   1.4777   1.4831   1.5071   1.5447   1.5450   1.7611
     1.7655   1.8144   1.8254   2.0399   2.5188   2.6086   2.6807   2.7127
     2.8247   2.8787   4.2378   4.3076   4.4769   4.6207   4.8158   4.8929
     4.9305   4.9524   4.9547   4.9576   5.1991   5.2247   5.3170   5.5215
     5.6113   5.6406   5.6812   5.6917   5.7390   5.7671   5.8808   5.9205
     5.9333   5.9662   5.9822   6.0308   6.0526   6.0950   6.1334   6.2219
     6.2521   6.3476   6.3909   6.6448   6.6667   6.9035   6.9045   6.9608
     7.0158   7.0316   7.0419   7.0891   7.0962   7.1674   7.3611   7.4051
     7.4492   7.4893   7.8497   7.8712   8.0811   8.1464   8.2181   8.2767
     9.7001   9.7206  10.2264  10.2464  10.2762  10.3003  12.3268  12.3719
    12.4797  12.5596  12.6165  12.6193  12.6520  12.7400  12.8057  12.8948
    13.3659  13.4160  13.4266  13.5081  13.7763  13.9098  14.2263  14.2280
    14.5956  14.6332  14.8786  15.0521  15.5491  15.5809  15.7023  16.0948
    16.1816  16.8859  17.0529  17.1651  17.7173

[...]

          k = 0.3333-0.4769-0.4978 ( 61736 PWs)   bands (ev):

[...]

          k =-0.5000 0.0000 0.0000 ( 61752 PWs)   bands (ev):

[...]

          k =-0.5000-0.4769-0.4978 ( 61784 PWs)   bands (ev):

   -65.9740 -65.9740 -65.9740 -65.9740 -65.9740 -65.9740 -65.9739 -65.9739
   -30.3536 -30.3536 -30.3536 -30.3536 -30.3527 -30.3527 -30.3527 -30.3527
   -30.2932 -30.2931 -30.2931 -30.2931 -30.2904 -30.2904 -30.2904 -30.2904
   -30.2650 -30.2650 -30.2650 -30.2650 -30.2623 -30.2623 -30.2623 -30.2623
   -20.1304 -20.1304 -20.1304 -20.1304 -20.1304 -20.1304 -20.1304 -20.1304
   -20.1120 -20.1120 -20.1120 -20.1120 -20.1119 -20.1119 -20.1119 -20.1119
   -20.1079 -20.1079 -20.1079 -20.1079 -20.1077 -20.1077 -20.1077 -20.1077
   -20.1062 -20.1062 -20.1062 -20.1062 -20.1060 -20.1060 -20.1060 -20.1060
   -20.0949 -20.0949 -20.0949 -20.0949 -20.0946 -20.0946 -20.0945 -20.0945
   -20.0893 -20.0893 -20.0893 -20.0893 -20.0891 -20.0891 -20.0891 -20.0891
   -20.0804 -20.0804 -20.0804 -20.0804 -20.0804 -20.0804 -20.0804 -20.0804
    -8.8199  -8.8199  -8.8199  -8.8199  -8.7933  -8.7933  -8.7933  -8.7933
    -8.2900  -8.2900  -8.2900  -8.2900  -8.2531  -8.2531  -8.2531  -8.2530
    -8.2084  -8.2084  -8.2084  -8.2084  -8.1703  -8.1703  -8.1702  -8.1702
     3.0176   3.0176   3.0176   3.0176   3.1136   3.1136   3.1136   3.1136
     3.2747   3.2747   3.2747   3.2747   3.4088   3.4088   3.4088   3.4088
     3.4739   3.4739   3.4739   3.4739   3.6715   3.6715   3.6715   3.6715
     4.2753   4.2753   4.2753   4.2753   4.3018   4.3018   4.3018   4.3018
     4.4812   4.4812   4.4812   4.4812   4.5547   4.5547   4.5547   4.5547
     4.6287   4.6287   4.6287   4.6287   4.7090   4.7090   4.7091   4.7091
     7.2023   7.2023   7.2023   7.2023   7.3879   7.3879   7.3879   7.3879
     7.4464   7.4464   7.4464   7.4464   7.5110   7.5110   7.5111   7.5111
     7.6650   7.6650   7.6650   7.6650   7.7443   7.7443   7.7443   7.7443
    12.0167  12.0167  12.0167  12.0167  12.0380  12.0380  12.0380  12.0380
    12.3331  12.3332  12.3332  12.3332  12.5162  12.5162  12.5162  12.5162
    12.6724  12.6724  12.6724  12.6724  12.7797  12.7797  12.7797  12.7797
    17.1781  17.1781  17.1781  17.1782  17.2700  17.2701  17.2701  17.2701
    17.4851  17.4851  17.4851  17.4851  17.5662

     the Fermi energy is    10.0018 ev

!    total energy              =   -6260.96733121 Ry
     Harris-Foulkes estimate   =   -6260.96733121 Ry
     estimated scf accuracy    <          1.1E-09 Ry

     The total energy is the sum of the following terms:

     one-electron contribution =   -4682.39731906 Ry
     hartree contribution      =    2580.35749864 Ry
     xc contribution           =    -965.88206033 Ry
     ewald contribution        =   -3193.04542423 Ry
     smearing contrib. (-TS)   =      -0.00002624 Ry

     convergence has been achieved in  13 iterations

     Writing output data file chempot_2.save/

     General routines

     Parallel routines

   This run was terminated on:  15:23: 0  17Dec2019

   JOB DONE.