     Program PWSCF v.6.4.1 starts on 21Nov2019 at 18: 0:31

     K-points division:     npool     =      40
     Reading input from rscf.in

     Current dimensions of program PWSCF are:
     Max number of different atomic species (ntypx) = 10
     Max number of k-points (npk) =  40000
     Max angular momentum in pseudopotentials (lmaxx) =  3

     Subspace diagonalization in iterative solution of the eigenvalue problem:
     a serial algorithm will be used

     Message from routine setup:
     using ibrav=0 with symmetry is DISCOURAGED, use correct ibrav instead

     bravais-lattice index     =            0
     lattice parameter (alat)  =       9.7849  a.u.
     unit-cell volume          =    1402.1515 (a.u.)^3
     number of atoms/cell      =           16
     number of atomic types    =            2
     number of electrons       =       184.00
     number of Kohn-Sham states=          110
     kinetic-energy cutoff     =     120.0000  Ry
     charge density cutoff     =     480.0000  Ry
     convergence threshold     =      1.0E-08
     mixing beta               =       0.7000
     number of iterations used =            8  plain     mixing
     Exchange-correlation      = SLA PW NOGX NOGC ( 1  4  0  0 0 0)
     nstep                     =           50

     celldm(1)=   9.784926  celldm(2)=   0.000000  celldm(3)=   0.000000
     celldm(4)=   0.000000  celldm(5)=   0.000000  celldm(6)=   0.000000

     crystal axes: (cart. coord. in units of alat)
               a(1) = (   1.000000   0.000000   0.000000 )
               a(2) = (   0.000000   1.000000   0.000000 )
               a(3) = (   0.000000   0.000000   1.496657 )

     reciprocal axes: (cart. coord. in units 2 pi/alat)
               b(1) = (  1.000000  0.000000  0.000000 )
               b(2) = (  0.000000  1.000000  0.000000 )
               b(3) = (  0.000000  0.000000  0.668156 )

     PseudoPot. # 1 for W  read from file:
     /cluster/scratch/mnoe/QE/pps/W_ONCV_LDA-4.0.upf
     MD5 check sum: ba0307d5d4cd419d6f1d13dc49d7c13a
     Pseudo is Norm-conserving + core correction, Zval = 28.0
     Generated using ONCVPSP code by D. R. Hamann
     Using radial grid of 1380 points,  8 beta functions with:
                l(1) =   0
                l(2) =   0
                l(3) =   1
                l(4) =   1
                l(5) =   2
                l(6) =   2
                l(7) =   3
                l(8) =   3

     PseudoPot. # 2 for O  read from file:
     /cluster/scratch/mnoe/QE/pps/O_ONCV_LDA-3.0.upf
     MD5 check sum: b55cdb4f45ae2203d24ad12cf8d61a31
     Pseudo is Norm-conserving + core correction, Zval =  6.0
     Generated using ONCVPSP code by D. R. Hamann
     Using radial grid of  926 points,  5 beta functions with:
                l(1) =   0
                l(2) =   0
                l(3) =   1
                l(4) =   1
                l(5) =   2

     atomic species   valence    mass     pseudopotential
        W             28.00   183.84000     W ( 1.00)
        O              6.00    15.99940     O ( 1.00)

     16 Sym. Ops., with inversion, found (14 have fractional translation)

   Cartesian axes

     site n.     atom                  positions (alat units)
         1           W   tau(   1) = (   0.2500000   0.2500000   0.3086670  )
         2           W   tau(   2) = (   0.7500000   0.7500000   1.1879900  )
         3           W   tau(   3) = (   0.7500000   0.7500000   0.4396615  )
         4           W   tau(   4) = (   0.2500000   0.2500000   1.0569955  )
         5           O   tau(   5) = (   0.2500000   0.2500000   0.7022070  )
         6           O   tau(   6) = (   0.7500000   0.7500000   0.7944500  )
         7           O   tau(   7) = (   0.7500000   0.7500000   0.0461215  )
         8           O   tau(   8) = (   0.2500000   0.2500000   1.4505355  )
         9           O   tau(   9) = (   0.5108494   0.4891505   0.3741643  )
        10           O   tau(  10) = (   0.4891506   0.5108495   1.1224928  )
        11           O   tau(  11) = (  -0.0108495   1.0108495   0.3741643  )
        12           O   tau(  12) = (   1.0108494  -0.0108494   1.1224928  )
        13           O   tau(  13) = (   1.0108495   0.5108494   0.3741643  )
        14           O   tau(  14) = (  -0.0108494   0.4891506   1.1224928  )
        15           O   tau(  15) = (   0.4891505  -0.0108495   0.3741643  )
        16           O   tau(  16) = (   0.5108495   1.0108494   1.1224928  )

     number of k points=    60  gaussian smearing, width (Ry)=  0.0007
                       cart. coord. in units 2pi/alat
        k(    1) = (   0.0000000   0.0000000   0.0000000), wk =   0.0041152
        k(    2) = (   0.0000000   0.0000000   0.1113593), wk =   0.0082305
        k(    3) = (   0.0000000   0.0000000   0.2227186), wk =   0.0082305
        k(    4) = (   0.0000000   0.0000000  -0.3340779), wk =   0.0041152
        k(    5) = (   0.0000000   0.1111111   0.0000000), wk =   0.0164609
        k(    6) = (   0.0000000   0.1111111   0.1113593), wk =   0.0329218
        k(    7) = (   0.0000000   0.1111111   0.2227186), wk =   0.0329218
        k(    8) = (   0.0000000   0.1111111  -0.3340779), wk =   0.0164609
        k(    9) = (   0.0000000   0.2222222   0.0000000), wk =   0.0164609
        k(   10) = (   0.0000000   0.2222222   0.1113593), wk =   0.0329218
        k(   11) = (   0.0000000   0.2222222   0.2227186), wk =   0.0329218
        k(   12) = (   0.0000000   0.2222222  -0.3340779), wk =   0.0164609
        k(   13) = (   0.0000000   0.3333333   0.0000000), wk =   0.0164609
        k(   14) = (   0.0000000   0.3333333   0.1113593), wk =   0.0329218
        k(   15) = (   0.0000000   0.3333333   0.2227186), wk =   0.0329218
        k(   16) = (   0.0000000   0.3333333  -0.3340779), wk =   0.0164609
        k(   17) = (   0.0000000   0.4444444   0.0000000), wk =   0.0164609
        k(   18) = (   0.0000000   0.4444444   0.1113593), wk =   0.0329218
        k(   19) = (   0.0000000   0.4444444   0.2227186), wk =   0.0329218
        k(   20) = (   0.0000000   0.4444444  -0.3340779), wk =   0.0164609
        k(   21) = (   0.1111111   0.1111111   0.0000000), wk =   0.0164609
        k(   22) = (   0.1111111   0.1111111   0.1113593), wk =   0.0329218
        k(   23) = (   0.1111111   0.1111111   0.2227186), wk =   0.0329218
        k(   24) = (   0.1111111   0.1111111  -0.3340779), wk =   0.0164609
        k(   25) = (   0.1111111   0.2222222   0.0000000), wk =   0.0329218
        k(   26) = (   0.1111111   0.2222222   0.1113593), wk =   0.0658436
        k(   27) = (   0.1111111   0.2222222   0.2227186), wk =   0.0658436
        k(   28) = (   0.1111111   0.2222222  -0.3340779), wk =   0.0329218
        k(   29) = (   0.1111111   0.3333333   0.0000000), wk =   0.0329218
        k(   30) = (   0.1111111   0.3333333   0.1113593), wk =   0.0658436
        k(   31) = (   0.1111111   0.3333333   0.2227186), wk =   0.0658436
        k(   32) = (   0.1111111   0.3333333  -0.3340779), wk =   0.0329218
        k(   33) = (   0.1111111   0.4444444   0.0000000), wk =   0.0329218
        k(   34) = (   0.1111111   0.4444444   0.1113593), wk =   0.0658436
        k(   35) = (   0.1111111   0.4444444   0.2227186), wk =   0.0658436
        k(   36) = (   0.1111111   0.4444444  -0.3340779), wk =   0.0329218
        k(   37) = (   0.2222222   0.2222222   0.0000000), wk =   0.0164609
        k(   38) = (   0.2222222   0.2222222   0.1113593), wk =   0.0329218
        k(   39) = (   0.2222222   0.2222222   0.2227186), wk =   0.0329218
        k(   40) = (   0.2222222   0.2222222  -0.3340779), wk =   0.0164609
        k(   41) = (   0.2222222   0.3333333   0.0000000), wk =   0.0329218
        k(   42) = (   0.2222222   0.3333333   0.1113593), wk =   0.0658436
        k(   43) = (   0.2222222   0.3333333   0.2227186), wk =   0.0658436
        k(   44) = (   0.2222222   0.3333333  -0.3340779), wk =   0.0329218
        k(   45) = (   0.2222222   0.4444444   0.0000000), wk =   0.0329218
        k(   46) = (   0.2222222   0.4444444   0.1113593), wk =   0.0658436
        k(   47) = (   0.2222222   0.4444444   0.2227186), wk =   0.0658436
        k(   48) = (   0.2222222   0.4444444  -0.3340779), wk =   0.0329218
        k(   49) = (   0.3333333   0.3333333   0.0000000), wk =   0.0164609
        k(   50) = (   0.3333333   0.3333333   0.1113593), wk =   0.0329218
        k(   51) = (   0.3333333   0.3333333   0.2227186), wk =   0.0329218
        k(   52) = (   0.3333333   0.3333333  -0.3340779), wk =   0.0164609
        k(   53) = (   0.3333333   0.4444444   0.0000000), wk =   0.0329218
        k(   54) = (   0.3333333   0.4444444   0.1113593), wk =   0.0658436
        k(   55) = (   0.3333333   0.4444444   0.2227186), wk =   0.0658436
        k(   56) = (   0.3333333   0.4444444  -0.3340779), wk =   0.0329218
        k(   57) = (   0.4444444   0.4444444   0.0000000), wk =   0.0164609
        k(   58) = (   0.4444444   0.4444444   0.1113593), wk =   0.0329218
        k(   59) = (   0.4444444   0.4444444   0.2227186), wk =   0.0329218
        k(   60) = (   0.4444444   0.4444444  -0.3340779), wk =   0.0164609

     Initial potential from superposition of free atoms

     starting charge  183.99828, renormalised to  184.00000
     Starting wfcs are  116 randomized atomic wfcs

     Self-consistent Calculation

     iteration #  1     ecut=   120.00 Ry     beta= 0.70
     Davidson diagonalization with overlap
     ethr =  1.00E-02,  avg # of iterations =  4.3

     total energy              =   -3126.77475589 Ry
     Harris-Foulkes estimate   =   -3132.26631069 Ry
     estimated scf accuracy    <       6.94766332 Ry

[...]

     End of self-consistent calculation

          k = 0.0000 0.0000 0.0000 ( 31095 PWs)   bands (ev):

   -66.1861 -66.1857 -66.1846 -66.1842 -30.5765 -30.5765 -30.5731 -30.5731
   -30.4864 -30.4864 -30.4839 -30.4839 -30.4458 -30.4422 -30.3863 -30.3840
   -20.3479 -20.3478 -20.3477 -20.3477 -20.3450 -20.3450 -20.3450 -20.3450
   -20.3424 -20.3424 -20.3424 -20.3424 -20.3211 -20.3210 -20.3205 -20.3204
   -20.3140 -20.3136 -20.3102 -20.3102 -20.3090 -20.3090 -20.3082 -20.3078
   -20.3077 -20.3077 -20.3064 -20.3064 -10.0679  -9.7948  -9.1309  -9.1107
    -8.8449  -8.5976  -7.7780  -7.7780  -7.7602  -7.7602  -7.5779  -7.4301
     0.9107   0.9152   1.3147   1.3709   1.6221   1.7539   2.2857   2.3836
     2.5409   2.5409   3.8566   3.8566   4.9565   5.2608   5.2608   5.6122
     5.6122   5.9028   5.9028   6.0010   6.2036   6.2575   6.2575   6.8207
     6.8207   6.8586   7.1026   7.1598   7.1598   7.2292   7.2292   7.3565
     8.3993   8.4060   8.5013   8.5013   8.9470   8.9599   9.6349   9.6349
    12.3338  12.3338  13.4867  13.5747  13.5747  13.8975  13.9133  14.2759
    14.2759  14.5265  14.5280  14.6667  15.3359  16.5297

[...]

     the Fermi energy is     8.7698 ev

!    total energy              =   -3130.46802296 Ry
     Harris-Foulkes estimate   =   -3130.46802296 Ry
     estimated scf accuracy    <          2.1E-09 Ry

     The total energy is the sum of the following terms:

     one-electron contribution =   -2375.26452174 Ry
     hartree contribution      =    1306.12632519 Ry
[...]
O        0.489150515  -0.010849456   0.250000000    0   0   0
O        0.510849485   1.010849393   0.750000000    0   0   0

     Writing output data file Landau_35.save/
     NEW-OLD atomic charge density approx. for the potential
     extrapolated charge  185.84695, renormalised to  184.00000

[...]

     enthalpy old            =   -3130.4680229611 Ry
     enthalpy new            =   -3130.4843199068 Ry

     CASE: enthalpy_new < enthalpy_old

[...]

     number of scf cycles    =   4
     number of bfgs steps    =   3

     enthalpy old            =   -3130.4843946837 Ry
     enthalpy new            =   -3130.4844084173 Ry

     CASE: enthalpy_new < enthalpy_old

     small trust_radius: resetting bfgs history

     new trust radius        =       0.0000489399 bohr
     new conv_thr            =            1.0E-10 Ry

     new unit-cell volume =   1412.91841 a.u.^3 (   209.37290 Ang^3 )
     density =      7.35485 g/cm^3

[...]

ATOMIC_POSITIONS (crystal)
W        0.250000000   0.250000000   0.206237621    0   0   0
W        0.750000023   0.750000023   0.793762394    0   0   0
W        0.750000023   0.750000023   0.293762394    0   0   0
W        0.250000000   0.250000000   0.706237606    0   0   0
O        0.250000000   0.250000000   0.469183683    0   0   0
O        0.750000023   0.750000023   0.530816317    0   0   0
O        0.750000023   0.750000023   0.030816330    0   0   0
O        0.250000000   0.250000000   0.969183683    0   0   0
O        0.510849439   0.489150515   0.250000000    0   0   0
O        0.489150561   0.510849485   0.750000000    0   0   0
O       -0.010849456   1.010849485   0.250000000    0   0   0
O        1.010849393  -0.010849422   0.750000000    0   0   0
O        1.010849485   0.510849439   0.250000000    0   0   0
O       -0.010849422   0.489150561   0.750000000    0   0   0
O        0.489150515  -0.010849456   0.250000000    0   0   0
O        0.510849485   1.010849393   0.750000000    0   0   0

     Writing output data file Landau_35.save/
     NEW-OLD atomic charge density approx. for the potential
     extrapolated charge  183.99779, renormalised to  184.00000

[...]

     Threshold (ethr) on eigenvalues was too large:
     Diagonalizing with lowered threshold

     Davidson diagonalization with overlap
     ethr =  2.86E-10,  avg # of iterations =  2.1

[...]

     bfgs converged in   5 scf cycles and   4 bfgs steps
     (criteria: energy <  1.0E-07 Ry, force <  1.0E-07Ry/Bohr, cell <  5.0E-01kbar)

     End of BFGS Geometry Optimization

     Final enthalpy =   -3130.4844084170 Ry
Begin final coordinates
     new unit-cell volume =   1412.91841 a.u.^3 (   209.37290 Ang^3 )
     density =      7.35485 g/cm^3

CELL_PARAMETERS (angstrom)
   5.242035674   0.000000000   0.000000000
   0.000000000   5.242035674   0.000000000
   0.000000000   0.000000000   7.619395782

ATOMIC_POSITIONS (crystal)
W        0.250000000   0.250000000   0.206237621    0   0   0
W        0.750000023   0.750000023   0.793762394    0   0   0
W        0.750000023   0.750000023   0.293762394    0   0   0
W        0.250000000   0.250000000   0.706237606    0   0   0
O        0.250000000   0.250000000   0.469183683    0   0   0
O        0.750000023   0.750000023   0.530816317    0   0   0
O        0.750000023   0.750000023   0.030816330    0   0   0
O        0.250000000   0.250000000   0.969183683    0   0   0
O        0.510849439   0.489150515   0.250000000    0   0   0
O        0.489150561   0.510849485   0.750000000    0   0   0
O       -0.010849456   1.010849485   0.250000000    0   0   0
O        1.010849393  -0.010849422   0.750000000    0   0   0
O        1.010849485   0.510849439   0.250000000    0   0   0
O       -0.010849422   0.489150561   0.750000000    0   0   0
O        0.489150515  -0.010849456   0.250000000    0   0   0
O        0.510849485   1.010849393   0.750000000    0   0   0
End final coordinates

     Writing output data file Landau_35.save/

     Final scf calculation at the relaxed structure.
     The G-vectors are recalculated for the final unit cell
     Results may differ from those at the preceding step.

     bravais-lattice index     =            0
     lattice parameter (alat)  =       9.7849  a.u.
     unit-cell volume          =    1412.9184 (a.u.)^3
     number of atoms/cell      =           16
     number of atomic types    =            2
     number of electrons       =       184.00
     number of Kohn-Sham states=          110
     kinetic-energy cutoff     =     120.0000  Ry
     charge density cutoff     =     480.0000  Ry
     convergence threshold     =      1.0E-10
     mixing beta               =       0.7000
     number of iterations used =            8  plain     mixing
     Exchange-correlation      = SLA PW NOGX NOGC ( 1  4  0  0 0 0)

     celldm(1)=   9.784926  celldm(2)=   0.000000  celldm(3)=   0.000000
     celldm(4)=   0.000000  celldm(5)=   0.000000  celldm(6)=   0.000000

     crystal axes: (cart. coord. in units of alat)
               a(1) = (   1.012375   0.000000   0.000000 )
               a(2) = (   0.000000   1.012375   0.000000 )
               a(3) = (   0.000000   0.000000   1.471505 )

     reciprocal axes: (cart. coord. in units 2 pi/alat)
               b(1) = (  0.987777  0.000000  0.000000 )
               b(2) = (  0.000000  0.987777  0.000000 )
               b(3) = (  0.000000  0.000000  0.679576 )

     PseudoPot. # 1 for W  read from file:
     /cluster/scratch/mnoe/QE/pps/W_ONCV_LDA-4.0.upf
     MD5 check sum: ba0307d5d4cd419d6f1d13dc49d7c13a
     Pseudo is Norm-conserving + core correction, Zval = 28.0
     Generated using ONCVPSP code by D. R. Hamann
     Using radial grid of 1380 points,  8 beta functions with:
                l(1) =   0
                l(2) =   0
                l(3) =   1
                l(4) =   1
                l(5) =   2
                l(6) =   2
                l(7) =   3
                l(8) =   3

     PseudoPot. # 2 for O  read from file:
     /cluster/scratch/mnoe/QE/pps/O_ONCV_LDA-3.0.upf
     MD5 check sum: b55cdb4f45ae2203d24ad12cf8d61a31
     Pseudo is Norm-conserving + core correction, Zval =  6.0
     Generated using ONCVPSP code by D. R. Hamann
     Using radial grid of  926 points,  5 beta functions with:
                l(1) =   0
                l(2) =   0
                l(3) =   1
                l(4) =   1
                l(5) =   2

     atomic species   valence    mass     pseudopotential
        W             28.00   183.84000     W ( 1.00)
        O              6.00    15.99940     O ( 1.00)

     16 Sym. Ops., with inversion, found (14 have fractional translation)

   Cartesian axes

     site n.     atom                  positions (alat units)
         1           W   tau(   1) = (   0.2530937   0.2530937   0.3034798  )
         2           W   tau(   2) = (   0.7592811   0.7592811   1.1680256  )
         3           W   tau(   3) = (   0.7592811   0.7592811   0.4322729  )
         4           W   tau(   4) = (   0.2530937   0.2530937   1.0392324  )
         5           O   tau(   5) = (   0.2530937   0.2530937   0.6904063  )
         6           O   tau(   6) = (   0.7592811   0.7592811   0.7810991  )
         7           O   tau(   7) = (   0.7592811   0.7592811   0.0453464  )
         8           O   tau(   8) = (   0.2530937   0.2530937   1.4261590  )
         9           O   tau(   9) = (   0.5171711   0.4952036   0.3678763  )
        10           O   tau(  10) = (   0.4952037   0.5171711   1.1036290  )
        11           O   tau(  11) = (  -0.0109837   1.0233585   0.3678763  )
        12           O   tau(  12) = (   1.0233584  -0.0109837   1.1036290  )
        13           O   tau(  13) = (   1.0233585   0.5171711   0.3678763  )
        14           O   tau(  14) = (  -0.0109837   0.4952037   1.1036290  )
        15           O   tau(  15) = (   0.4952036  -0.0109837   0.3678763  )
        16           O   tau(  16) = (   0.5171711   1.0233584   1.1036290  )

     number of k points=    60  gaussian smearing, width (Ry)=  0.0007
                       cart. coord. in units 2pi/alat
        k(    1) = (   0.0000000   0.0000000   0.0000000), wk =   0.0041152
        k(    2) = (   0.0000000   0.0000000   0.1132627), wk =   0.0082305
        k(    3) = (   0.0000000   0.0000000   0.2265254), wk =   0.0082305
        k(    4) = (   0.0000000   0.0000000  -0.3397881), wk =   0.0041152
        k(    5) = (   0.0000000   0.1097530   0.0000000), wk =   0.0164609
        k(    6) = (   0.0000000   0.1097530   0.1132627), wk =   0.0329218
        k(    7) = (   0.0000000   0.1097530   0.2265254), wk =   0.0329218
        k(    8) = (   0.0000000   0.1097530  -0.3397881), wk =   0.0164609
        k(    9) = (   0.0000000   0.2195059   0.0000000), wk =   0.0164609
        k(   10) = (   0.0000000   0.2195059   0.1132627), wk =   0.0329218
        k(   11) = (   0.0000000   0.2195059   0.2265254), wk =   0.0329218
        k(   12) = (   0.0000000   0.2195059  -0.3397881), wk =   0.0164609
        k(   13) = (   0.0000000   0.3292589   0.0000000), wk =   0.0164609
        k(   14) = (   0.0000000   0.3292589   0.1132627), wk =   0.0329218
        k(   15) = (   0.0000000   0.3292589   0.2265254), wk =   0.0329218
        k(   16) = (   0.0000000   0.3292589  -0.3397881), wk =   0.0164609
        k(   17) = (   0.0000000   0.4390118   0.0000000), wk =   0.0164609
        k(   18) = (   0.0000000   0.4390118   0.1132627), wk =   0.0329218
        k(   19) = (   0.0000000   0.4390118   0.2265254), wk =   0.0329218
        k(   20) = (   0.0000000   0.4390118  -0.3397881), wk =   0.0164609
        k(   21) = (   0.1097530   0.1097530   0.0000000), wk =   0.0164609
        k(   22) = (   0.1097530   0.1097530   0.1132627), wk =   0.0329218
        k(   23) = (   0.1097530   0.1097530   0.2265254), wk =   0.0329218
        k(   24) = (   0.1097530   0.1097530  -0.3397881), wk =   0.0164609
        k(   25) = (   0.1097530   0.2195059   0.0000000), wk =   0.0329218
        k(   26) = (   0.1097530   0.2195059   0.1132627), wk =   0.0658436
        k(   27) = (   0.1097530   0.2195059   0.2265254), wk =   0.0658436
        k(   28) = (   0.1097530   0.2195059  -0.3397881), wk =   0.0329218
        k(   29) = (   0.1097530   0.3292589   0.0000000), wk =   0.0329218
        k(   30) = (   0.1097530   0.3292589   0.1132627), wk =   0.0658436
        k(   31) = (   0.1097530   0.3292589   0.2265254), wk =   0.0658436
        k(   32) = (   0.1097530   0.3292589  -0.3397881), wk =   0.0329218
        k(   33) = (   0.1097530   0.4390118   0.0000000), wk =   0.0329218
        k(   34) = (   0.1097530   0.4390118   0.1132627), wk =   0.0658436
        k(   35) = (   0.1097530   0.4390118   0.2265254), wk =   0.0658436
        k(   36) = (   0.1097530   0.4390118  -0.3397881), wk =   0.0329218
        k(   37) = (   0.2195059   0.2195059   0.0000000), wk =   0.0164609
        k(   38) = (   0.2195059   0.2195059   0.1132627), wk =   0.0329218
        k(   39) = (   0.2195059   0.2195059   0.2265254), wk =   0.0329218
        k(   40) = (   0.2195059   0.2195059  -0.3397881), wk =   0.0164609
        k(   41) = (   0.2195059   0.3292589   0.0000000), wk =   0.0329218
        k(   42) = (   0.2195059   0.3292589   0.1132627), wk =   0.0658436
        k(   43) = (   0.2195059   0.3292589   0.2265254), wk =   0.0658436
        k(   44) = (   0.2195059   0.3292589  -0.3397881), wk =   0.0329218
        k(   45) = (   0.2195059   0.4390118   0.0000000), wk =   0.0329218
        k(   46) = (   0.2195059   0.4390118   0.1132627), wk =   0.0658436
        k(   47) = (   0.2195059   0.4390118   0.2265254), wk =   0.0658436
        k(   48) = (   0.2195059   0.4390118  -0.3397881), wk =   0.0329218
        k(   49) = (   0.3292589   0.3292589   0.0000000), wk =   0.0164609
        k(   50) = (   0.3292589   0.3292589   0.1132627), wk =   0.0329218
        k(   51) = (   0.3292589   0.3292589   0.2265254), wk =   0.0329218
        k(   52) = (   0.3292589   0.3292589  -0.3397881), wk =   0.0164609
        k(   53) = (   0.3292589   0.4390118   0.0000000), wk =   0.0329218
        k(   54) = (   0.3292589   0.4390118   0.1132627), wk =   0.0658436
        k(   55) = (   0.3292589   0.4390118   0.2265254), wk =   0.0658436
        k(   56) = (   0.3292589   0.4390118  -0.3397881), wk =   0.0329218
        k(   57) = (   0.4390118   0.4390118   0.0000000), wk =   0.0164609
        k(   58) = (   0.4390118   0.4390118   0.1132627), wk =   0.0329218
        k(   59) = (   0.4390118   0.4390118   0.2265254), wk =   0.0329218
        k(   60) = (   0.4390118   0.4390118  -0.3397881), wk =   0.0164609

     Initial potential from superposition of free atoms

     starting charge  183.99828, renormalised to  184.00000
     Starting wfcs are  116 randomized atomic wfcs

     Self-consistent Calculation

[...]

     total energy              =   -3130.48454146 Ry
     Harris-Foulkes estimate   =   -3130.48454146 Ry
     estimated scf accuracy    <          1.2E-09 Ry

     iteration # 13     ecut=   120.00 Ry     beta= 0.70
     Davidson diagonalization with overlap
     ethr =  6.43E-13,  avg # of iterations =  3.0

     End of self-consistent calculation

[...]

          k = 0.4390 0.4390-0.3398 ( 31422 PWs)   bands (ev):

   -66.3259 -66.3259 -66.3258 -66.3258 -30.6643 -30.6643 -30.6622 -30.6621
   -30.6138 -30.6138 -30.6133 -30.6133 -30.5804 -30.5804 -30.5782 -30.5782
   -20.4970 -20.4970 -20.4970 -20.4970 -20.4962 -20.4961 -20.4961 -20.4961
   -20.4915 -20.4915 -20.4914 -20.4914 -20.4694 -20.4694 -20.4694 -20.4694
   -20.4583 -20.4582 -20.4582 -20.4582 -20.4544 -20.4544 -20.4543 -20.4543
   -20.4521 -20.4521 -20.4521 -20.4521  -9.4562  -9.4562  -9.4160  -9.4160
    -8.5023  -8.5023  -8.4967  -8.4966  -7.9144  -7.9144  -7.8632  -7.8632
     1.2030   1.2030   1.3137   1.3137   2.9809   2.9809   2.9903   2.9903
     3.2576   3.2576   3.2788   3.2788   4.4616   4.4616   4.6520   4.6520
     5.2228   5.2228   5.3628   5.3628   5.7747   5.7747   5.9373   5.9373
     6.2345   6.2345   6.3660   6.3660   6.6986   6.6986   6.8062   6.8062
     7.5545   7.5545   7.5616   7.5616  11.1231  11.1232  11.1800  11.1800
    12.2992  12.2992  12.4084  12.4084  13.4596  13.4596  13.5569  13.5569
    14.9196  14.9196  15.1113  15.1113  17.8177  17.8177

     the Fermi energy is     8.6300 ev

!    total energy              =   -3130.48454146 Ry
     Harris-Foulkes estimate   =   -3130.48454146 Ry
     estimated scf accuracy    <          1.5E-11 Ry

     The total energy is the sum of the following terms:

     one-electron contribution =   -2381.39751398 Ry
     hartree contribution      =    1308.31686132 Ry
     xc contribution           =    -482.86588371 Ry
     ewald contribution        =   -1574.53800510 Ry
     smearing contrib. (-TS)   =      -0.00000000 Ry

     convergence has been achieved in  13 iterations

     Forces acting on atoms (cartesian axes, Ry/au):

     atom    1 type  1   force =     0.00000000    0.00000000   -0.02361344
     atom    2 type  1   force =     0.00000000    0.00000000    0.02361344
     atom    3 type  1   force =     0.00000000    0.00000000    0.02361344
     atom    4 type  1   force =     0.00000000    0.00000000   -0.02361344
     atom    5 type  2   force =     0.00000000    0.00000000    0.11198165
     atom    6 type  2   force =     0.00000000    0.00000000   -0.11198165
     atom    7 type  2   force =     0.00000000    0.00000000   -0.11198165
     atom    8 type  2   force =     0.00000000    0.00000000    0.11198165
     atom    9 type  2   force =     0.00091995   -0.00091995    0.00000000
     atom   10 type  2   force =    -0.00091995    0.00091995    0.00000000
     atom   11 type  2   force =    -0.00091995    0.00091995    0.00000000
     atom   12 type  2   force =     0.00091995   -0.00091995    0.00000000
     atom   13 type  2   force =     0.00091995    0.00091995    0.00000000
     atom   14 type  2   force =    -0.00091995   -0.00091995    0.00000000
     atom   15 type  2   force =    -0.00091995   -0.00091995    0.00000000
     atom   16 type  2   force =     0.00091995    0.00091995    0.00000000

     Total force =     0.000000     Total SCF correction =     0.000000

     Computing stress (Cartesian axis) and pressure

          total   stress  (Ry/bohr**3)                   (kbar)     P=    0.46
   0.00000512   0.00000000   0.00000000          0.75      0.00      0.00
   0.00000000   0.00000512   0.00000000          0.00      0.75      0.00
   0.00000000   0.00000000  -0.00000078          0.00      0.00     -0.11

     Writing output data file Landau_35.save/

     General routines

     Parallel routines

   This run was terminated on:  18:50:41  21Nov2019

   JOB DONE.