     Program PWSCF v.6.4.1 starts on 19Nov2019 at 18:57:55

     K-points division:     npool     =      40
     Reading input from rscf.in

     Current dimensions of program PWSCF are:
     Max number of different atomic species (ntypx) = 10
     Max number of k-points (npk) =  40000
     Max angular momentum in pseudopotentials (lmaxx) =  3

     Subspace diagonalization in iterative solution of the eigenvalue problem:
     a serial algorithm will be used

     Message from routine setup:
     using ibrav=0 with symmetry is DISCOURAGED, use correct ibrav instead

     bravais-lattice index     =            0
     lattice parameter (alat)  =       9.7849  a.u.
     unit-cell volume          =    1402.1515 (a.u.)^3
     number of atoms/cell      =           16
     number of atomic types    =            2
     number of electrons       =       184.00
     number of Kohn-Sham states=          110
     kinetic-energy cutoff     =     120.0000  Ry
     charge density cutoff     =     480.0000  Ry
     convergence threshold     =      1.0E-08
     mixing beta               =       0.7000
     number of iterations used =            8  plain     mixing
     Exchange-correlation      = SLA PW NOGX NOGC ( 1  4  0  0 0 0)
     nstep                     =           50

     celldm(1)=   9.784926  celldm(2)=   0.000000  celldm(3)=   0.000000
     celldm(4)=   0.000000  celldm(5)=   0.000000  celldm(6)=   0.000000

     crystal axes: (cart. coord. in units of alat)
               a(1) = (   1.000000   0.000000   0.000000 )
               a(2) = (   0.000000   1.000000   0.000000 )
               a(3) = (   0.000000   0.000000   1.496657 )

     reciprocal axes: (cart. coord. in units 2 pi/alat)
               b(1) = (  1.000000  0.000000  0.000000 )
               b(2) = (  0.000000  1.000000  0.000000 )
               b(3) = (  0.000000  0.000000  0.668156 )

     PseudoPot. # 1 for W  read from file:
     /cluster/scratch/mnoe/QE/pps/W_ONCV_LDA-4.0.upf
     MD5 check sum: ba0307d5d4cd419d6f1d13dc49d7c13a
     Pseudo is Norm-conserving + core correction, Zval = 28.0
     Generated using ONCVPSP code by D. R. Hamann
     Using radial grid of 1380 points,  8 beta functions with:
                l(1) =   0
                l(2) =   0
                l(3) =   1
                l(4) =   1
                l(5) =   2
                l(6) =   2
                l(7) =   3
                l(8) =   3

     PseudoPot. # 2 for O  read from file:
     /cluster/scratch/mnoe/QE/pps/O_ONCV_LDA-3.0.upf
     MD5 check sum: b55cdb4f45ae2203d24ad12cf8d61a31
     Pseudo is Norm-conserving + core correction, Zval =  6.0
     Generated using ONCVPSP code by D. R. Hamann
     Using radial grid of  926 points,  5 beta functions with:
                l(1) =   0
                l(2) =   0
                l(3) =   1
                l(4) =   1
                l(5) =   2

     atomic species   valence    mass     pseudopotential
        W             28.00   183.84000     W ( 1.00)
        O              6.00    15.99940     O ( 1.00)

     16 Sym. Ops., with inversion, found (14 have fractional translation)

   Cartesian axes

     site n.     atom                  positions (alat units)
         1           W   tau(   1) = (   0.2500000   0.2500000   0.3086670  )
         2           W   tau(   2) = (   0.7500000   0.7500000   1.1879900  )
         3           W   tau(   3) = (   0.7500000   0.7500000   0.4396615  )
         4           W   tau(   4) = (   0.2500000   0.2500000   1.0569955  )
         5           O   tau(   5) = (   0.2500000   0.2500000   0.7022070  )
         6           O   tau(   6) = (   0.7500000   0.7500000   0.7944500  )
         7           O   tau(   7) = (   0.7500000   0.7500000   0.0461215  )
         8           O   tau(   8) = (   0.2500000   0.2500000   1.4505355  )
         9           O   tau(   9) = (   0.5108494   0.4891505   0.3741643  )
        10           O   tau(  10) = (   0.4891506   0.5108495   1.1224928  )
        11           O   tau(  11) = (  -0.0108495   1.0108495   0.3741643  )
        12           O   tau(  12) = (   1.0108494  -0.0108494   1.1224928  )
        13           O   tau(  13) = (   1.0108495   0.5108494   0.3741643  )
        14           O   tau(  14) = (  -0.0108494   0.4891506   1.1224928  )
        15           O   tau(  15) = (   0.4891505  -0.0108495   0.3741643  )
        16           O   tau(  16) = (   0.5108495   1.0108494   1.1224928  )

     number of k points=    40  gaussian smearing, width (Ry)=  0.0007
                       cart. coord. in units 2pi/alat
        k(    1) = (   0.0000000   0.0000000   0.0000000), wk =   0.0092593
        k(    2) = (   0.0000000   0.0000000   0.1113593), wk =   0.0185185
        k(    3) = (   0.0000000   0.0000000   0.2227186), wk =   0.0185185
        k(    4) = (   0.0000000   0.0000000  -0.3340779), wk =   0.0092593
        k(    5) = (   0.0000000   0.1666667   0.0000000), wk =   0.0370370
        k(    6) = (   0.0000000   0.1666667   0.1113593), wk =   0.0740741
        k(    7) = (   0.0000000   0.1666667   0.2227186), wk =   0.0740741
        k(    8) = (   0.0000000   0.1666667  -0.3340779), wk =   0.0370370
        k(    9) = (   0.0000000   0.3333333   0.0000000), wk =   0.0370370
        k(   10) = (   0.0000000   0.3333333   0.1113593), wk =   0.0740741
        k(   11) = (   0.0000000   0.3333333   0.2227186), wk =   0.0740741
        k(   12) = (   0.0000000   0.3333333  -0.3340779), wk =   0.0370370
        k(   13) = (   0.0000000  -0.5000000   0.0000000), wk =   0.0185185
        k(   14) = (   0.0000000  -0.5000000   0.1113593), wk =   0.0370370
        k(   15) = (   0.0000000  -0.5000000   0.2227186), wk =   0.0370370
        k(   16) = (   0.0000000  -0.5000000  -0.3340779), wk =   0.0185185
        k(   17) = (   0.1666667   0.1666667   0.0000000), wk =   0.0370370
        k(   18) = (   0.1666667   0.1666667   0.1113593), wk =   0.0740741
        k(   19) = (   0.1666667   0.1666667   0.2227186), wk =   0.0740741
        k(   20) = (   0.1666667   0.1666667  -0.3340779), wk =   0.0370370
        k(   21) = (   0.1666667   0.3333333   0.0000000), wk =   0.0740741
        k(   22) = (   0.1666667   0.3333333   0.1113593), wk =   0.1481481
        k(   23) = (   0.1666667   0.3333333   0.2227186), wk =   0.1481481
        k(   24) = (   0.1666667   0.3333333  -0.3340779), wk =   0.0740741
        k(   25) = (   0.1666667  -0.5000000   0.0000000), wk =   0.0370370
        k(   26) = (   0.1666667  -0.5000000   0.1113593), wk =   0.0740741
        k(   27) = (   0.1666667  -0.5000000   0.2227186), wk =   0.0740741
        k(   28) = (   0.1666667  -0.5000000  -0.3340779), wk =   0.0370370
        k(   29) = (   0.3333333   0.3333333   0.0000000), wk =   0.0370370
        k(   30) = (   0.3333333   0.3333333   0.1113593), wk =   0.0740741
        k(   31) = (   0.3333333   0.3333333   0.2227186), wk =   0.0740741
        k(   32) = (   0.3333333   0.3333333  -0.3340779), wk =   0.0370370
        k(   33) = (   0.3333333  -0.5000000   0.0000000), wk =   0.0370370
        k(   34) = (   0.3333333  -0.5000000   0.1113593), wk =   0.0740741
        k(   35) = (   0.3333333  -0.5000000   0.2227186), wk =   0.0740741
        k(   36) = (   0.3333333  -0.5000000  -0.3340779), wk =   0.0370370
        k(   37) = (  -0.5000000  -0.5000000   0.0000000), wk =   0.0092593
        k(   38) = (  -0.5000000  -0.5000000   0.1113593), wk =   0.0185185
        k(   39) = (  -0.5000000  -0.5000000   0.2227186), wk =   0.0185185
        k(   40) = (  -0.5000000  -0.5000000  -0.3340779), wk =   0.0092593

     Initial potential from superposition of free atoms

     starting charge  183.99828, renormalised to  184.00000
     Starting wfcs are  116 randomized atomic wfcs

     Self-consistent Calculation

     iteration #  1     ecut=   120.00 Ry     beta= 0.70
     Davidson diagonalization with overlap
     ethr =  1.00E-02,  avg # of iterations =  4.2

     total energy              =   -3126.77426869 Ry
     Harris-Foulkes estimate   =   -3132.26629149 Ry
     estimated scf accuracy    <       6.94828915 Ry

[...]

     End of self-consistent calculation

          k = 0.0000 0.0000 0.0000 ( 31095 PWs)   bands (ev):

   -66.1870 -66.1866 -66.1855 -66.1851 -30.5774 -30.5774 -30.5740 -30.5740
   -30.4874 -30.4874 -30.4848 -30.4848 -30.4464 -30.4428 -30.3869 -30.3846
   -20.3489 -20.3488 -20.3487 -20.3486 -20.3461 -20.3461 -20.3461 -20.3461
   -20.3435 -20.3435 -20.3435 -20.3435 -20.3219 -20.3219 -20.3214 -20.3213
   -20.3149 -20.3144 -20.3111 -20.3111 -20.3099 -20.3099 -20.3090 -20.3086
   -20.3085 -20.3085 -20.3073 -20.3073 -10.0676  -9.7944  -9.1304  -9.1103
    -8.8450  -8.5976  -7.7775  -7.7775  -7.7597  -7.7597  -7.5781  -7.4302
     0.9107   0.9152   1.3148   1.3711   1.6220   1.7537   2.2860   2.3839
     2.5410   2.5410   3.8568   3.8568   4.9566   5.2606   5.2606   5.6126
     5.6126   5.9031   5.9031   6.0014   6.2034   6.2573   6.2573   6.8207
     6.8207   6.8590   7.1031   7.1604   7.1604   7.2297   7.2297   7.3566
     8.4001   8.4068   8.5015   8.5015   8.9464   8.9592   9.6345   9.6345
    12.3334  12.3334  13.4863  13.5746  13.5746  13.8970  13.9129  14.2755
    14.2755  14.5260  14.5275  14.6667  15.3354  16.5294

[...]

          k =-0.5000-0.5000 0.0000 ( 31144 PWs)   bands (ev):

[...]

     the Fermi energy is     8.6305 ev

!    total energy              =   -3130.46790405 Ry
     Harris-Foulkes estimate   =   -3130.46790405 Ry
     estimated scf accuracy    <          2.3E-09 Ry

     The total energy is the sum of the following terms:

     one-electron contribution =   -2375.25974676 Ry
     hartree contribution      =    1306.12183468 Ry
     xc contribution           =    -482.97223746 Ry
     ewald contribution        =   -1578.35775450 Ry
     smearing contrib. (-TS)   =      -0.00000000 Ry

     convergence has been achieved in  12 iterations

     Forces acting on atoms (cartesian axes, Ry/au):

     atom    1 type  1   force =     0.00000000    0.00000000   -0.06376479
     atom    2 type  1   force =     0.00000000    0.00000000    0.06376479
     atom    3 type  1   force =     0.00000000    0.00000000    0.06376479
     atom    4 type  1   force =     0.00000000    0.00000000   -0.06376479
     atom    5 type  2   force =     0.00000000    0.00000000    0.13249640
     atom    6 type  2   force =     0.00000000    0.00000000   -0.13249640
     atom    7 type  2   force =     0.00000000    0.00000000   -0.13249640
     atom    8 type  2   force =     0.00000000    0.00000000    0.13249640
     atom    9 type  2   force =     0.00250414   -0.00250414    0.00000000
     atom   10 type  2   force =    -0.00250414    0.00250414    0.00000000
     atom   11 type  2   force =    -0.00250414    0.00250414    0.00000000
     atom   12 type  2   force =     0.00250414   -0.00250414    0.00000000
     atom   13 type  2   force =     0.00250414    0.00250414    0.00000000
     atom   14 type  2   force =    -0.00250414   -0.00250414    0.00000000
     atom   15 type  2   force =    -0.00250414   -0.00250414    0.00000000
[...]
   0.00000000   0.00000000  -0.00062050          0.00      0.00    -91.28

     BFGS Geometry Optimization

     number of scf cycles    =   1
     number of bfgs steps    =   0

     enthalpy new            =   -3130.4679040510 Ry

     new trust radius        =       0.1161744640 bohr
     new conv_thr            =       0.0000000100 Ry

     new unit-cell volume =   1416.37424 a.u.^3 (   209.88501 Ang^3 )
     density =      7.33690 g/cm^3

CELL_PARAMETERS (angstrom)
   5.244995643   0.000000000   0.000000000
   0.000000000   5.244995643   0.000000000
   0.000000000   0.000000000   7.629413446

ATOMIC_POSITIONS (crystal)
W        0.250000000   0.250000000   0.206237621    0   0   0
W        0.750000023   0.750000023   0.793762394    0   0   0
W        0.750000023   0.750000023   0.293762394    0   0   0
W        0.250000000   0.250000000   0.706237606    0   0   0
O        0.250000000   0.250000000   0.469183683    0   0   0
O        0.750000023   0.750000023   0.530816317    0   0   0
O        0.750000023   0.750000023   0.030816330    0   0   0
O        0.250000000   0.250000000   0.969183683    0   0   0
O        0.510849439   0.489150515   0.250000000    0   0   0
O        0.489150561   0.510849485   0.750000000    0   0   0
O       -0.010849456   1.010849485   0.250000000    0   0   0
O        1.010849393  -0.010849422   0.750000000    0   0   0
O        1.010849485   0.510849439   0.250000000    0   0   0
O       -0.010849422   0.489150561   0.750000000    0   0   0
O        0.489150515  -0.010849456   0.250000000    0   0   0
O        0.510849485   1.010849393   0.750000000    0   0   0

     Writing output data file Landau_35.save/
     NEW-OLD atomic charge density approx. for the potential
     extrapolated charge  185.84765, renormalised to  184.00000

[...]

     enthalpy old            =   -3130.4679040510 Ry
     enthalpy new            =   -3130.4842006649 Ry

     CASE: enthalpy_new < enthalpy_old

[...]

     number of scf cycles    =   4
     number of bfgs steps    =   3

     enthalpy old            =   -3130.4842757830 Ry
     enthalpy new            =   -3130.4842893802 Ry

     CASE: enthalpy_new < enthalpy_old

     small trust_radius: resetting bfgs history

     new trust radius        =       0.0000579399 bohr
     new conv_thr            =            1.0E-10 Ry

     new unit-cell volume =   1412.91080 a.u.^3 (   209.37178 Ang^3 )
     density =      7.35489 g/cm^3

[...]

ATOMIC_POSITIONS (crystal)
W        0.250000000   0.250000000   0.206237621    0   0   0
W        0.750000023   0.750000023   0.793762394    0   0   0
W        0.750000023   0.750000023   0.293762394    0   0   0
W        0.250000000   0.250000000   0.706237606    0   0   0
O        0.250000000   0.250000000   0.469183683    0   0   0
O        0.750000023   0.750000023   0.530816317    0   0   0
O        0.750000023   0.750000023   0.030816330    0   0   0
O        0.250000000   0.250000000   0.969183683    0   0   0
O        0.510849439   0.489150515   0.250000000    0   0   0
O        0.489150561   0.510849485   0.750000000    0   0   0
O       -0.010849456   1.010849485   0.250000000    0   0   0
O        1.010849393  -0.010849422   0.750000000    0   0   0
O        1.010849485   0.510849439   0.250000000    0   0   0
O       -0.010849422   0.489150561   0.750000000    0   0   0
O        0.489150515  -0.010849456   0.250000000    0   0   0
O        0.510849485   1.010849393   0.750000000    0   0   0

     Writing output data file Landau_35.save/
     NEW-OLD atomic charge density approx. for the potential
     extrapolated charge  183.99694, renormalised to  184.00000

[...]

     Threshold (ethr) on eigenvalues was too large:
     Diagonalizing with lowered threshold

     Davidson diagonalization with overlap
     ethr =  5.69E-10,  avg # of iterations =  2.1

[...]

     bfgs converged in   5 scf cycles and   4 bfgs steps
     (criteria: energy <  1.0E-07 Ry, force <  1.0E-07Ry/Bohr, cell <  5.0E-01kbar)

     End of BFGS Geometry Optimization

     Final enthalpy =   -3130.4842893780 Ry
Begin final coordinates
     new unit-cell volume =   1412.91080 a.u.^3 (   209.37178 Ang^3 )
     density =      7.35489 g/cm^3

CELL_PARAMETERS (angstrom)
   5.242024573   0.000000000   0.000000000
   0.000000000   5.242024573   0.000000000
   0.000000000   0.000000000   7.619386985

ATOMIC_POSITIONS (crystal)
W        0.250000000   0.250000000   0.206237621    0   0   0
W        0.750000023   0.750000023   0.793762394    0   0   0
W        0.750000023   0.750000023   0.293762394    0   0   0
W        0.250000000   0.250000000   0.706237606    0   0   0
O        0.250000000   0.250000000   0.469183683    0   0   0
O        0.750000023   0.750000023   0.530816317    0   0   0
O        0.750000023   0.750000023   0.030816330    0   0   0
O        0.250000000   0.250000000   0.969183683    0   0   0
O        0.510849439   0.489150515   0.250000000    0   0   0
O        0.489150561   0.510849485   0.750000000    0   0   0
O       -0.010849456   1.010849485   0.250000000    0   0   0
O        1.010849393  -0.010849422   0.750000000    0   0   0
O        1.010849485   0.510849439   0.250000000    0   0   0
O       -0.010849422   0.489150561   0.750000000    0   0   0
O        0.489150515  -0.010849456   0.250000000    0   0   0
O        0.510849485   1.010849393   0.750000000    0   0   0
End final coordinates

     Writing output data file Landau_35.save/

     Final scf calculation at the relaxed structure.
     The G-vectors are recalculated for the final unit cell
     Results may differ from those at the preceding step.

     bravais-lattice index     =            0
     lattice parameter (alat)  =       9.7849  a.u.
     unit-cell volume          =    1412.9108 (a.u.)^3
     number of atoms/cell      =           16
     number of atomic types    =            2
     number of electrons       =       184.00
     number of Kohn-Sham states=          110
     kinetic-energy cutoff     =     120.0000  Ry
     charge density cutoff     =     480.0000  Ry
     convergence threshold     =      1.0E-10
     mixing beta               =       0.7000
     number of iterations used =            8  plain     mixing
     Exchange-correlation      = SLA PW NOGX NOGC ( 1  4  0  0 0 0)

     celldm(1)=   9.784926  celldm(2)=   0.000000  celldm(3)=   0.000000
     celldm(4)=   0.000000  celldm(5)=   0.000000  celldm(6)=   0.000000

     crystal axes: (cart. coord. in units of alat)
               a(1) = (   1.012373   0.000000   0.000000 )
               a(2) = (   0.000000   1.012373   0.000000 )
               a(3) = (   0.000000   0.000000   1.471504 )

     reciprocal axes: (cart. coord. in units 2 pi/alat)
               b(1) = (  0.987779  0.000000  0.000000 )
               b(2) = (  0.000000  0.987779  0.000000 )
               b(3) = (  0.000000  0.000000  0.679577 )

     PseudoPot. # 1 for W  read from file:
     /cluster/scratch/mnoe/QE/pps/W_ONCV_LDA-4.0.upf
     MD5 check sum: ba0307d5d4cd419d6f1d13dc49d7c13a
     Pseudo is Norm-conserving + core correction, Zval = 28.0
     Generated using ONCVPSP code by D. R. Hamann
     Using radial grid of 1380 points,  8 beta functions with:
                l(1) =   0
                l(2) =   0
                l(3) =   1
                l(4) =   1
                l(5) =   2
                l(6) =   2
                l(7) =   3
                l(8) =   3

     PseudoPot. # 2 for O  read from file:
     /cluster/scratch/mnoe/QE/pps/O_ONCV_LDA-3.0.upf
     MD5 check sum: b55cdb4f45ae2203d24ad12cf8d61a31
     Pseudo is Norm-conserving + core correction, Zval =  6.0
     Generated using ONCVPSP code by D. R. Hamann
     Using radial grid of  926 points,  5 beta functions with:
                l(1) =   0
                l(2) =   0
                l(3) =   1
                l(4) =   1
                l(5) =   2

     atomic species   valence    mass     pseudopotential
        W             28.00   183.84000     W ( 1.00)
        O              6.00    15.99940     O ( 1.00)

     16 Sym. Ops., with inversion, found (14 have fractional translation)

   Cartesian axes

     site n.     atom                  positions (alat units)
         1           W   tau(   1) = (   0.2530931   0.2530931   0.3034794  )
         2           W   tau(   2) = (   0.7592794   0.7592794   1.1680243  )
         3           W   tau(   3) = (   0.7592794   0.7592794   0.4322724  )
         4           W   tau(   4) = (   0.2530931   0.2530931   1.0392312  )
         5           O   tau(   5) = (   0.2530931   0.2530931   0.6904055  )
         6           O   tau(   6) = (   0.7592794   0.7592794   0.7810982  )
         7           O   tau(   7) = (   0.7592794   0.7592794   0.0453463  )
         8           O   tau(   8) = (   0.2530931   0.2530931   1.4261573  )
         9           O   tau(   9) = (   0.5171700   0.4952026   0.3678759  )
        10           O   tau(  10) = (   0.4952026   0.5171700   1.1036277  )
        11           O   tau(  11) = (  -0.0109837   1.0233563   0.3678759  )
        12           O   tau(  12) = (   1.0233562  -0.0109837   1.1036277  )
        13           O   tau(  13) = (   1.0233563   0.5171700   0.3678759  )
        14           O   tau(  14) = (  -0.0109837   0.4952026   1.1036277  )
        15           O   tau(  15) = (   0.4952026  -0.0109837   0.3678759  )
        16           O   tau(  16) = (   0.5171700   1.0233562   1.1036277  )

     number of k points=    40  gaussian smearing, width (Ry)=  0.0007
                       cart. coord. in units 2pi/alat
        k(    1) = (   0.0000000   0.0000000   0.0000000), wk =   0.0092593
        k(    2) = (   0.0000000   0.0000000   0.1132628), wk =   0.0185185
        k(    3) = (   0.0000000   0.0000000   0.2265257), wk =   0.0185185
        k(    4) = (   0.0000000   0.0000000  -0.3397885), wk =   0.0092593
        k(    5) = (   0.0000000   0.1646298   0.0000000), wk =   0.0370370
        k(    6) = (   0.0000000   0.1646298   0.1132628), wk =   0.0740741
        k(    7) = (   0.0000000   0.1646298   0.2265257), wk =   0.0740741
        k(    8) = (   0.0000000   0.1646298  -0.3397885), wk =   0.0370370
        k(    9) = (   0.0000000   0.3292595   0.0000000), wk =   0.0370370
        k(   10) = (   0.0000000   0.3292595   0.1132628), wk =   0.0740741
        k(   11) = (   0.0000000   0.3292595   0.2265257), wk =   0.0740741
        k(   12) = (   0.0000000   0.3292595  -0.3397885), wk =   0.0370370
        k(   13) = (   0.0000000  -0.4938893   0.0000000), wk =   0.0185185
        k(   14) = (   0.0000000  -0.4938893   0.1132628), wk =   0.0370370
        k(   15) = (   0.0000000  -0.4938893   0.2265257), wk =   0.0370370
        k(   16) = (   0.0000000  -0.4938893  -0.3397885), wk =   0.0185185
        k(   17) = (   0.1646298   0.1646298   0.0000000), wk =   0.0370370
        k(   18) = (   0.1646298   0.1646298   0.1132628), wk =   0.0740741
        k(   19) = (   0.1646298   0.1646298   0.2265257), wk =   0.0740741
        k(   20) = (   0.1646298   0.1646298  -0.3397885), wk =   0.0370370
        k(   21) = (   0.1646298   0.3292595   0.0000000), wk =   0.0740741
        k(   22) = (   0.1646298   0.3292595   0.1132628), wk =   0.1481481
        k(   23) = (   0.1646298   0.3292595   0.2265257), wk =   0.1481481
        k(   24) = (   0.1646298   0.3292595  -0.3397885), wk =   0.0740741
        k(   25) = (   0.1646298  -0.4938893   0.0000000), wk =   0.0370370
        k(   26) = (   0.1646298  -0.4938893   0.1132628), wk =   0.0740741
        k(   27) = (   0.1646298  -0.4938893   0.2265257), wk =   0.0740741
        k(   28) = (   0.1646298  -0.4938893  -0.3397885), wk =   0.0370370
        k(   29) = (   0.3292595   0.3292595   0.0000000), wk =   0.0370370
        k(   30) = (   0.3292595   0.3292595   0.1132628), wk =   0.0740741
        k(   31) = (   0.3292595   0.3292595   0.2265257), wk =   0.0740741
        k(   32) = (   0.3292595   0.3292595  -0.3397885), wk =   0.0370370
        k(   33) = (   0.3292595  -0.4938893   0.0000000), wk =   0.0370370
        k(   34) = (   0.3292595  -0.4938893   0.1132628), wk =   0.0740741
        k(   35) = (   0.3292595  -0.4938893   0.2265257), wk =   0.0740741
        k(   36) = (   0.3292595  -0.4938893  -0.3397885), wk =   0.0370370
        k(   37) = (  -0.4938893  -0.4938893   0.0000000), wk =   0.0092593
        k(   38) = (  -0.4938893  -0.4938893   0.1132628), wk =   0.0185185
        k(   39) = (  -0.4938893  -0.4938893   0.2265257), wk =   0.0185185
        k(   40) = (  -0.4938893  -0.4938893  -0.3397885), wk =   0.0092593

     Initial potential from superposition of free atoms

     starting charge  183.99828, renormalised to  184.00000
     Starting wfcs are  116 randomized atomic wfcs

     Self-consistent Calculation

[...]

     total energy              =   -3130.48442217 Ry
     Harris-Foulkes estimate   =   -3130.48442217 Ry
     estimated scf accuracy    <          1.0E-09 Ry

     iteration # 13     ecut=   120.00 Ry     beta= 0.70
     Davidson diagonalization with overlap
     ethr =  5.64E-13,  avg # of iterations =  3.0

     End of self-consistent calculation

[...]

          k = 0.3293-0.4939-0.3398 ( 31396 PWs)   bands (ev):

[...]

          k =-0.4939-0.4939-0.3398 ( 31408 PWs)   bands (ev):

   -66.3267 -66.3267 -66.3267 -66.3267 -30.6653 -30.6653 -30.6653 -30.6653
   -30.6140 -30.6140 -30.6140 -30.6140 -30.5790 -30.5790 -30.5790 -30.5790
   -20.4981 -20.4981 -20.4981 -20.4981 -20.4971 -20.4971 -20.4970 -20.4970
   -20.4925 -20.4925 -20.4925 -20.4925 -20.4702 -20.4702 -20.4702 -20.4702
   -20.4590 -20.4590 -20.4590 -20.4590 -20.4552 -20.4552 -20.4552 -20.4552
   -20.4528 -20.4528 -20.4528 -20.4528  -9.4505  -9.4505  -9.4505  -9.4505
    -8.4995  -8.4995  -8.4995  -8.4995  -7.8643  -7.8643  -7.8643  -7.8643
     1.2028   1.2028   1.2028   1.2028   2.9825   2.9825   2.9825   2.9825
     3.2580   3.2580   3.2580   3.2580   4.6188   4.6188   4.6188   4.6188
     5.3390   5.3390   5.3390   5.3390   5.9311   5.9311   5.9311   5.9311
     6.2293   6.2293   6.2293   6.2293   6.7009   6.7009   6.7009   6.7009
     7.5591   7.5591   7.5591   7.5591  11.1244  11.1244  11.1244  11.1244
    12.3859  12.3859  12.3859  12.3859  13.5557  13.5557  13.5557  13.5557
    14.9253  14.9253  14.9253  14.9253  17.9867  17.9867

     the Fermi energy is     8.7805 ev

!    total energy              =   -3130.48442217 Ry
     Harris-Foulkes estimate   =   -3130.48442217 Ry
     estimated scf accuracy    <          2.3E-11 Ry

     The total energy is the sum of the following terms:

     one-electron contribution =   -2381.38785711 Ry
     hartree contribution      =    1308.31040513 Ry
     xc contribution           =    -482.86611862 Ry
     ewald contribution        =   -1574.54085157 Ry
     smearing contrib. (-TS)   =      -0.00000000 Ry

     convergence has been achieved in  13 iterations

     Forces acting on atoms (cartesian axes, Ry/au):

     atom    1 type  1   force =     0.00000000    0.00000000   -0.02360577
     atom    2 type  1   force =     0.00000000    0.00000000    0.02360577
     atom    3 type  1   force =     0.00000000    0.00000000    0.02360577
     atom    4 type  1   force =     0.00000000    0.00000000   -0.02360577
     atom    5 type  2   force =     0.00000000    0.00000000    0.11198746
     atom    6 type  2   force =     0.00000000    0.00000000   -0.11198746
     atom    7 type  2   force =     0.00000000    0.00000000   -0.11198746
     atom    8 type  2   force =     0.00000000    0.00000000    0.11198746
     atom    9 type  2   force =     0.00092160   -0.00092160    0.00000000
     atom   10 type  2   force =    -0.00092160    0.00092160    0.00000000
     atom   11 type  2   force =    -0.00092160    0.00092160    0.00000000
     atom   12 type  2   force =     0.00092160   -0.00092160    0.00000000
     atom   13 type  2   force =     0.00092160    0.00092160    0.00000000
     atom   14 type  2   force =    -0.00092160   -0.00092160    0.00000000
     atom   15 type  2   force =    -0.00092160   -0.00092160    0.00000000
     atom   16 type  2   force =     0.00092160    0.00092160    0.00000000

     Total force =     0.000000     Total SCF correction =     0.000000

     Computing stress (Cartesian axis) and pressure

          total   stress  (Ry/bohr**3)                   (kbar)     P=    0.47
   0.00000519   0.00000000   0.00000000          0.76      0.00      0.00
   0.00000000   0.00000519   0.00000000          0.00      0.76      0.00
   0.00000000   0.00000000  -0.00000072          0.00      0.00     -0.11

     Writing output data file Landau_35.save/

     General routines

     Parallel routines

   This run was terminated on:  19:14: 0  19Nov2019

   JOB DONE.