     Program PWSCF v.6.2 (svn rev. 14038) starts on 29Apr2019 at 19:28:43

     K-points division:     npool     =      64
     Reading input from rscf.in

     Current dimensions of program PWSCF are:
     Max number of different atomic species (ntypx) = 10
     Max number of k-points (npk) =  40000
     Max angular momentum in pseudopotentials (lmaxx) =  3

     Subspace diagonalization in iterative solution of the eigenvalue problem:
     a serial algorithm will be used

     bravais-lattice index     =            0
     lattice parameter (alat)  =      13.8397  a.u.
     unit-cell volume          =    2804.9816 (a.u.)^3
     number of atoms/cell      =           32
     number of atomic types    =            2
     number of electrons       =       368.00
     number of Kohn-Sham states=          221
     kinetic-energy cutoff     =     120.0000  Ry
     charge density cutoff     =     480.0000  Ry
     convergence threshold     =      1.0E-08
     mixing beta               =       0.7000
     number of iterations used =            8  plain     mixing
     Exchange-correlation      = SLA PW NOGX NOGC ( 1  4  0  0 0 0)
     nstep                     =           50

     celldm(1)=  13.839685  celldm(2)=   0.000000  celldm(3)=   0.000000
     celldm(4)=   0.000000  celldm(5)=   0.000000  celldm(6)=   0.000000

     crystal axes: (cart. coord. in units of alat)
               a(1) = (   1.000000   0.000000   0.000000 )
               a(2) = (   0.000000   1.058160   0.000000 )
               a(3) = (   0.000000   0.000000   1.000000 )

     reciprocal axes: (cart. coord. in units 2 pi/alat)
               b(1) = (  1.000000  0.000000  0.000000 )
               b(2) = (  0.000000  0.945037  0.000000 )
               b(3) = (  0.000000  0.000000  1.000000 )

     PseudoPot. # 1 for W  read from file:
     /cluster/scratch/mnoe/QE/pps/W_ONCV_LDA-4.0.upf
     MD5 check sum: ba0307d5d4cd419d6f1d13dc49d7c13a
     Pseudo is Norm-conserving + core correction, Zval = 28.0
     Generated using ONCVPSP code by D. R. Hamann
     Using radial grid of 1380 points,  8 beta functions with:
                l(1) =   0
                l(2) =   0
                l(3) =   1
                l(4) =   1
                l(5) =   2
                l(6) =   2
                l(7) =   3
                l(8) =   3

     PseudoPot. # 2 for O  read from file:
     /cluster/scratch/mnoe/QE/pps/O_ONCV_LDA-3.0.upf
     MD5 check sum: a1bd6164e7280c17a38c229939bfbd54
     Pseudo is Norm-conserving + core correction, Zval =  6.0
     Generated using ONCVPSP code by D. R. Hamann
     Using radial grid of  926 points,  5 beta functions with:
                l(1) =   0
                l(2) =   0
                l(3) =   1
                l(4) =   1
                l(5) =   2

     atomic species   valence    mass     pseudopotential
        W             28.00   183.84000     W ( 1.00)
        O              6.00    15.99940     O ( 1.00)

      8 Sym. Ops., with inversion, found ( 6 have fractional translation)

   Cartesian axes

     site n.     atom                  positions (alat units)
         1           W   tau(   1) = (   0.2324300   0.2982530   0.0166000  )
         2           W   tau(   2) = (   0.7675700   0.7599071   0.9834000  )
         3           W   tau(   3) = (   0.2675700   0.2308271   0.5166000  )
         4           W   tau(   4) = (   0.7324300   0.8273330   0.4834000  )
         5           W   tau(   5) = (   0.7675700   0.2982530   0.4834000  )
         6           W   tau(   6) = (   0.2324300   0.7599071   0.5166000  )
         7           W   tau(   7) = (   0.7324300   0.2308271   0.9834000  )
         8           W   tau(   8) = (   0.2675700   0.8273330   0.0166000  )
         9           O   tau(   9) = (   0.2175800   0.0088039   0.0051600  )
        10           O   tau(  10) = (   0.7824200   1.0493562   0.9948400  )
        11           O   tau(  11) = (   0.2824200   0.5202761   0.5051600  )
        12           O   tau(  12) = (   0.7175800   0.5378839   0.4948400  )
        13           O   tau(  13) = (   0.7824200   0.0088039   0.4948400  )
        14           O   tau(  14) = (   0.2175800   1.0493562   0.5051600  )
        15           O   tau(  15) = (   0.7175800   0.5202761   0.9948400  )
        16           O   tau(  16) = (   0.2824200   0.5378839   0.0051600  )
        17           O   tau(  17) = (   0.5048000   0.2293456   0.4495400  )
        18           O   tau(  18) = (   0.4952000   0.8288145   0.5504600  )
        19           O   tau(  19) = (   0.9952000   0.2997344   0.9495400  )
        20           O   tau(  20) = (   0.0048001   0.7584257   0.0504600  )
        21           O   tau(  21) = (   0.4952000   0.2293456   0.0504600  )
        22           O   tau(  22) = (   0.5048000   0.8288145   0.9495400  )
        23           O   tau(  23) = (   0.0048001   0.2997344   0.5504600  )
        24           O   tau(  24) = (   0.9952000   0.7584257   0.4495400  )
        25           O   tau(  25) = (   0.6995400   0.2568578   0.7427100  )
        26           O   tau(  26) = (   0.3004600   0.8013022   0.2572900  )
        27           O   tau(  27) = (   0.8004600   0.2722223   0.2427100  )
        28           O   tau(  28) = (   0.1995400   0.7859378   0.7572900  )
        29           O   tau(  29) = (   0.3004600   0.2568578   0.7572900  )
        30           O   tau(  30) = (   0.6995400   0.8013022   0.2427100  )
        31           O   tau(  31) = (   0.1995400   0.2722223   0.2572900  )
        32           O   tau(  32) = (   0.8004600   0.7859378   0.7427100  )

     number of k points=    64  gaussian smearing, width (Ry)=  0.0007
                       cart. coord. in units 2pi/alat
        k(    1) = (   0.0000000   0.0000000   0.0000000), wk =   0.0092593
        k(    2) = (   0.0000000   0.0000000   0.1666667), wk =   0.0185185
        k(    3) = (   0.0000000   0.0000000   0.3333333), wk =   0.0185185
        k(    4) = (   0.0000000   0.0000000  -0.5000000), wk =   0.0092593
        k(    5) = (   0.0000000   0.1575061   0.0000000), wk =   0.0185185
        k(    6) = (   0.0000000   0.1575061   0.1666667), wk =   0.0370370
        k(    7) = (   0.0000000   0.1575061   0.3333333), wk =   0.0370370
        k(    8) = (   0.0000000   0.1575061  -0.5000000), wk =   0.0185185
        k(    9) = (   0.0000000   0.3150122   0.0000000), wk =   0.0185185
        k(   10) = (   0.0000000   0.3150122   0.1666667), wk =   0.0370370
        k(   11) = (   0.0000000   0.3150122   0.3333333), wk =   0.0370370
        k(   12) = (   0.0000000   0.3150122  -0.5000000), wk =   0.0185185
        k(   13) = (   0.0000000  -0.4725183   0.0000000), wk =   0.0092593
        k(   14) = (   0.0000000  -0.4725183   0.1666667), wk =   0.0185185
        k(   15) = (   0.0000000  -0.4725183   0.3333333), wk =   0.0185185
        k(   16) = (   0.0000000  -0.4725183  -0.5000000), wk =   0.0092593
        k(   17) = (   0.1666667   0.0000000   0.1666667), wk =   0.0370370
        k(   18) = (   0.1666667   0.0000000   0.3333333), wk =   0.0370370
        k(   19) = (   0.1666667   0.0000000  -0.5000000), wk =   0.0185185
        k(   20) = (   0.1666667   0.1575061   0.1666667), wk =   0.0740741
        k(   21) = (   0.1666667   0.1575061   0.3333333), wk =   0.0740741
        k(   22) = (   0.1666667   0.1575061  -0.5000000), wk =   0.0370370
        k(   23) = (   0.1666667   0.3150122   0.1666667), wk =   0.0740741
        k(   24) = (   0.1666667   0.3150122   0.3333333), wk =   0.0740741
        k(   25) = (   0.1666667   0.3150122  -0.5000000), wk =   0.0370370
        k(   26) = (   0.1666667  -0.4725183   0.1666667), wk =   0.0370370
        k(   27) = (   0.1666667  -0.4725183   0.3333333), wk =   0.0370370
        k(   28) = (   0.1666667  -0.4725183  -0.5000000), wk =   0.0185185
        k(   29) = (   0.3333333   0.0000000   0.3333333), wk =   0.0370370
        k(   30) = (   0.3333333   0.0000000  -0.5000000), wk =   0.0185185
        k(   31) = (   0.3333333   0.1575061   0.3333333), wk =   0.0740741
        k(   32) = (   0.3333333   0.1575061  -0.5000000), wk =   0.0370370
        k(   33) = (   0.3333333   0.3150122   0.3333333), wk =   0.0740741
        k(   34) = (   0.3333333   0.3150122  -0.5000000), wk =   0.0370370
        k(   35) = (   0.3333333  -0.4725183   0.3333333), wk =   0.0370370
        k(   36) = (   0.3333333  -0.4725183  -0.5000000), wk =   0.0185185
        k(   37) = (  -0.5000000   0.0000000  -0.5000000), wk =   0.0092593
        k(   38) = (  -0.5000000   0.1575061  -0.5000000), wk =   0.0185185
        k(   39) = (  -0.5000000   0.3150122  -0.5000000), wk =   0.0185185
        k(   40) = (  -0.5000000  -0.4725183  -0.5000000), wk =   0.0092593
        k(   41) = (   0.1666667   0.0000000   0.0000000), wk =   0.0185185
        k(   42) = (   0.3333333   0.0000000   0.0000000), wk =   0.0185185
        k(   43) = (  -0.5000000   0.0000000   0.0000000), wk =   0.0092593
        k(   44) = (   0.1666667  -0.1575061   0.0000000), wk =   0.0370370
        k(   45) = (   0.3333333  -0.1575061   0.0000000), wk =   0.0370370
        k(   46) = (  -0.5000000  -0.1575061   0.0000000), wk =   0.0185185
        k(   47) = (   0.1666667  -0.3150122   0.0000000), wk =   0.0370370
        k(   48) = (   0.3333333  -0.3150122   0.0000000), wk =   0.0370370
        k(   49) = (  -0.5000000  -0.3150122   0.0000000), wk =   0.0185185
        k(   50) = (   0.1666667   0.4725183   0.0000000), wk =   0.0185185
        k(   51) = (   0.3333333   0.4725183   0.0000000), wk =   0.0185185
        k(   52) = (  -0.5000000   0.4725183   0.0000000), wk =   0.0092593
        k(   53) = (   0.3333333   0.0000000   0.1666667), wk =   0.0370370
        k(   54) = (  -0.5000000   0.0000000   0.1666667), wk =   0.0185185
        k(   55) = (   0.3333333  -0.1575061   0.1666667), wk =   0.0740741
        k(   56) = (  -0.5000000  -0.1575061   0.1666667), wk =   0.0370370
        k(   57) = (   0.3333333  -0.3150122   0.1666667), wk =   0.0740741
        k(   58) = (  -0.5000000  -0.3150122   0.1666667), wk =   0.0370370
        k(   59) = (   0.3333333   0.4725183   0.1666667), wk =   0.0370370
        k(   60) = (  -0.5000000   0.4725183   0.1666667), wk =   0.0185185
        k(   61) = (  -0.5000000   0.0000000   0.3333333), wk =   0.0185185
        k(   62) = (  -0.5000000  -0.1575061   0.3333333), wk =   0.0370370
        k(   63) = (  -0.5000000  -0.3150122   0.3333333), wk =   0.0370370
        k(   64) = (  -0.5000000   0.4725183   0.3333333), wk =   0.0185185

     Initial potential from superposition of free atoms

     starting charge  367.99656, renormalised to  368.00000
     Starting wfc are  232 randomized atomic wfcs

     Self-consistent Calculation

     iteration #  1     ecut=   120.00 Ry     beta= 0.70
     Davidson diagonalization with overlap
     ethr =  1.00E-02,  avg # of iterations =  4.9

     total energy              =   -6253.88820748 Ry
     Harris-Foulkes estimate   =   -6264.53373812 Ry
     estimated scf accuracy    <      13.46443938 Ry

[...]

     End of self-consistent calculation

[...]
End final coordinates

     A final scf calculation at the relaxed structure.
     The G-vectors are recalculated for the final unit cell
     Results may differ from those at the preceding step.

     bravais-lattice index     =            0
     lattice parameter (alat)  =      13.8397  a.u.
     unit-cell volume          =    2768.6122 (a.u.)^3
     number of atoms/cell      =           32
     number of atomic types    =            2
     number of electrons       =       368.00
     number of Kohn-Sham states=          221
     kinetic-energy cutoff     =     120.0000  Ry
     charge density cutoff     =     480.0000  Ry
     convergence threshold     =      1.0E-10
     mixing beta               =       0.7000
     number of iterations used =            8  plain     mixing
     Exchange-correlation      = SLA PW NOGX NOGC ( 1  4  0  0 0 0)

     celldm(1)=  13.839685  celldm(2)=   0.000000  celldm(3)=   0.000000
     celldm(4)=   0.000000  celldm(5)=   0.000000  celldm(6)=   0.000000

     crystal axes: (cart. coord. in units of alat)
               a(1) = (   0.998356   0.000000   0.000000 )
               a(2) = (   0.000000   1.039886   0.000000 )
               a(3) = (   0.000000   0.000000   1.006033 )

     reciprocal axes: (cart. coord. in units 2 pi/alat)
               b(1) = (  1.001647  0.000000  0.000000 )
               b(2) = (  0.000000  0.961644  0.000000 )
               b(3) = (  0.000000  0.000000  0.994003 )

     PseudoPot. # 1 for W  read from file:
     /cluster/scratch/mnoe/QE/pps/W_ONCV_LDA-4.0.upf
     MD5 check sum: ba0307d5d4cd419d6f1d13dc49d7c13a
     Pseudo is Norm-conserving + core correction, Zval = 28.0
     Generated using ONCVPSP code by D. R. Hamann
     Using radial grid of 1380 points,  8 beta functions with:
                l(1) =   0
                l(2) =   0
                l(3) =   1
                l(4) =   1
                l(5) =   2
                l(6) =   2
                l(7) =   3
                l(8) =   3

     PseudoPot. # 2 for O  read from file:
     /cluster/scratch/mnoe/QE/pps/O_ONCV_LDA-3.0.upf
     MD5 check sum: a1bd6164e7280c17a38c229939bfbd54
     Pseudo is Norm-conserving + core correction, Zval =  6.0
     Generated using ONCVPSP code by D. R. Hamann
     Using radial grid of  926 points,  5 beta functions with:
                l(1) =   0
                l(2) =   0
                l(3) =   1
                l(4) =   1
                l(5) =   2

     atomic species   valence    mass     pseudopotential
        W             28.00   183.84000     W ( 1.00)
        O              6.00    15.99940     O ( 1.00)

      8 Sym. Ops., with inversion, found ( 6 have fractional translation)

   Cartesian axes

     site n.     atom                  positions (alat units)
         1           W   tau(   1) = (   0.2320479   0.2931022   0.0167002  )
         2           W   tau(   2) = (   0.7663080   0.7467836   0.9893332  )
         3           W   tau(   3) = (   0.2671301   0.2268407   0.5197169  )
         4           W   tau(   4) = (   0.7312258   0.8130451   0.4863165  )
         5           W   tau(   5) = (   0.7663080   0.2931022   0.4863165  )
         6           W   tau(   6) = (   0.2320479   0.7467836   0.5197169  )
         7           W   tau(   7) = (   0.7312258   0.2268407   0.9893332  )
         8           W   tau(   8) = (   0.2671301   0.8130451   0.0167002  )
         9           O   tau(   9) = (   0.2172223   0.0086519   0.0051911  )
        10           O   tau(  10) = (   0.7811336   1.0312340   1.0008423  )
        11           O   tau(  11) = (   0.2819557   0.5112911   0.5082078  )
        12           O   tau(  12) = (   0.7164002   0.5285948   0.4978256  )
        13           O   tau(  13) = (   0.7811336   0.0086519   0.4978256  )
        14           O   tau(  14) = (   0.2172223   1.0312340   0.5082078  )
        15           O   tau(  15) = (   0.7164002   0.5112911   1.0008423  )
        16           O   tau(  16) = (   0.2819557   0.5285948   0.0051911  )
        17           O   tau(  17) = (   0.5039701   0.2253849   0.4522523  )
        18           O   tau(  18) = (   0.4943858   0.8145010   0.5537811  )
        19           O   tau(  19) = (   0.9935638   0.2945581   0.9552690  )
        20           O   tau(  20) = (   0.0047922   0.7453278   0.0507645  )
        21           O   tau(  21) = (   0.4943858   0.2253849   0.0507645  )
        22           O   tau(  22) = (   0.5039701   0.8145010   0.9552690  )
        23           O   tau(  23) = (   0.0047922   0.2945581   0.5537811  )
        24           O   tau(  24) = (   0.9935638   0.7453278   0.4522523  )
        25           O   tau(  25) = (   0.6983899   0.2524219   0.7471911  )
        26           O   tau(  26) = (   0.2999660   0.7874639   0.2588423  )
        27           O   tau(  27) = (   0.7991439   0.2675210   0.2441744  )
        28           O   tau(  28) = (   0.1992120   0.7723649   0.7618590  )
        29           O   tau(  29) = (   0.2999660   0.2524219   0.7618590  )
        30           O   tau(  30) = (   0.6983899   0.7874639   0.2441744  )
        31           O   tau(  31) = (   0.1992120   0.2675210   0.2588423  )
        32           O   tau(  32) = (   0.7991439   0.7723649   0.7471911  )

     number of k points=    64  gaussian smearing, width (Ry)=  0.0007
                       cart. coord. in units 2pi/alat
        k(    1) = (   0.0000000   0.0000000   0.0000000), wk =   0.0092593
        k(    2) = (   0.0000000   0.0000000   0.1656671), wk =   0.0185185
        k(    3) = (   0.0000000   0.0000000   0.3313343), wk =   0.0185185
        k(    4) = (   0.0000000   0.0000000  -0.4970014), wk =   0.0092593
        k(    5) = (   0.0000000   0.1602740   0.0000000), wk =   0.0185185
        k(    6) = (   0.0000000   0.1602740   0.1656671), wk =   0.0370370
        k(    7) = (   0.0000000   0.1602740   0.3313343), wk =   0.0370370
        k(    8) = (   0.0000000   0.1602740  -0.4970014), wk =   0.0185185
        k(    9) = (   0.0000000   0.3205480   0.0000000), wk =   0.0185185
        k(   10) = (   0.0000000   0.3205480   0.1656671), wk =   0.0370370
        k(   11) = (   0.0000000   0.3205480   0.3313343), wk =   0.0370370
        k(   12) = (   0.0000000   0.3205480  -0.4970014), wk =   0.0185185
        k(   13) = (   0.0000000  -0.4808220   0.0000000), wk =   0.0092593
        k(   14) = (   0.0000000  -0.4808220   0.1656671), wk =   0.0185185
        k(   15) = (   0.0000000  -0.4808220   0.3313343), wk =   0.0185185
        k(   16) = (   0.0000000  -0.4808220  -0.4970014), wk =   0.0092593
        k(   17) = (   0.1669411   0.0000000   0.1656671), wk =   0.0370370
        k(   18) = (   0.1669411   0.0000000   0.3313343), wk =   0.0370370
        k(   19) = (   0.1669411   0.0000000  -0.4970014), wk =   0.0185185
        k(   20) = (   0.1669411   0.1602740   0.1656671), wk =   0.0740741
        k(   21) = (   0.1669411   0.1602740   0.3313343), wk =   0.0740741
        k(   22) = (   0.1669411   0.1602740  -0.4970014), wk =   0.0370370
        k(   23) = (   0.1669411   0.3205480   0.1656671), wk =   0.0740741
        k(   24) = (   0.1669411   0.3205480   0.3313343), wk =   0.0740741
        k(   25) = (   0.1669411   0.3205480  -0.4970014), wk =   0.0370370
        k(   26) = (   0.1669411  -0.4808220   0.1656671), wk =   0.0370370
        k(   27) = (   0.1669411  -0.4808220   0.3313343), wk =   0.0370370
        k(   28) = (   0.1669411  -0.4808220  -0.4970014), wk =   0.0185185
        k(   29) = (   0.3338823   0.0000000   0.3313343), wk =   0.0370370
        k(   30) = (   0.3338823   0.0000000  -0.4970014), wk =   0.0185185
        k(   31) = (   0.3338823   0.1602740   0.3313343), wk =   0.0740741
        k(   32) = (   0.3338823   0.1602740  -0.4970014), wk =   0.0370370
        k(   33) = (   0.3338823   0.3205480   0.3313343), wk =   0.0740741
        k(   34) = (   0.3338823   0.3205480  -0.4970014), wk =   0.0370370
        k(   35) = (   0.3338823  -0.4808220   0.3313343), wk =   0.0370370
        k(   36) = (   0.3338823  -0.4808220  -0.4970014), wk =   0.0185185
        k(   37) = (  -0.5008234   0.0000000  -0.4970014), wk =   0.0092593
        k(   38) = (  -0.5008234   0.1602740  -0.4970014), wk =   0.0185185
        k(   39) = (  -0.5008234   0.3205480  -0.4970014), wk =   0.0185185
        k(   40) = (  -0.5008234  -0.4808220  -0.4970014), wk =   0.0092593
        k(   41) = (   0.1669411   0.0000000   0.0000000), wk =   0.0185185
        k(   42) = (   0.3338823   0.0000000   0.0000000), wk =   0.0185185
        k(   43) = (  -0.5008234   0.0000000   0.0000000), wk =   0.0092593
        k(   44) = (   0.1669411  -0.1602740   0.0000000), wk =   0.0370370
        k(   45) = (   0.3338823  -0.1602740   0.0000000), wk =   0.0370370
        k(   46) = (  -0.5008234  -0.1602740   0.0000000), wk =   0.0185185
        k(   47) = (   0.1669411  -0.3205480   0.0000000), wk =   0.0370370
        k(   48) = (   0.3338823  -0.3205480   0.0000000), wk =   0.0370370
        k(   49) = (  -0.5008234  -0.3205480   0.0000000), wk =   0.0185185
        k(   50) = (   0.1669411   0.4808220   0.0000000), wk =   0.0185185
        k(   51) = (   0.3338823   0.4808220   0.0000000), wk =   0.0185185
        k(   52) = (  -0.5008234   0.4808220   0.0000000), wk =   0.0092593
        k(   53) = (   0.3338823   0.0000000   0.1656671), wk =   0.0370370
        k(   54) = (  -0.5008234   0.0000000   0.1656671), wk =   0.0185185
        k(   55) = (   0.3338823  -0.1602740   0.1656671), wk =   0.0740741
        k(   56) = (  -0.5008234  -0.1602740   0.1656671), wk =   0.0370370
        k(   57) = (   0.3338823  -0.3205480   0.1656671), wk =   0.0740741
        k(   58) = (  -0.5008234  -0.3205480   0.1656671), wk =   0.0370370
        k(   59) = (   0.3338823   0.4808220   0.1656671), wk =   0.0370370
        k(   60) = (  -0.5008234   0.4808220   0.1656671), wk =   0.0185185
        k(   61) = (  -0.5008234   0.0000000   0.3313343), wk =   0.0185185
        k(   62) = (  -0.5008234  -0.1602740   0.3313343), wk =   0.0370370
        k(   63) = (  -0.5008234  -0.3205480   0.3313343), wk =   0.0370370
        k(   64) = (  -0.5008234   0.4808220   0.3313343), wk =   0.0185185

     Initial potential from superposition of free atoms

     starting charge  367.99656, renormalised to  368.00000
     Starting wfc are  232 randomized atomic wfcs

     Writing output data file Landau_38.save

     Self-consistent Calculation

[...]

     total energy              =   -6261.10794082 Ry
     Harris-Foulkes estimate   =   -6261.10794083 Ry
     estimated scf accuracy    <          2.0E-09 Ry

     iteration # 14     ecut=   120.00 Ry     beta= 0.70
     Davidson diagonalization with overlap
     ethr =  5.51E-13,  avg # of iterations =  2.3

     End of self-consistent calculation

[...]

          k = 0.3339 0.4808 0.1657 ( 61488 PWs)   bands (ev):

[...]

          k =-0.5008 0.4808 0.3313 ( 61436 PWs)   bands (ev):

   -65.9139 -65.9139 -65.9138 -65.9138 -65.9134 -65.9134 -65.9134 -65.9134
   -30.2880 -30.2880 -30.2876 -30.2876 -30.2764 -30.2764 -30.2750 -30.2750
   -30.2604 -30.2604 -30.2592 -30.2592 -30.2356 -30.2356 -30.2354 -30.2354
   -30.2089 -30.2089 -30.2068 -30.2068 -30.1963 -30.1963 -30.1951 -30.1951
   -20.0757 -20.0757 -20.0757 -20.0757 -20.0754 -20.0754 -20.0754 -20.0753
   -20.0555 -20.0555 -20.0555 -20.0555 -20.0553 -20.0553 -20.0553 -20.0553
   -20.0493 -20.0493 -20.0493 -20.0493 -20.0491 -20.0491 -20.0490 -20.0490
   -20.0394 -20.0394 -20.0391 -20.0391 -20.0387 -20.0387 -20.0383 -20.0383
   -20.0348 -20.0348 -20.0347 -20.0347 -20.0342 -20.0342 -20.0341 -20.0340
   -20.0328 -20.0328 -20.0325 -20.0325 -20.0308 -20.0308 -20.0307 -20.0307
   -20.0153 -20.0153 -20.0153 -20.0153 -20.0146 -20.0146 -20.0146 -20.0146
    -8.9812  -8.9812  -8.9639  -8.9639  -8.5913  -8.5913  -8.5525  -8.5525
    -8.3221  -8.3221  -8.2827  -8.2827  -8.1802  -8.1802  -8.1397  -8.1397
    -8.0893  -8.0892  -8.0638  -8.0638  -7.9215  -7.9215  -7.9205  -7.9205
     2.4872   2.4872   2.5110   2.5110   3.1198   3.1198   3.1747   3.1747
     3.2438   3.2438   3.3262   3.3262   3.3527   3.3528   3.4625   3.4625
     3.6717   3.6717   3.7547   3.7547   3.8218   3.8218   3.8764   3.8764
     4.0970   4.0970   4.2508   4.2508   4.4512   4.4512   4.4710   4.4710
     4.5481   4.5481   4.6031   4.6031   4.7424   4.7424   4.8714   4.8714
     4.9473   4.9473   5.0836   5.0836   5.2378   5.2378   5.2889   5.2889
     7.1295   7.1295   7.2449   7.2449   7.3200   7.3200   7.3746   7.3746
     7.4092   7.4092   7.5042   7.5042   7.5800   7.5800   7.6237   7.6237
     7.6880   7.6880   7.7328   7.7328   7.8235   7.8236   7.8352   7.8352
    11.7939  11.7939  11.8641  11.8641  11.9310  11.9310  12.0593  12.0593
    12.4509  12.4509  12.4689  12.4689  12.5673  12.5673  12.7169  12.7169
    12.7736  12.7736  12.8998  12.8998  13.1476  13.1476  13.2229  13.2229
    16.5293  16.5293  16.5878  16.5878  17.1467  17.1467  17.3534  17.3534
    17.3744  17.3744  17.5451  17.5459  17.5846

     the Fermi energy is     9.2692 ev

!    total energy              =   -6261.10794083 Ry
     Harris-Foulkes estimate   =   -6261.10794083 Ry
     estimated scf accuracy    <          6.4E-11 Ry

     The total energy is the sum of the following terms:

     one-electron contribution =   -4654.22574599 Ry
     hartree contribution      =    2566.98765040 Ry
     xc contribution           =    -965.65402477 Ry
     ewald contribution        =   -3208.21582046 Ry
     smearing contrib. (-TS)   =      -0.00000000 Ry

     convergence has been achieved in  14 iterations

     Forces acting on atoms (cartesian axes, Ry/au):

     atom    1 type  1   force =     0.00806616   -0.01061747   -0.00801358
     atom    2 type  1   force =    -0.00806616    0.01061747    0.00801358
     atom    3 type  1   force =    -0.00806616    0.01061747   -0.00801358
     atom    4 type  1   force =     0.00806616   -0.01061747    0.00801358
     atom    5 type  1   force =    -0.00806616   -0.01061747    0.00801358
     atom    6 type  1   force =     0.00806616    0.01061747   -0.00801358
     atom    7 type  1   force =     0.00806616    0.01061747    0.00801358
     atom    8 type  1   force =    -0.00806616   -0.01061747   -0.00801358
     atom    9 type  2   force =     0.00014003    0.00489104    0.00071346
     atom   10 type  2   force =    -0.00014003   -0.00489104   -0.00071346
     atom   11 type  2   force =    -0.00014003   -0.00489104    0.00071346
     atom   12 type  2   force =     0.00014003    0.00489104   -0.00071346
     atom   13 type  2   force =    -0.00014003    0.00489104   -0.00071346
     atom   14 type  2   force =     0.00014003   -0.00489104    0.00071346
     atom   15 type  2   force =     0.00014003   -0.00489104   -0.00071346
     atom   16 type  2   force =    -0.00014003    0.00489104    0.00071346
     atom   17 type  2   force =     0.00350731    0.00117281    0.00385617
     atom   18 type  2   force =    -0.00350731   -0.00117281   -0.00385617
     atom   19 type  2   force =    -0.00350731   -0.00117281    0.00385617
     atom   20 type  2   force =     0.00350731    0.00117281   -0.00385617
     atom   21 type  2   force =    -0.00350731    0.00117281   -0.00385617
     atom   22 type  2   force =     0.00350731   -0.00117281    0.00385617
     atom   23 type  2   force =     0.00350731   -0.00117281   -0.00385617
     atom   24 type  2   force =    -0.00350731    0.00117281    0.00385617
     atom   25 type  2   force =     0.00005244   -0.00105315   -0.00589161
     atom   26 type  2   force =    -0.00005244    0.00105315    0.00589161
     atom   27 type  2   force =    -0.00005244    0.00105315   -0.00589161
     atom   28 type  2   force =     0.00005244   -0.00105315    0.00589161
     atom   29 type  2   force =    -0.00005244   -0.00105315    0.00589161
     atom   30 type  2   force =     0.00005244    0.00105315   -0.00589161
     atom   31 type  2   force =     0.00005244    0.00105315    0.00589161
     atom   32 type  2   force =    -0.00005244   -0.00105315   -0.00589161

     Total force =     0.000000     Total SCF correction =     0.000000

     Computing stress (Cartesian axis) and pressure

          total   stress  (Ry/bohr**3)                   (kbar)     P=   -0.16
  -0.00000107   0.00000000   0.00000000         -0.16      0.00      0.00
   0.00000000  -0.00000250   0.00000000          0.00     -0.37      0.00
   0.00000000   0.00000000   0.00000033          0.00      0.00      0.05

     Writing output data file Landau_38.save

     General routines

     Parallel routines

   This run was terminated on:  21: 8:18  29Apr2019

   JOB DONE.