     Program PWSCF v.6.2 (svn rev. 14038) starts on 11Mar2020 at  2:17: 5

     K-points division:     npool     =      40
     Reading input from rscf.in

     Current dimensions of program PWSCF are:
     Max number of different atomic species (ntypx) = 10
     Max number of k-points (npk) =  40000
     Max angular momentum in pseudopotentials (lmaxx) =  3

     Subspace diagonalization in iterative solution of the eigenvalue problem:
     a serial algorithm will be used

     Found symmetry operation: I + (  0.5000  0.0000 -0.5000)
     This is a supercell, fractional translations are disabled

     bravais-lattice index     =            0
     lattice parameter (alat)  =      13.8397  a.u.
     unit-cell volume          =    2804.9816 (a.u.)^3
     number of atoms/cell      =           32
     number of atomic types    =            2
     number of electrons       =       368.00
     number of Kohn-Sham states=          221
     kinetic-energy cutoff     =     120.0000  Ry
     charge density cutoff     =     480.0000  Ry
     convergence threshold     =      1.0E-08
     mixing beta               =       0.7000
     number of iterations used =            8  plain     mixing
     Exchange-correlation      = SLA PW NOGX NOGC ( 1  4  0  0 0 0)
     nstep                     =           50

     celldm(1)=  13.839685  celldm(2)=   0.000000  celldm(3)=   0.000000
     celldm(4)=   0.000000  celldm(5)=   0.000000  celldm(6)=   0.000000

     crystal axes: (cart. coord. in units of alat)
               a(1) = (   1.000000   0.000000   0.000000 )
               a(2) = (   0.000000   1.058160   0.000000 )
               a(3) = (   0.000000   0.000000   1.000000 )

     reciprocal axes: (cart. coord. in units 2 pi/alat)
               b(1) = (  1.000000  0.000000  0.000000 )
               b(2) = (  0.000000  0.945037  0.000000 )
               b(3) = (  0.000000  0.000000  1.000000 )

     PseudoPot. # 1 for W  read from file:
     /cluster/scratch/mnoe/QE/pps/W_ONCV_LDA-4.0.upf
     MD5 check sum: ba0307d5d4cd419d6f1d13dc49d7c13a
     Pseudo is Norm-conserving + core correction, Zval = 28.0
     Generated using ONCVPSP code by D. R. Hamann
     Using radial grid of 1380 points,  8 beta functions with:
                l(1) =   0
                l(2) =   0
                l(3) =   1
                l(4) =   1
                l(5) =   2
                l(6) =   2
                l(7) =   3
                l(8) =   3

     PseudoPot. # 2 for O  read from file:
     /cluster/scratch/mnoe/QE/pps/O_ONCV_LDA-3.0.upf
     MD5 check sum: a1bd6164e7280c17a38c229939bfbd54
     Pseudo is Norm-conserving + core correction, Zval =  6.0
     Generated using ONCVPSP code by D. R. Hamann
     Using radial grid of  926 points,  5 beta functions with:
                l(1) =   0
                l(2) =   0
                l(3) =   1
                l(4) =   1
                l(5) =   2

     atomic species   valence    mass     pseudopotential
        W             28.00   183.84000     W ( 1.00)
        O              6.00    15.99940     O ( 1.00)

      2 Sym. Ops., with inversion, found

   Cartesian axes

     site n.     atom                  positions (alat units)
         1           W   tau(   1) = (   0.2500000   0.2933854   0.0000000  )
         2           W   tau(   2) = (   0.7500000   0.7647747   0.0000000  )
         3           W   tau(   3) = (   0.2500000   0.2356947   0.5000000  )
         4           W   tau(   4) = (   0.7500000   0.8224654   0.5000000  )
         5           W   tau(   5) = (   0.7500000   0.2933854   0.5000000  )
         6           W   tau(   6) = (   0.2500000   0.7647747   0.5000000  )
         7           W   tau(   7) = (   0.7500000   0.2356947   0.0000000  )
         8           W   tau(   8) = (   0.2500000   0.8224654   0.0000000  )
         9           O   tau(   9) = (   0.2500000   0.0074778   0.0000000  )
        10           O   tau(  10) = (   0.7500000   1.0506823   0.0000000  )
        11           O   tau(  11) = (   0.2500000   0.5216022   0.5000000  )
        12           O   tau(  12) = (   0.7500000   0.5365579   0.5000000  )
        13           O   tau(  13) = (   0.7500000   0.0074778   0.5000000  )
        14           O   tau(  14) = (   0.2500000   1.0506823   0.5000000  )
        15           O   tau(  15) = (   0.7500000   0.5216022   0.0000000  )
        16           O   tau(  16) = (   0.2500000   0.5365579   0.0000000  )
        17           O   tau(  17) = (   0.5000000   0.2645400   0.4607881  )
        18           O   tau(  18) = (   0.5000000   0.7936201   0.5392119  )
        19           O   tau(  19) = (   0.0000000   0.2645400   0.9607882  )
        20           O   tau(  20) = (   0.0000000   0.7936201   0.0392118  )
        21           O   tau(  21) = (   0.5000000   0.2645400   0.0392118  )
        22           O   tau(  22) = (   0.5000000   0.7936201   0.9607882  )
        23           O   tau(  23) = (   0.0000000   0.2645400   0.5392119  )
        24           O   tau(  24) = (   0.0000000   0.7936201   0.4607881  )
        25           O   tau(  25) = (   0.7107881   0.2645400   0.7500000  )
        26           O   tau(  26) = (   0.2892119   0.7936201   0.2500000  )
        27           O   tau(  27) = (   0.7892119   0.2645400   0.2500000  )
        28           O   tau(  28) = (   0.2107881   0.7936201   0.7500000  )
        29           O   tau(  29) = (   0.2892119   0.2645400   0.7500000  )
        30           O   tau(  30) = (   0.7107881   0.7936201   0.2500000  )
        31           O   tau(  31) = (   0.2107881   0.2645400   0.2500000  )
        32           O   tau(  32) = (   0.7892119   0.7936201   0.7500000  )

     number of k points=   112  gaussian smearing, width (Ry)=  0.0007

     Number of k-points >= 100: set verbosity='high' to print them.

     Initial potential from superposition of free atoms

     starting charge  367.99656, renormalised to  368.00000
     Starting wfc are  232 randomized atomic wfcs

     Self-consistent Calculation

     iteration #  1     ecut=   120.00 Ry     beta= 0.70
     Davidson diagonalization with overlap
     ethr =  1.00E-02,  avg # of iterations =  5.2

     total energy              =   -6254.04174744 Ry
     Harris-Foulkes estimate   =   -6264.58229179 Ry
     estimated scf accuracy    <      13.36532620 Ry

[...]

     End of self-consistent calculation

     Number of k-points >= 100: set verbosity='high' to print the bands.

     the Fermi energy is     9.0619 ev

!    total energy              =   -6261.08842242 Ry
     Harris-Foulkes estimate   =   -6261.08842242 Ry
     estimated scf accuracy    <          2.4E-09 Ry

     The total energy is the sum of the following terms:

     one-electron contribution =   -4758.96621321 Ry
     hartree contribution      =    2616.24457819 Ry
     xc contribution           =    -966.07708033 Ry
     ewald contribution        =   -3152.28970706 Ry
     smearing contrib. (-TS)   =      -0.00000000 Ry

     convergence has been achieved in  14 iterations

     Forces acting on atoms (cartesian axes, Ry/au):

     atom    1 type  1   force =     0.00003433    0.03579356   -0.00001829
     atom    2 type  1   force =    -0.00003433   -0.03579356    0.00001829
     atom    3 type  1   force =     0.00000912   -0.03578874    0.00001729
     atom    4 type  1   force =    -0.00000912    0.03578874   -0.00001729
     atom    5 type  1   force =    -0.00000829    0.03576200   -0.00003893
     atom    6 type  1   force =     0.00000829   -0.03576200    0.00003893
     atom    7 type  1   force =    -0.00002493   -0.03574458    0.00003012
     atom    8 type  1   force =     0.00002493    0.03574458   -0.00003012
     atom    9 type  2   force =     0.00000002   -0.01778237    0.00000008
     atom   10 type  2   force =    -0.00000002    0.01778237   -0.00000008
     atom   11 type  2   force =     0.00000020    0.01778293    0.00000003
     atom   12 type  2   force =    -0.00000020   -0.01778293   -0.00000003
     atom   13 type  2   force =    -0.00000014   -0.01778040   -0.00000007
     atom   14 type  2   force =     0.00000014    0.01778040    0.00000007
     atom   15 type  2   force =    -0.00000158    0.01778213    0.00000085
     atom   16 type  2   force =     0.00000158   -0.01778213   -0.00000085
     atom   17 type  2   force =     0.00000196    0.00000016   -0.00868864
     atom   18 type  2   force =    -0.00000196   -0.00000016    0.00868864
     atom   19 type  2   force =    -0.00000052   -0.00000024   -0.00868828
     atom   20 type  2   force =     0.00000052    0.00000024    0.00868828
     atom   21 type  2   force =    -0.00000047    0.00000122    0.00868863
     atom   22 type  2   force =     0.00000047   -0.00000122   -0.00868863
     atom   23 type  2   force =    -0.00000144    0.00000010    0.00868819
     atom   24 type  2   force =     0.00000144   -0.00000010   -0.00868819
     atom   25 type  2   force =    -0.00868839   -0.00000007   -0.00000067
     atom   26 type  2   force =     0.00868839    0.00000007    0.00000067
     atom   27 type  2   force =     0.00868672    0.00000074    0.00000132
     atom   28 type  2   force =    -0.00868672   -0.00000074   -0.00000132
     atom   29 type  2   force =     0.00868960    0.00000069    0.00000198
     atom   30 type  2   force =    -0.00868960   -0.00000069   -0.00000198
     atom   31 type  2   force =    -0.00868783    0.00000020   -0.00000093
     atom   32 type  2   force =     0.00868783   -0.00000020    0.00000093

     Total force =     0.000000     Total SCF correction =     0.000000

     Computing stress (Cartesian axis) and pressure

          total   stress  (Ry/bohr**3)                   (kbar)     P=   36.83
   0.00049511   0.00000000  -0.00000000         72.83      0.00     -0.00
   0.00000000  -0.00023915  -0.00000001          0.00    -35.18     -0.00
  -0.00000000  -0.00000001   0.00049511         -0.00     -0.00     72.83

     BFGS Geometry Optimization

     number of scf cycles    =   1
     number of bfgs steps    =   0

     enthalpy new            =   -6261.0884224163 Ry

     new trust radius        =       0.1311108712 bohr
     new conv_thr            =       0.0000000100 Ry

     new unit-cell volume =   2857.66219 a.u.^3 (   423.46184 Ang^3 )
     density =      7.27294 g/cm^3

CELL_PARAMETERS (angstrom)
   7.414296097   0.000000606  -0.000000020
   0.000000641   7.703257095  -0.000001298
  -0.000000020  -0.000001227   7.414296745

ATOMIC_POSITIONS (crystal)
W        0.250000000   0.277259915  -0.000000000    0   0   0
W        0.749999976   0.722740085   0.000000000    0   0   0
W        0.250000000   0.222740102   0.500000000    0   0   0
W        0.749999976   0.777259931   0.500000000    0   0   0
W        0.749999976   0.277259915   0.500000000    0   0   0
W        0.250000000   0.722740085   0.500000000    0   0   0
W        0.749999976   0.222740102   0.000000000    0   0   0
W        0.250000000   0.777259931  -0.000000000    0   0   0
O        0.250000000   0.007066800  -0.000000000    0   0   0
O        0.749999976   0.992933191  -0.000000000    0   0   0
[...]
O        0.749999976   0.492933208   0.000000000    0   0   0
O        0.250000000   0.507066809   0.000000000    0   0   0
O        0.500000000   0.250000000   0.460788125    0   0   0
O        0.500000000   0.750000008   0.539211893    0   0   0
O        0.000000000   0.250000000   0.960788158    0   0   0
O        0.000000000   0.750000008   0.039211848    0   0   0
O        0.500000000   0.250000000   0.039211848    0   0   0
O        0.500000000   0.750000008   0.960788158    0   0   0
O        0.000000000   0.250000000   0.539211893    0   0   0
O       -0.000000000   0.750000008   0.460788125    0   0   0
O        0.710788132   0.250000000   0.749999976    0   0   0
O        0.289211851   0.750000008   0.250000000    0   0   0
O        0.789211917   0.250000000   0.250000000    0   0   0
O        0.210788141   0.750000008   0.749999976    0   0   0
O        0.289211851   0.250000000   0.749999976    0   0   0
O        0.710788132   0.750000008   0.250000000    0   0   0
O        0.210788141   0.250000000   0.250000000    0   0   0
O        0.789211917   0.750000008   0.749999976    0   0   0

     Writing output data file Landau_33.save
     NEW-OLD atomic charge density approx. for the potential
     extrapolated charge  374.78396, renormalised to  368.00000

[...]

     enthalpy old            =   -6261.0884224163 Ry
     enthalpy new            =   -6261.1037065805 Ry

     CASE: enthalpy_new < enthalpy_old

[...]

     Threshold (ethr) on eigenvalues was too large:
     Diagonalizing with lowered threshold

     Davidson diagonalization with overlap
     ethr =  7.58E-10,  avg # of iterations =  3.0

[...]

     number of scf cycles    =   5
     number of bfgs steps    =   4

     enthalpy old            =   -6261.1045802718 Ry
     enthalpy new            =   -6261.1045805469 Ry

     CASE: enthalpy_new < enthalpy_old

     small trust_radius: resetting bfgs history

     new trust radius        =       0.0000157828 bohr
     new conv_thr            =            1.0E-10 Ry

     new unit-cell volume =   2841.54060 a.u.^3 (   421.07287 Ang^3 )
     density =      7.31420 g/cm^3

[...]

ATOMIC_POSITIONS (crystal)
W        0.250000000   0.277259915   0.000000000    0   0   0
W        0.749999976   0.722740085   0.000000000    0   0   0
W        0.250000000   0.222740102   0.500000000    0   0   0
W        0.749999976   0.777259931   0.500000000    0   0   0
W        0.749999976   0.277259915   0.500000000    0   0   0
W        0.250000000   0.722740085   0.500000000    0   0   0
W        0.749999976   0.222740102   0.000000000    0   0   0
W        0.250000000   0.777259931   0.000000000    0   0   0
O        0.250000000   0.007066800  -0.000000000    0   0   0
O        0.749999976   0.992933191   0.000000000    0   0   0
O        0.250000000   0.492933208   0.500000000    0   0   0
O        0.749999976   0.507066809   0.500000000    0   0   0
O        0.749999976   0.007066800   0.500000000    0   0   0
O        0.250000000   0.992933191   0.500000000    0   0   0
O        0.749999976   0.492933208   0.000000000    0   0   0
O        0.250000000   0.507066809   0.000000000    0   0   0
O        0.500000000   0.250000000   0.460788125    0   0   0
O        0.500000000   0.750000008   0.539211893    0   0   0
O        0.000000000   0.250000000   0.960788158    0   0   0
O        0.000000000   0.750000008   0.039211848    0   0   0
O        0.500000000   0.250000000   0.039211848    0   0   0
O        0.500000000   0.750000008   0.960788158    0   0   0
O        0.000000000   0.250000000   0.539211893    0   0   0
O        0.000000000   0.750000008   0.460788125    0   0   0
O        0.710788132   0.250000000   0.749999976    0   0   0
O        0.289211851   0.750000008   0.250000000    0   0   0
O        0.789211917   0.250000000   0.250000000    0   0   0
O        0.210788141   0.750000008   0.749999976    0   0   0
O        0.289211851   0.250000000   0.749999976    0   0   0
O        0.710788132   0.750000008   0.250000000    0   0   0
O        0.210788141   0.250000000   0.250000000    0   0   0
O        0.789211917   0.750000008   0.749999976    0   0   0

     Writing output data file Landau_33.save
     NEW-OLD atomic charge density approx. for the potential
     extrapolated charge  368.00136, renormalised to  368.00000

[...]

     Threshold (ethr) on eigenvalues was too large:
     Diagonalizing with lowered threshold

     Davidson diagonalization with overlap
     ethr =  2.82E-11,  avg # of iterations =  2.0

[...]

     bfgs converged in   6 scf cycles and   5 bfgs steps
     (criteria: energy <  1.0E-07 Ry, force <  1.0E-07Ry/Bohr, cell <  5.0E-01kbar)

     End of BFGS Geometry Optimization

     Final enthalpy =   -6261.1045805481 Ry
Begin final coordinates
     new unit-cell volume =   2841.54060 a.u.^3 (   421.07287 Ang^3 )
     density =      7.31420 g/cm^3

CELL_PARAMETERS (angstrom)
   7.397347979   0.000000438   0.000000000
   0.000000467   7.694938676  -0.000000646
   0.000000000  -0.000000612   7.397347946

ATOMIC_POSITIONS (crystal)
W        0.250000000   0.277259915   0.000000000    0   0   0
W        0.749999976   0.722740085   0.000000000    0   0   0
W        0.250000000   0.222740102   0.500000000    0   0   0
W        0.749999976   0.777259931   0.500000000    0   0   0
W        0.749999976   0.277259915   0.500000000    0   0   0
W        0.250000000   0.722740085   0.500000000    0   0   0
W        0.749999976   0.222740102   0.000000000    0   0   0
W        0.250000000   0.777259931  -0.000000000    0   0   0
O        0.250000000   0.007066800  -0.000000000    0   0   0
O        0.749999976   0.992933191   0.000000000    0   0   0
O        0.250000000   0.492933208   0.500000000    0   0   0
O        0.749999976   0.507066809   0.500000000    0   0   0
O        0.749999976   0.007066800   0.500000000    0   0   0
O        0.250000000   0.992933191   0.500000000    0   0   0
O        0.749999976   0.492933208   0.000000000    0   0   0
O        0.250000000   0.507066809   0.000000000    0   0   0
O        0.500000000   0.250000000   0.460788125    0   0   0
O        0.500000000   0.750000008   0.539211893    0   0   0
O        0.000000000   0.250000000   0.960788158    0   0   0
O        0.000000000   0.750000008   0.039211848    0   0   0
O        0.500000000   0.250000000   0.039211848    0   0   0
O        0.500000000   0.750000008   0.960788158    0   0   0
O        0.000000000   0.250000000   0.539211893    0   0   0
O        0.000000000   0.750000008   0.460788125    0   0   0
O        0.710788132   0.250000000   0.749999976    0   0   0
O        0.289211851   0.750000008   0.250000000    0   0   0
O        0.789211917   0.250000000   0.250000000    0   0   0
O        0.210788141   0.750000008   0.749999976    0   0   0
O        0.289211851   0.250000000   0.749999976    0   0   0
O        0.710788132   0.750000008   0.250000000    0   0   0
O        0.210788141   0.250000000   0.250000000    0   0   0
O        0.789211917   0.750000008   0.749999976    0   0   0
End final coordinates

     A final scf calculation at the relaxed structure.
     The G-vectors are recalculated for the final unit cell
     Results may differ from those at the preceding step.

     bravais-lattice index     =            0
     lattice parameter (alat)  =      13.8397  a.u.
     unit-cell volume          =    2841.5406 (a.u.)^3
     number of atoms/cell      =           32
     number of atomic types    =            2
     number of electrons       =       368.00
     number of Kohn-Sham states=          221
     kinetic-energy cutoff     =     120.0000  Ry
     charge density cutoff     =     480.0000  Ry
     convergence threshold     =      1.0E-10
     mixing beta               =       0.7000
     number of iterations used =            8  plain     mixing
     Exchange-correlation      = SLA PW NOGX NOGC ( 1  4  0  0 0 0)

     celldm(1)=  13.839685  celldm(2)=   0.000000  celldm(3)=   0.000000
     celldm(4)=   0.000000  celldm(5)=   0.000000  celldm(6)=   0.000000

     crystal axes: (cart. coord. in units of alat)
               a(1) = (   1.010064   0.000000   0.000000 )
               a(2) = (   0.000000   1.050698  -0.000000 )
               a(3) = (   0.000000  -0.000000   1.010064 )

     reciprocal axes: (cart. coord. in units 2 pi/alat)
               b(1) = (  0.990037 -0.000000 -0.000000 )
               b(2) = ( -0.000000  0.951748  0.000000 )
               b(3) = ( -0.000000  0.000000  0.990037 )

     PseudoPot. # 1 for W  read from file:
     /cluster/scratch/mnoe/QE/pps/W_ONCV_LDA-4.0.upf
     MD5 check sum: ba0307d5d4cd419d6f1d13dc49d7c13a
     Pseudo is Norm-conserving + core correction, Zval = 28.0
     Generated using ONCVPSP code by D. R. Hamann
     Using radial grid of 1380 points,  8 beta functions with:
                l(1) =   0
                l(2) =   0
                l(3) =   1
                l(4) =   1
                l(5) =   2
                l(6) =   2
                l(7) =   3
                l(8) =   3

     PseudoPot. # 2 for O  read from file:
     /cluster/scratch/mnoe/QE/pps/O_ONCV_LDA-3.0.upf
     MD5 check sum: a1bd6164e7280c17a38c229939bfbd54
     Pseudo is Norm-conserving + core correction, Zval =  6.0
     Generated using ONCVPSP code by D. R. Hamann
     Using radial grid of  926 points,  5 beta functions with:
                l(1) =   0
                l(2) =   0
                l(3) =   1
                l(4) =   1
                l(5) =   2

     atomic species   valence    mass     pseudopotential
        W             28.00   183.84000     W ( 1.00)
        O              6.00    15.99940     O ( 1.00)

      2 Sym. Ops., with inversion, found

   Cartesian axes

     site n.     atom                  positions (alat units)
         1           W   tau(   1) = (   0.2525159   0.2913164  -0.0000000  )
         2           W   tau(   2) = (   0.7575477   0.7593814  -0.0000001  )
         3           W   tau(   3) = (   0.2525159   0.2340325   0.5050318  )
         4           W   tau(   4) = (   0.7575477   0.8166653   0.5050317  )
         5           W   tau(   5) = (   0.7575477   0.2913164   0.5050318  )
         6           W   tau(   6) = (   0.2525159   0.7593814   0.5050317  )
         7           W   tau(   7) = (   0.7575477   0.2340326  -0.0000000  )
         8           W   tau(   8) = (   0.2525159   0.8166653  -0.0000001  )
         9           O   tau(   9) = (   0.2525159   0.0074251  -0.0000000  )
        10           O   tau(  10) = (   0.7575477   1.0432727  -0.0000001  )
        11           O   tau(  11) = (   0.2525159   0.5179238   0.5050317  )
        12           O   tau(  12) = (   0.7575477   0.5327740   0.5050317  )
        13           O   tau(  13) = (   0.7575476   0.0074251   0.5050318  )
        14           O   tau(  14) = (   0.2525160   1.0432727   0.5050317  )
        15           O   tau(  15) = (   0.7575477   0.5179239  -0.0000000  )
        16           O   tau(  16) = (   0.2525159   0.5327740  -0.0000000  )
        17           O   tau(  17) = (   0.5050318   0.2626744   0.4654253  )
        18           O   tau(  18) = (   0.5050318   0.7880233   0.5446382  )
        19           O   tau(  19) = (   0.0000000   0.2626744   0.9704571  )
        20           O   tau(  20) = (   0.0000000   0.7880233   0.0396064  )
        21           O   tau(  21) = (   0.5050318   0.2626745   0.0396064  )
        22           O   tau(  22) = (   0.5050318   0.7880233   0.9704570  )
        23           O   tau(  23) = (   0.0000000   0.2626744   0.5446383  )
        24           O   tau(  24) = (   0.0000000   0.7880233   0.4654252  )
        25           O   tau(  25) = (   0.7179412   0.2626744   0.7575476  )
        26           O   tau(  26) = (   0.2921224   0.7880233   0.2525158  )
        27           O   tau(  27) = (   0.7971542   0.2626745   0.2525159  )
        28           O   tau(  28) = (   0.2129095   0.7880233   0.7575476  )
        29           O   tau(  29) = (   0.2921224   0.2626744   0.7575476  )
        30           O   tau(  30) = (   0.7179412   0.7880234   0.2525158  )
        31           O   tau(  31) = (   0.2129094   0.2626744   0.2525159  )
        32           O   tau(  32) = (   0.7971542   0.7880233   0.7575476  )

     number of k points=   112  gaussian smearing, width (Ry)=  0.0007

     Number of k-points >= 100: set verbosity='high' to print them.

     Initial potential from superposition of free atoms

     starting charge  367.99656, renormalised to  368.00000
     Starting wfc are  232 randomized atomic wfcs

     Writing output data file Landau_33.save

     Self-consistent Calculation

[...]

     total energy              =   -6261.10483924 Ry
     Harris-Foulkes estimate   =   -6261.10483924 Ry
     estimated scf accuracy    <          3.8E-10 Ry

     iteration # 17     ecut=   120.00 Ry     beta= 0.70
     Davidson diagonalization with overlap
     ethr =  1.04E-13,  avg # of iterations =  2.0

     End of self-consistent calculation

     Number of k-points >= 100: set verbosity='high' to print the bands.

     the Fermi energy is     8.8342 ev

!    total energy              =   -6261.10483924 Ry
     Harris-Foulkes estimate   =   -6261.10483924 Ry
     estimated scf accuracy    <          8.4E-11 Ry

     The total energy is the sum of the following terms:

     one-electron contribution =   -4776.91512693 Ry
     hartree contribution      =    2622.15914105 Ry
     xc contribution           =    -965.66994341 Ry
     ewald contribution        =   -3140.67890995 Ry
     smearing contrib. (-TS)   =      -0.00000000 Ry

     convergence has been achieved in  17 iterations

     Forces acting on atoms (cartesian axes, Ry/au):

     atom    1 type  1   force =    -0.00000266    0.01074828   -0.00000043
     atom    2 type  1   force =     0.00000266   -0.01074828    0.00000043
     atom    3 type  1   force =    -0.00000388   -0.01074888    0.00000017
     atom    4 type  1   force =     0.00000388    0.01074888   -0.00000017
     atom    5 type  1   force =     0.00000425    0.01074748    0.00000247
     atom    6 type  1   force =    -0.00000425   -0.01074748   -0.00000247
     atom    7 type  1   force =     0.00000270   -0.01074658   -0.00000128
     atom    8 type  1   force =    -0.00000270    0.01074658    0.00000128
     atom    9 type  2   force =    -0.00000008   -0.00558410   -0.00000004
     atom   10 type  2   force =     0.00000008    0.00558410    0.00000004
     atom   11 type  2   force =    -0.00000001    0.00558426    0.00000005
     atom   12 type  2   force =     0.00000001   -0.00558426   -0.00000005
     atom   13 type  2   force =     0.00000003   -0.00558429   -0.00000004
     atom   14 type  2   force =    -0.00000003    0.00558429    0.00000004
     atom   15 type  2   force =     0.00000002    0.00558457    0.00000003
     atom   16 type  2   force =    -0.00000002   -0.00558457   -0.00000003
     atom   17 type  2   force =    -0.00000000   -0.00000004   -0.00141693
     atom   18 type  2   force =     0.00000000    0.00000004    0.00141693
     atom   19 type  2   force =     0.00000020    0.00000002   -0.00141692
     atom   20 type  2   force =    -0.00000020   -0.00000002    0.00141692
     atom   21 type  2   force =    -0.00000025    0.00000007    0.00141693
     atom   22 type  2   force =     0.00000025   -0.00000007   -0.00141693
     atom   23 type  2   force =     0.00000001    0.00000009    0.00141704
     atom   24 type  2   force =    -0.00000001   -0.00000009   -0.00141704
     atom   25 type  2   force =    -0.00141694   -0.00000008    0.00000049
     atom   26 type  2   force =     0.00141694    0.00000008   -0.00000049
     atom   27 type  2   force =     0.00141704   -0.00000003   -0.00000071
     atom   28 type  2   force =    -0.00141704    0.00000003    0.00000071
     atom   29 type  2   force =     0.00141693    0.00000009    0.00000074
     atom   30 type  2   force =    -0.00141693   -0.00000009   -0.00000074
     atom   31 type  2   force =    -0.00141691    0.00000011   -0.00000071
     atom   32 type  2   force =     0.00141691   -0.00000011    0.00000071

     Total force =     0.000000     Total SCF correction =     0.000000

     Computing stress (Cartesian axis) and pressure

          total   stress  (Ry/bohr**3)                   (kbar)     P=    0.44
   0.00000432  -0.00000000  -0.00000000          0.64     -0.00     -0.00
  -0.00000000   0.00000024   0.00000000         -0.00      0.03      0.00
  -0.00000000   0.00000000   0.00000433         -0.00      0.00      0.64

     Writing output data file Landau_33.save

     General routines

     Parallel routines

   This run was terminated on:   9:40: 4  11Mar2020

   JOB DONE.