     Program PWSCF v.6.2 (svn rev. 14038) starts on 28Feb2020 at 17:18:10

     K-points division:     npool     =      40
     Reading input from rscf.in

     Current dimensions of program PWSCF are:
     Max number of different atomic species (ntypx) = 10
     Max number of k-points (npk) =  40000
     Max angular momentum in pseudopotentials (lmaxx) =  3

     Subspace diagonalization in iterative solution of the eigenvalue problem:
     a serial algorithm will be used

     bravais-lattice index     =            0
     lattice parameter (alat)  =      13.8397  a.u.
     unit-cell volume          =    2804.9816 (a.u.)^3
     number of atoms/cell      =           32
     number of atomic types    =            2
     number of electrons       =       368.00
     number of Kohn-Sham states=          221
     kinetic-energy cutoff     =     120.0000  Ry
     charge density cutoff     =     480.0000  Ry
     convergence threshold     =      1.0E-08
     mixing beta               =       0.7000
     number of iterations used =            8  plain     mixing
     Exchange-correlation      = SLA PW NOGX NOGC ( 1  4  0  0 0 0)
     nstep                     =           50

     celldm(1)=  13.839685  celldm(2)=   0.000000  celldm(3)=   0.000000
     celldm(4)=   0.000000  celldm(5)=   0.000000  celldm(6)=   0.000000

     crystal axes: (cart. coord. in units of alat)
               a(1) = (   1.000000   0.000000   0.000000 )
               a(2) = (   0.000000   1.058160   0.000000 )
               a(3) = (   0.000000   0.000000   1.000000 )

     reciprocal axes: (cart. coord. in units 2 pi/alat)
               b(1) = (  1.000000  0.000000  0.000000 )
               b(2) = (  0.000000  0.945037  0.000000 )
               b(3) = (  0.000000  0.000000  1.000000 )

     PseudoPot. # 1 for W  read from file:
     /cluster/scratch/mnoe/QE/pps/W_ONCV_LDA-4.0.upf
     MD5 check sum: ba0307d5d4cd419d6f1d13dc49d7c13a
     Pseudo is Norm-conserving + core correction, Zval = 28.0
     Generated using ONCVPSP code by D. R. Hamann
     Using radial grid of 1380 points,  8 beta functions with:
                l(1) =   0
                l(2) =   0
                l(3) =   1
                l(4) =   1
                l(5) =   2
                l(6) =   2
                l(7) =   3
                l(8) =   3

     PseudoPot. # 2 for O  read from file:
     /cluster/scratch/mnoe/QE/pps/O_ONCV_LDA-3.0.upf
     MD5 check sum: a1bd6164e7280c17a38c229939bfbd54
     Pseudo is Norm-conserving + core correction, Zval =  6.0
     Generated using ONCVPSP code by D. R. Hamann
     Using radial grid of  926 points,  5 beta functions with:
                l(1) =   0
                l(2) =   0
                l(3) =   1
                l(4) =   1
                l(5) =   2

     atomic species   valence    mass     pseudopotential
        W             28.00   183.84000     W ( 1.00)
        O              6.00    15.99940     O ( 1.00)

      8 Sym. Ops. (no inversion) found ( 4 have fractional translation)

   Cartesian axes

     site n.     atom                  positions (alat units)
         1           W   tau(   1) = (   0.2527000   0.2993311   0.2500800  )
         2           W   tau(   2) = (  -0.2500800   0.7588290  -0.7473000  )
         3           W   tau(   3) = (   0.2473000   0.2297490   0.7500800  )
         4           W   tau(   4) = (   0.7500800   0.8284111   0.7527000  )
         5           W   tau(   5) = (   0.7473000   0.2993311   0.7499200  )
         6           W   tau(   6) = (   0.2500800   0.7588290   0.7473000  )
         7           W   tau(   7) = (  -0.2473000   0.2297490  -0.7500800  )
         8           W   tau(   8) = (   0.2499200   0.8284111   0.2473000  )
         9           O   tau(   9) = (   0.2529700   0.0108438   0.2521500  )
        10           O   tau(  10) = (  -0.2521500   1.0473163  -0.7470300  )
        11           O   tau(  11) = (   0.2470300   0.5182362   0.7521500  )
        12           O   tau(  12) = (   0.7521500   0.5399238   0.7529700  )
        13           O   tau(  13) = (   0.7470300   0.0108438   0.7478500  )
        14           O   tau(  14) = (   0.2521500   1.0473163   0.7470300  )
        15           O   tau(  15) = (  -0.2470300   0.5182362  -0.7521500  )
        16           O   tau(  16) = (   0.2478500   0.5399238   0.2470300  )
        17           O   tau(  17) = (   0.4990400   0.2679261   0.7048059  )
        18           O   tau(  18) = (   0.4998000   0.7914402   0.7951941  )
        19           O   tau(  19) = (  -0.9990399   0.2611539   1.2048059  )
        20           O   tau(  20) = (   0.0002000   0.7957998   0.2951941  )
        21           O   tau(  21) = (   0.5009600   0.2679261   0.2951941  )
        22           O   tau(  22) = (   0.5002000   0.7914402   1.2048059  )
        23           O   tau(  23) = (  -0.0009601   0.2611539   0.7951941  )
        24           O   tau(  24) = (  -1.0002000   0.7957998   0.7048059  )
        25           O   tau(  25) = (   0.7048059   0.2623602   2.0002000  )
        26           O   tau(  26) = (   0.2951941   0.7902339   0.4990400  )
        27           O   tau(  27) = (   0.7951941   0.2667198   0.5002001  )
        28           O   tau(  28) = (   0.2048059   0.7970061   1.9990400  )
        29           O   tau(  29) = (   0.2951941   0.2623602   0.9998000  )
        30           O   tau(  30) = (   0.7048059   0.7902339   0.5009601  )
        31           O   tau(  31) = (   0.2048059   0.2667198   0.4998000  )
        32           O   tau(  32) = (   0.7951941   0.7970061   1.0009601  )

     number of k points=    40  gaussian smearing, width (Ry)=  0.0007
                       cart. coord. in units 2pi/alat
        k(    1) = (   0.0000000   0.0000000   0.0000000), wk =   0.0092593
        k(    2) = (   0.0000000   0.0000000   0.1666667), wk =   0.0370370
        k(    3) = (   0.0000000   0.0000000   0.3333333), wk =   0.0370370
        k(    4) = (   0.0000000   0.0000000  -0.5000000), wk =   0.0185185
        k(    5) = (   0.0000000   0.1575061   0.0000000), wk =   0.0185185
        k(    6) = (   0.0000000   0.1575061   0.1666667), wk =   0.0740741
        k(    7) = (   0.0000000   0.1575061   0.3333333), wk =   0.0740741
        k(    8) = (   0.0000000   0.1575061  -0.5000000), wk =   0.0370370
        k(    9) = (   0.0000000   0.3150122   0.0000000), wk =   0.0185185
        k(   10) = (   0.0000000   0.3150122   0.1666667), wk =   0.0740741
        k(   11) = (   0.0000000   0.3150122   0.3333333), wk =   0.0740741
        k(   12) = (   0.0000000   0.3150122  -0.5000000), wk =   0.0370370
        k(   13) = (   0.0000000  -0.4725183   0.0000000), wk =   0.0092593
        k(   14) = (   0.0000000  -0.4725183   0.1666667), wk =   0.0370370
        k(   15) = (   0.0000000  -0.4725183   0.3333333), wk =   0.0370370
        k(   16) = (   0.0000000  -0.4725183  -0.5000000), wk =   0.0185185
        k(   17) = (   0.1666667   0.0000000   0.1666667), wk =   0.0370370
        k(   18) = (   0.1666667   0.0000000   0.3333333), wk =   0.0740741
        k(   19) = (   0.1666667   0.0000000  -0.5000000), wk =   0.0370370
        k(   20) = (   0.1666667   0.1575061   0.1666667), wk =   0.0740741
        k(   21) = (   0.1666667   0.1575061   0.3333333), wk =   0.1481481
        k(   22) = (   0.1666667   0.1575061  -0.5000000), wk =   0.0740741
        k(   23) = (   0.1666667   0.3150122   0.1666667), wk =   0.0740741
        k(   24) = (   0.1666667   0.3150122   0.3333333), wk =   0.1481481
        k(   25) = (   0.1666667   0.3150122  -0.5000000), wk =   0.0740741
        k(   26) = (   0.1666667  -0.4725183   0.1666667), wk =   0.0370370
        k(   27) = (   0.1666667  -0.4725183   0.3333333), wk =   0.0740741
        k(   28) = (   0.1666667  -0.4725183  -0.5000000), wk =   0.0370370
        k(   29) = (   0.3333333   0.0000000   0.3333333), wk =   0.0370370
        k(   30) = (   0.3333333   0.0000000  -0.5000000), wk =   0.0370370
        k(   31) = (   0.3333333   0.1575061   0.3333333), wk =   0.0740741
        k(   32) = (   0.3333333   0.1575061  -0.5000000), wk =   0.0740741
        k(   33) = (   0.3333333   0.3150122   0.3333333), wk =   0.0740741
        k(   34) = (   0.3333333   0.3150122  -0.5000000), wk =   0.0740741
        k(   35) = (   0.3333333  -0.4725183   0.3333333), wk =   0.0370370
        k(   36) = (   0.3333333  -0.4725183  -0.5000000), wk =   0.0370370
        k(   37) = (  -0.5000000   0.0000000  -0.5000000), wk =   0.0092593
        k(   38) = (  -0.5000000   0.1575061  -0.5000000), wk =   0.0185185
        k(   39) = (  -0.5000000   0.3150122  -0.5000000), wk =   0.0185185
        k(   40) = (  -0.5000000  -0.4725183  -0.5000000), wk =   0.0092593

     Initial potential from superposition of free atoms

     starting charge  367.99656, renormalised to  368.00000
     Starting wfc are  232 randomized atomic wfcs

     Self-consistent Calculation

     iteration #  1     ecut=   120.00 Ry     beta= 0.70
     Davidson diagonalization with overlap
     ethr =  1.00E-02,  avg # of iterations =  5.0

     total energy              =   -6254.00290548 Ry
     Harris-Foulkes estimate   =   -6264.58763849 Ry
     estimated scf accuracy    <      13.40881147 Ry

[...]

     End of self-consistent calculation

          k = 0.0000 0.0000 0.0000 ( 62239 PWs)   bands (ev):

   -66.1659 -66.1655 -66.1649 -66.1649 -66.1645 -66.1645 -66.1639 -66.1636
   -30.5453 -30.5417 -30.5417 -30.5382 -30.5268 -30.5264 -30.5235 -30.5226
   -30.5213 -30.5212 -30.5177 -30.5177 -30.4848 -30.4826 -30.4826 -30.4804
   -30.4254 -30.4254 -30.4223 -30.4223 -30.4212 -30.4206 -30.4181 -30.4175
   -20.3230 -20.3229 -20.3229 -20.3229 -20.3228 -20.3228 -20.3228 -20.3227
   -20.3035 -20.3033 -20.3033 -20.3031 -20.3015 -20.3013 -20.3011 -20.3009
   -20.3004 -20.3004 -20.3000 -20.3000 -20.2993 -20.2993 -20.2990 -20.2990
   -20.2990 -20.2988 -20.2982 -20.2982 -20.2979 -20.2976 -20.2976 -20.2973
   -20.2920 -20.2918 -20.2916 -20.2916 -20.2912 -20.2909 -20.2909 -20.2908
   -20.2892 -20.2891 -20.2891 -20.2891 -20.2890 -20.2890 -20.2889 -20.2888
   -20.2843 -20.2843 -20.2839 -20.2838 -20.2835 -20.2835 -20.2832 -20.2831
    -9.9796  -9.7143  -9.5401  -9.5401  -9.3000  -9.3000  -9.0923  -9.0788
    -9.0398  -8.8508  -8.8417  -8.8417  -7.8221  -7.7879  -7.7864  -7.7639
    -7.7620  -7.7587  -7.7587  -7.7053  -7.6557  -7.6557  -7.6346  -7.6346
     1.0997   1.0999   1.2107   1.2107   1.2222   1.2222   1.3489   1.5575
     1.6375   1.6375   1.6560   1.8016   2.3494   2.4267   2.5612   2.5630
     2.6946   2.6946   4.1091   4.1091   4.3051   4.3052   4.7534   4.7535
     4.7844   4.7845   4.8790   4.8858   5.0375   5.0375   5.0512   5.4784
     5.4784   5.5434   5.5434   5.5505   5.5505   5.5794   5.5794   5.8398
     5.8398   5.9066   5.9070   5.9287   5.9957   6.0537   6.0562   6.0874
     6.0885   6.2673   6.2680   6.5361   6.5361   6.8007   6.8007   6.8263
     6.8265   6.8581   7.0172   7.0436   7.0869   7.0869   7.3318   7.3318
     7.3705   7.3705   7.8892   7.9012   8.1052   8.1052   8.1679   8.1708
     9.1859   9.1915   9.9721   9.9731   9.9810   9.9810  12.3010  12.3010
[...]
W        0.247300038   0.217121212   0.750079990    0   0   0
W        0.750080009   0.782878771   0.752699962    0   0   0
W        0.747299991   0.282878802   0.749919993    0   0   0
W        0.250080007   0.717121198   0.747300021    0   0   0
W       -0.247300005   0.217121212  -0.750080023    0   0   0
W        0.249920010   0.782878771   0.247299991    0   0   0
O        0.252969982   0.010247800   0.252150005    0   0   0
O       -0.252149995   0.989752225  -0.747029985    0   0   0
O        0.247029969   0.489752192   0.752150011    0   0   0
O        0.752150005   0.510247780   0.752969998    0   0   0
O        0.747029995   0.010247800   0.747849972    0   0   0
O        0.252149995   0.989752225   0.747029985    0   0   0
O       -0.247029985   0.489752192  -0.752149995    0   0   0
O        0.247849956   0.510247780   0.247029995    0   0   0
O        0.499039990   0.253200006   0.704805908    0   0   0
O        0.499799976   0.747939944   0.795194065    0   0   0
O       -0.999039941   0.246799994   1.204805936    0   0   0
O        0.000200027   0.752059905   0.295194112    0   0   0
O        0.500960010   0.253200006   0.295194112    0   0   0
O        0.500200024   0.747939944   1.204805936    0   0   0
O       -0.000960056   0.246799994   0.795194065    0   0   0
O       -1.000200024   0.752059905   0.704805908    0   0   0
O        0.704805944   0.247940004   2.000200024    0   0   0
O        0.295194097   0.746799933   0.499039990    0   0   0
O        0.795194062   0.252059996   0.500200073    0   0   0
O        0.204805924   0.753199916   1.999039990    0   0   0
O        0.295194097   0.247940004   0.999800022    0   0   0
O        0.704805944   0.746799933   0.500960059    0   0   0
O        0.204805924   0.252059996   0.499799976    0   0   0
O        0.795194062   0.753199916   1.000960056    0   0   0
End final coordinates

     A final scf calculation at the relaxed structure.
     The G-vectors are recalculated for the final unit cell
     Results may differ from those at the preceding step.

     bravais-lattice index     =            0
     lattice parameter (alat)  =      13.8397  a.u.
     unit-cell volume          =    2816.5634 (a.u.)^3
     number of atoms/cell      =           32
     number of atomic types    =            2
     number of electrons       =       368.00
     number of Kohn-Sham states=          221
     kinetic-energy cutoff     =     120.0000  Ry
     charge density cutoff     =     480.0000  Ry
     convergence threshold     =      1.0E-10
     mixing beta               =       0.7000
     number of iterations used =            8  plain     mixing
     Exchange-correlation      = SLA PW NOGX NOGC ( 1  4  0  0 0 0)

     celldm(1)=  13.839685  celldm(2)=   0.000000  celldm(3)=   0.000000
     celldm(4)=   0.000000  celldm(5)=   0.000000  celldm(6)=   0.000000

     crystal axes: (cart. coord. in units of alat)
               a(1) = (   1.003107   0.000000   0.000000 )
               a(2) = (   0.000000   1.055957   0.000000 )
               a(3) = (   0.000000   0.000000   1.003107 )

     reciprocal axes: (cart. coord. in units 2 pi/alat)
               b(1) = (  0.996902  0.000000  0.000000 )
               b(2) = (  0.000000  0.947008  0.000000 )
               b(3) = (  0.000000  0.000000  0.996902 )

     PseudoPot. # 1 for W  read from file:
     /cluster/scratch/mnoe/QE/pps/W_ONCV_LDA-4.0.upf
     MD5 check sum: ba0307d5d4cd419d6f1d13dc49d7c13a
     Pseudo is Norm-conserving + core correction, Zval = 28.0
     Generated using ONCVPSP code by D. R. Hamann
     Using radial grid of 1380 points,  8 beta functions with:
                l(1) =   0
                l(2) =   0
                l(3) =   1
                l(4) =   1
                l(5) =   2
                l(6) =   2
                l(7) =   3
                l(8) =   3

     PseudoPot. # 2 for O  read from file:
     /cluster/scratch/mnoe/QE/pps/O_ONCV_LDA-3.0.upf
     MD5 check sum: a1bd6164e7280c17a38c229939bfbd54
     Pseudo is Norm-conserving + core correction, Zval =  6.0
     Generated using ONCVPSP code by D. R. Hamann
     Using radial grid of  926 points,  5 beta functions with:
                l(1) =   0
                l(2) =   0
                l(3) =   1
                l(4) =   1
                l(5) =   2

     atomic species   valence    mass     pseudopotential
        W             28.00   183.84000     W ( 1.00)
        O              6.00    15.99940     O ( 1.00)

      8 Sym. Ops. (no inversion) found ( 4 have fractional translation)

   Cartesian axes

     site n.     atom                  positions (alat units)
         1           W   tau(   1) = (   0.2534852   0.2987078   0.2508570  )
         2           W   tau(   2) = (  -0.2508571   0.7572491  -0.7496220  )
         3           W   tau(   3) = (   0.2480684   0.2292707   0.7524106  )
         4           W   tau(   4) = (   0.7524106   0.8266863   0.7550387  )
         5           W   tau(   5) = (   0.7496220   0.2987078   0.7522501  )
         6           W   tau(   6) = (   0.2508570   0.7572491   0.7496220  )
         7           W   tau(   7) = (  -0.2480684   0.2292707  -0.7524106  )
         8           W   tau(   8) = (   0.2506965   0.8266863   0.2480684  )
         9           O   tau(   9) = (   0.2537560   0.0108212   0.2529335  )
        10           O   tau(  10) = (  -0.2529335   1.0451358  -0.7493511  )
        11           O   tau(  11) = (   0.2477975   0.5171572   0.7544871  )
        12           O   tau(  12) = (   0.7544870   0.5387997   0.7553096  )
        13           O   tau(  13) = (   0.7493511   0.0108212   0.7501737  )
        14           O   tau(  14) = (   0.2529335   1.0451358   0.7493511  )
        15           O   tau(  15) = (  -0.2477975   0.5171572  -0.7544870  )
        16           O   tau(  16) = (   0.2486201   0.5387997   0.2477976  )
        17           O   tau(  17) = (   0.5005906   0.2673683   0.7069958  )
        18           O   tau(  18) = (   0.5013529   0.7897924   0.7976649  )
        19           O   tau(  19) = (  -1.0021441   0.2606102   1.2085494  )
        20           O   tau(  20) = (   0.0002006   0.7941429   0.2961113  )
        21           O   tau(  21) = (   0.5025166   0.2673683   0.2961113  )
        22           O   tau(  22) = (   0.5017542   0.7897924   1.2085494  )
        23           O   tau(  23) = (  -0.0009630   0.2606102   0.7976649  )
        24           O   tau(  24) = (  -1.0033078   0.7941429   0.7069958  )
        25           O   tau(  25) = (   0.7069959   0.2618140   2.0064149  )
        26           O   tau(  26) = (   0.2961113   0.7885886   0.5005906  )
        27           O   tau(  27) = (   0.7976648   0.2661645   0.5017543  )
        28           O   tau(  28) = (   0.2054423   0.7953467   2.0052513  )
        29           O   tau(  29) = (   0.2961113   0.2618140   1.0029065  )
        30           O   tau(  30) = (   0.7069959   0.7885886   0.5025166  )
        31           O   tau(  31) = (   0.2054423   0.2661645   0.5013529  )
        32           O   tau(  32) = (   0.7976648   0.7953467   1.0040702  )

     number of k points=    40  gaussian smearing, width (Ry)=  0.0007
                       cart. coord. in units 2pi/alat
        k(    1) = (   0.0000000   0.0000000   0.0000000), wk =   0.0092593
        k(    2) = (   0.0000000   0.0000000   0.1661504), wk =   0.0370370
        k(    3) = (   0.0000000   0.0000000   0.3323008), wk =   0.0370370
        k(    4) = (   0.0000000   0.0000000  -0.4984512), wk =   0.0185185
        k(    5) = (   0.0000000   0.1578347   0.0000000), wk =   0.0185185
        k(    6) = (   0.0000000   0.1578347   0.1661504), wk =   0.0740741
        k(    7) = (   0.0000000   0.1578347   0.3323008), wk =   0.0740741
        k(    8) = (   0.0000000   0.1578347  -0.4984512), wk =   0.0370370
        k(    9) = (   0.0000000   0.3156694   0.0000000), wk =   0.0185185
        k(   10) = (   0.0000000   0.3156694   0.1661504), wk =   0.0740741
        k(   11) = (   0.0000000   0.3156694   0.3323008), wk =   0.0740741
        k(   12) = (   0.0000000   0.3156694  -0.4984512), wk =   0.0370370
        k(   13) = (   0.0000000  -0.4735041   0.0000000), wk =   0.0092593
        k(   14) = (   0.0000000  -0.4735041   0.1661504), wk =   0.0370370
        k(   15) = (   0.0000000  -0.4735041   0.3323008), wk =   0.0370370
        k(   16) = (   0.0000000  -0.4735041  -0.4984512), wk =   0.0185185
        k(   17) = (   0.1661504   0.0000000   0.1661504), wk =   0.0370370
        k(   18) = (   0.1661504   0.0000000   0.3323008), wk =   0.0740741
        k(   19) = (   0.1661504   0.0000000  -0.4984512), wk =   0.0370370
        k(   20) = (   0.1661504   0.1578347   0.1661504), wk =   0.0740741
        k(   21) = (   0.1661504   0.1578347   0.3323008), wk =   0.1481481
        k(   22) = (   0.1661504   0.1578347  -0.4984512), wk =   0.0740741
        k(   23) = (   0.1661504   0.3156694   0.1661504), wk =   0.0740741
        k(   24) = (   0.1661504   0.3156694   0.3323008), wk =   0.1481481
        k(   25) = (   0.1661504   0.3156694  -0.4984512), wk =   0.0740741
        k(   26) = (   0.1661504  -0.4735041   0.1661504), wk =   0.0370370
        k(   27) = (   0.1661504  -0.4735041   0.3323008), wk =   0.0740741
        k(   28) = (   0.1661504  -0.4735041  -0.4984512), wk =   0.0370370
        k(   29) = (   0.3323008   0.0000000   0.3323008), wk =   0.0370370
        k(   30) = (   0.3323008   0.0000000  -0.4984512), wk =   0.0370370
        k(   31) = (   0.3323008   0.1578347   0.3323008), wk =   0.0740741
        k(   32) = (   0.3323008   0.1578347  -0.4984512), wk =   0.0740741
        k(   33) = (   0.3323008   0.3156694   0.3323008), wk =   0.0740741
        k(   34) = (   0.3323008   0.3156694  -0.4984512), wk =   0.0740741
        k(   35) = (   0.3323008  -0.4735041   0.3323008), wk =   0.0370370
        k(   36) = (   0.3323008  -0.4735041  -0.4984512), wk =   0.0370370
        k(   37) = (  -0.4984512   0.0000000  -0.4984512), wk =   0.0092593
        k(   38) = (  -0.4984512   0.1578347  -0.4984512), wk =   0.0185185
        k(   39) = (  -0.4984512   0.3156694  -0.4984512), wk =   0.0185185
        k(   40) = (  -0.4984512  -0.4735041  -0.4984512), wk =   0.0092593

     Initial potential from superposition of free atoms

     starting charge  367.99656, renormalised to  368.00000
     Starting wfc are  232 randomized atomic wfcs

     Writing output data file Landau_3.save

     Self-consistent Calculation

[...]

     total energy              =   -6261.10807493 Ry
     Harris-Foulkes estimate   =   -6261.10807493 Ry
     estimated scf accuracy    <          6.2E-10 Ry

     iteration # 14     ecut=   120.00 Ry     beta= 0.70
     Davidson diagonalization with overlap
     ethr =  1.68E-13,  avg # of iterations =  2.3

     End of self-consistent calculation

[...]

          k = 0.3323-0.4735-0.4985 ( 62476 PWs)   bands (ev):

[...]

          k =-0.4985-0.4735-0.4985 ( 62520 PWs)   bands (ev):

   -66.2443 -66.2443 -66.2443 -66.2443 -66.2442 -66.2442 -66.2442 -66.2442
   -30.6009 -30.6008 -30.6007 -30.6007 -30.6007 -30.6007 -30.6006 -30.6006
   -30.5383 -30.5383 -30.5383 -30.5383 -30.5381 -30.5381 -30.5380 -30.5380
   -30.5355 -30.5355 -30.5354 -30.5354 -30.5352 -30.5352 -30.5352 -30.5352
   -20.4062 -20.4062 -20.4062 -20.4062 -20.4062 -20.4062 -20.4062 -20.4062
   -20.3844 -20.3843 -20.3843 -20.3843 -20.3843 -20.3843 -20.3842 -20.3842
   -20.3835 -20.3835 -20.3835 -20.3835 -20.3833 -20.3833 -20.3832 -20.3832
   -20.3829 -20.3829 -20.3829 -20.3828 -20.3827 -20.3827 -20.3827 -20.3827
   -20.3739 -20.3739 -20.3739 -20.3739 -20.3739 -20.3739 -20.3739 -20.3739
   -20.3706 -20.3706 -20.3705 -20.3705 -20.3705 -20.3705 -20.3705 -20.3705
   -20.3693 -20.3693 -20.3693 -20.3693 -20.3693 -20.3693 -20.3693 -20.3693
    -9.0053  -9.0052  -9.0020  -9.0020  -9.0019  -9.0019  -8.9999  -8.9999
    -8.4817  -8.4817  -8.4781  -8.4781  -8.4781  -8.4781  -8.4761  -8.4761
    -8.4059  -8.4059  -8.4039  -8.4039  -8.4039  -8.4039  -8.3989  -8.3988
     2.9202   2.9202   2.9234   2.9234   2.9235   2.9235   2.9286   2.9286
     3.0450   3.0450   3.0521   3.0521   3.0521   3.0521   3.0592   3.0593
     3.3534   3.3534   3.3773   3.3773   3.3773   3.3773   3.3975   3.3975
     4.0847   4.0847   4.0912   4.0912   4.0912   4.0912   4.0962   4.0962
     4.3121   4.3121   4.3122   4.3122   4.3133   4.3133   4.3149   4.3149
     4.3979   4.3979   4.4049   4.4049   4.4050   4.4050   4.4092   4.4092
     7.1284   7.1285   7.1544   7.1544   7.1545   7.1545   7.1836   7.1836
     7.2702   7.2702   7.2730   7.2730   7.2731   7.2731   7.2743   7.2743
     7.5418   7.5418   7.5485   7.5485   7.5485   7.5485   7.5562   7.5562
    11.7291  11.7291  11.7305  11.7305  11.7305  11.7305  11.7329  11.7329
    12.1936  12.1936  12.2176  12.2176  12.2176  12.2176  12.2444  12.2445
    12.4422  12.4422  12.4548  12.4548  12.4548  12.4548  12.4650  12.4650
    17.0679  17.0680  17.0798  17.0798  17.0798  17.0798  17.0922  17.0922
    17.3294  17.3300  17.3300  17.3300  17.3300

     the Fermi energy is     9.0144 ev

!    total energy              =   -6261.10807493 Ry
     Harris-Foulkes estimate   =   -6261.10807493 Ry
     estimated scf accuracy    <          5.6E-11 Ry

     The total energy is the sum of the following terms:

     one-electron contribution =   -4738.50089979 Ry
     hartree contribution      =    2605.04775957 Ry
     xc contribution           =    -965.67546228 Ry
     ewald contribution        =   -3161.97947243 Ry
     smearing contrib. (-TS)   =      -0.00000000 Ry

     convergence has been achieved in  14 iterations

     Forces acting on atoms (cartesian axes, Ry/au):

     atom    1 type  1   force =     0.00111243    0.00142534    0.00014196
     atom    2 type  1   force =    -0.00014196   -0.00142534    0.00111243
     atom    3 type  1   force =    -0.00111243   -0.00142534    0.00014196
     atom    4 type  1   force =     0.00014196    0.00142534    0.00111243
     atom    5 type  1   force =    -0.00111243    0.00142534   -0.00014196
     atom    6 type  1   force =     0.00014196   -0.00142534   -0.00111243
     atom    7 type  1   force =     0.00111243   -0.00142534   -0.00014196
     atom    8 type  1   force =    -0.00014196    0.00142534   -0.00111243
     atom    9 type  2   force =     0.00012039   -0.00857513   -0.00003912
     atom   10 type  2   force =     0.00003912    0.00857513    0.00012039
     atom   11 type  2   force =    -0.00012039    0.00857513   -0.00003912
     atom   12 type  2   force =    -0.00003912   -0.00857513    0.00012039
     atom   13 type  2   force =    -0.00012039   -0.00857513    0.00003912
     atom   14 type  2   force =    -0.00003912    0.00857513   -0.00012039
     atom   15 type  2   force =     0.00012039    0.00857513    0.00003912
     atom   16 type  2   force =     0.00003912   -0.00857513   -0.00012039
     atom   17 type  2   force =     0.00056829    0.00032210   -0.00102813
     atom   18 type  2   force =     0.00004569    0.00016515    0.00101799
     atom   19 type  2   force =    -0.00056829   -0.00032210   -0.00102813
     atom   20 type  2   force =    -0.00004569   -0.00016515    0.00101799
     atom   21 type  2   force =    -0.00056829    0.00032210    0.00102813
     atom   22 type  2   force =    -0.00004569    0.00016515   -0.00101799
     atom   23 type  2   force =     0.00056829   -0.00032210    0.00102813
     atom   24 type  2   force =     0.00004569   -0.00016515   -0.00101799
     atom   25 type  2   force =    -0.00101799    0.00016515   -0.00004569
     atom   26 type  2   force =     0.00102813   -0.00032210    0.00056829
     atom   27 type  2   force =     0.00101799   -0.00016515   -0.00004569
     atom   28 type  2   force =    -0.00102813    0.00032210    0.00056829
     atom   29 type  2   force =     0.00101799    0.00016515    0.00004569
     atom   30 type  2   force =    -0.00102813   -0.00032210   -0.00056829
     atom   31 type  2   force =    -0.00101799   -0.00016515    0.00004569
     atom   32 type  2   force =     0.00102813    0.00032210   -0.00056829

     Total force =     0.000000     Total SCF correction =     0.000000

     Computing stress (Cartesian axis) and pressure

          total   stress  (Ry/bohr**3)                   (kbar)     P=    0.08
   0.00000091   0.00000000   0.00000000          0.13      0.00      0.00
   0.00000000  -0.00000009   0.00000000          0.00     -0.01      0.00
   0.00000000   0.00000000   0.00000091          0.00      0.00      0.13

     Writing output data file Landau_3.save

     General routines

     Parallel routines

   This run was terminated on:  19:19: 9  28Feb2020

   JOB DONE.