     Program PWSCF v.6.2 (svn rev. 14038) starts on 28Aug2019 at 15:52:52

     K-points division:     npool     =      64
     Reading input from scf.in

     Current dimensions of program PWSCF are:
     Max number of different atomic species (ntypx) = 10
     Max number of k-points (npk) =  40000
     Max angular momentum in pseudopotentials (lmaxx) =  3

     Subspace diagonalization in iterative solution of the eigenvalue problem:
     a serial algorithm will be used

     bravais-lattice index     =            0
     lattice parameter (alat)  =      13.8359  a.u.
     unit-cell volume          =    2798.3469 (a.u.)^3
     number of atoms/cell      =           32
     number of atomic types    =            2
     number of electrons       =       368.68
     number of Kohn-Sham states=          221
     kinetic-energy cutoff     =     120.0000  Ry
     charge density cutoff     =     480.0000  Ry
     convergence threshold     =      1.0E-08
     mixing beta               =       0.7000
     number of iterations used =            8  plain     mixing
     Exchange-correlation      = SLA PW NOGX NOGC ( 1  4  0  0 0 0)

     celldm(1)=  13.835880  celldm(2)=   0.000000  celldm(3)=   0.000000
     celldm(4)=   0.000000  celldm(5)=   0.000000  celldm(6)=   0.000000

     crystal axes: (cart. coord. in units of alat)
               a(1) = (   1.000000   0.000000   0.000000 )
               a(2) = (   0.000000   1.055161   0.000000 )
               a(3) = (   0.000000   0.000000   1.001296 )

     reciprocal axes: (cart. coord. in units 2 pi/alat)
               b(1) = (  1.000000  0.000000  0.000000 )
               b(2) = (  0.000000  0.947722  0.000000 )
               b(3) = (  0.000000  0.000000  0.998706 )

     PseudoPot. # 1 for W  read from file:
     /cluster/scratch/mnoe/QE/pps/W_ONCV_LDA-4.0.upf
     MD5 check sum: ba0307d5d4cd419d6f1d13dc49d7c13a
     Pseudo is Norm-conserving + core correction, Zval = 28.0
     Generated using ONCVPSP code by D. R. Hamann
     Using radial grid of 1380 points,  8 beta functions with:
                l(1) =   0
                l(2) =   0
                l(3) =   1
                l(4) =   1
                l(5) =   2
                l(6) =   2
                l(7) =   3
                l(8) =   3

     PseudoPot. # 2 for O  read from file:
     /cluster/scratch/mnoe/QE/pps/O_ONCV_LDA-3.0.upf
     MD5 check sum: b55cdb4f45ae2203d24ad12cf8d61a31
     Pseudo is Norm-conserving + core correction, Zval =  6.0
     Generated using ONCVPSP code by D. R. Hamann
     Using radial grid of  926 points,  5 beta functions with:
                l(1) =   0
                l(2) =   0
                l(3) =   1
                l(4) =   1
                l(5) =   2

     atomic species   valence    mass     pseudopotential
        W             28.00   183.84000     W ( 1.00)
        O              6.00    15.99940     O ( 1.00)

      8 Sym. Ops., with inversion, found ( 6 have fractional translation)

   Cartesian axes

     site n.     atom                  positions (alat units)
         1           W   tau(   1) = (   0.2426000   0.2974078   0.0069991  )
         2           W   tau(   2) = (   0.7574000   0.7577536   0.9942965  )
         3           W   tau(   3) = (   0.2574000   0.2301729   0.5076469  )
         4           W   tau(   4) = (   0.7426000   0.8249884   0.4936487  )
         5           W   tau(   5) = (   0.7574000   0.2974078   0.4936487  )
         6           W   tau(   6) = (   0.2426000   0.7577536   0.5076469  )
         7           W   tau(   7) = (   0.7426000   0.2301729   0.9942965  )
         8           W   tau(   8) = (   0.2574000   0.8249884   0.0069991  )
         9           O   tau(   9) = (   0.2363500   0.0087789   0.0021728  )
        10           O   tau(  10) = (   0.7636500   1.0463824   0.9991227  )
        11           O   tau(  11) = (   0.2636500   0.5188017   0.5028206  )
        12           O   tau(  12) = (   0.7363500   0.5363596   0.4984750  )
        13           O   tau(  13) = (   0.7636500   0.0087789   0.4984750  )
        14           O   tau(  14) = (   0.2363500   1.0463824   0.5028206  )
        15           O   tau(  15) = (   0.7363500   0.5188017   0.9991227  )
        16           O   tau(  16) = (   0.2636500   0.5363596   0.0021728  )
        17           O   tau(  17) = (   0.5020200   0.2490181   0.4501224  )
        18           O   tau(  18) = (   0.4979800   0.8061433   0.5511731  )
        19           O   tau(  19) = (   0.9979800   0.2785626   0.9507702  )
        20           O   tau(  20) = (   0.0020200   0.7765988   0.0505254  )
        21           O   tau(  21) = (   0.4979800   0.2490181   0.0505254  )
        22           O   tau(  22) = (   0.5020200   0.8061433   0.9507702  )
        23           O   tau(  23) = (   0.0020200   0.2785626   0.5511731  )
        24           O   tau(  24) = (   0.9979800   0.7765988   0.4501224  )
        25           O   tau(  25) = (   0.6995400   0.2605615   0.7478977  )
        26           O   tau(  26) = (   0.3004600   0.7945998   0.2533979  )
        27           O   tau(  27) = (   0.8004600   0.2670191   0.2472499  )
        28           O   tau(  28) = (   0.1995400   0.7881422   0.7540457  )
        29           O   tau(  29) = (   0.3004600   0.2605615   0.7540457  )
        30           O   tau(  30) = (   0.6995400   0.7945998   0.2472499  )
        31           O   tau(  31) = (   0.1995400   0.2670191   0.2533979  )
        32           O   tau(  32) = (   0.8004600   0.7881422   0.7478977  )

     number of k points=    64  gaussian smearing, width (Ry)=  0.0007
                       cart. coord. in units 2pi/alat
        k(    1) = (   0.0000000   0.0000000   0.0000000), wk =   0.0092593
        k(    2) = (   0.0000000   0.0000000   0.1664510), wk =   0.0185185
        k(    3) = (   0.0000000   0.0000000   0.3329020), wk =   0.0185185
        k(    4) = (   0.0000000   0.0000000  -0.4993530), wk =   0.0092593
        k(    5) = (   0.0000000   0.1579537   0.0000000), wk =   0.0185185
        k(    6) = (   0.0000000   0.1579537   0.1664510), wk =   0.0370370
        k(    7) = (   0.0000000   0.1579537   0.3329020), wk =   0.0370370
        k(    8) = (   0.0000000   0.1579537  -0.4993530), wk =   0.0185185
        k(    9) = (   0.0000000   0.3159075   0.0000000), wk =   0.0185185
        k(   10) = (   0.0000000   0.3159075   0.1664510), wk =   0.0370370
        k(   11) = (   0.0000000   0.3159075   0.3329020), wk =   0.0370370
        k(   12) = (   0.0000000   0.3159075  -0.4993530), wk =   0.0185185
        k(   13) = (   0.0000000  -0.4738612   0.0000000), wk =   0.0092593
        k(   14) = (   0.0000000  -0.4738612   0.1664510), wk =   0.0185185
        k(   15) = (   0.0000000  -0.4738612   0.3329020), wk =   0.0185185
        k(   16) = (   0.0000000  -0.4738612  -0.4993530), wk =   0.0092593
        k(   17) = (   0.1666667   0.0000000   0.0000000), wk =   0.0185185
        k(   18) = (   0.1666667   0.0000000   0.1664510), wk =   0.0370370
        k(   19) = (   0.1666667   0.0000000   0.3329020), wk =   0.0370370
        k(   20) = (   0.1666667   0.0000000  -0.4993530), wk =   0.0185185
        k(   21) = (   0.1666667   0.1579537   0.0000000), wk =   0.0370370
        k(   22) = (   0.1666667   0.1579537   0.1664510), wk =   0.0740741
        k(   23) = (   0.1666667   0.1579537   0.3329020), wk =   0.0740741
        k(   24) = (   0.1666667   0.1579537  -0.4993530), wk =   0.0370370
        k(   25) = (   0.1666667   0.3159075   0.0000000), wk =   0.0370370
        k(   26) = (   0.1666667   0.3159075   0.1664510), wk =   0.0740741
        k(   27) = (   0.1666667   0.3159075   0.3329020), wk =   0.0740741
        k(   28) = (   0.1666667   0.3159075  -0.4993530), wk =   0.0370370
        k(   29) = (   0.1666667  -0.4738612   0.0000000), wk =   0.0185185
        k(   30) = (   0.1666667  -0.4738612   0.1664510), wk =   0.0370370
        k(   31) = (   0.1666667  -0.4738612   0.3329020), wk =   0.0370370
        k(   32) = (   0.1666667  -0.4738612  -0.4993530), wk =   0.0185185
        k(   33) = (   0.3333333   0.0000000   0.0000000), wk =   0.0185185
        k(   34) = (   0.3333333   0.0000000   0.1664510), wk =   0.0370370
        k(   35) = (   0.3333333   0.0000000   0.3329020), wk =   0.0370370
        k(   36) = (   0.3333333   0.0000000  -0.4993530), wk =   0.0185185
        k(   37) = (   0.3333333   0.1579537   0.0000000), wk =   0.0370370
        k(   38) = (   0.3333333   0.1579537   0.1664510), wk =   0.0740741
        k(   39) = (   0.3333333   0.1579537   0.3329020), wk =   0.0740741
        k(   40) = (   0.3333333   0.1579537  -0.4993530), wk =   0.0370370
        k(   41) = (   0.3333333   0.3159075   0.0000000), wk =   0.0370370
        k(   42) = (   0.3333333   0.3159075   0.1664510), wk =   0.0740741
        k(   43) = (   0.3333333   0.3159075   0.3329020), wk =   0.0740741
        k(   44) = (   0.3333333   0.3159075  -0.4993530), wk =   0.0370370
        k(   45) = (   0.3333333  -0.4738612   0.0000000), wk =   0.0185185
        k(   46) = (   0.3333333  -0.4738612   0.1664510), wk =   0.0370370
        k(   47) = (   0.3333333  -0.4738612   0.3329020), wk =   0.0370370
        k(   48) = (   0.3333333  -0.4738612  -0.4993530), wk =   0.0185185
        k(   49) = (  -0.5000000   0.0000000   0.0000000), wk =   0.0092593
        k(   50) = (  -0.5000000   0.0000000   0.1664510), wk =   0.0185185
        k(   51) = (  -0.5000000   0.0000000   0.3329020), wk =   0.0185185
        k(   52) = (  -0.5000000   0.0000000  -0.4993530), wk =   0.0092593
        k(   53) = (  -0.5000000   0.1579537   0.0000000), wk =   0.0185185
        k(   54) = (  -0.5000000   0.1579537   0.1664510), wk =   0.0370370
        k(   55) = (  -0.5000000   0.1579537   0.3329020), wk =   0.0370370
        k(   56) = (  -0.5000000   0.1579537  -0.4993530), wk =   0.0185185
        k(   57) = (  -0.5000000   0.3159075   0.0000000), wk =   0.0185185
        k(   58) = (  -0.5000000   0.3159075   0.1664510), wk =   0.0370370
        k(   59) = (  -0.5000000   0.3159075   0.3329020), wk =   0.0370370
        k(   60) = (  -0.5000000   0.3159075  -0.4993530), wk =   0.0185185
        k(   61) = (  -0.5000000  -0.4738612   0.0000000), wk =   0.0092593
        k(   62) = (  -0.5000000  -0.4738612   0.1664510), wk =   0.0185185
        k(   63) = (  -0.5000000  -0.4738612   0.3329020), wk =   0.0185185
        k(   64) = (  -0.5000000  -0.4738612  -0.4993530), wk =   0.0092593

     Initial potential from superposition of free atoms

     starting charge  367.99656, renormalised to  368.68000
     Starting wfc are  232 randomized atomic wfcs

     Self-consistent Calculation

     iteration #  1     ecut=   120.00 Ry     beta= 0.70
     Davidson diagonalization with overlap
     ethr =  1.00E-02,  avg # of iterations =  5.2

     total energy              =   -6253.37572160 Ry
     Harris-Foulkes estimate   =   -6264.21039347 Ry
     estimated scf accuracy    <      13.64029636 Ry

[...]

     total energy              =   -6260.62324420 Ry
     Harris-Foulkes estimate   =   -6260.62324422 Ry
     estimated scf accuracy    <       0.00000004 Ry

     iteration # 13     ecut=   120.00 Ry     beta= 0.70
     Davidson diagonalization with overlap
     ethr =  1.09E-11,  avg # of iterations =  2.7

     End of self-consistent calculation

          k = 0.0000 0.0000 0.0000 ( 62119 PWs)   bands (ev):

   -65.9701 -65.9697 -65.9691 -65.9691 -65.9687 -65.9687 -65.9681 -65.9677
   -30.4200 -30.4159 -30.4155 -30.4116 -30.3627 -30.3577 -30.3567 -30.3519
   -30.3169 -30.3153 -30.3085 -30.3085 -30.3069 -30.3069 -30.3023 -30.3009
   -30.2152 -30.2128 -30.2124 -30.2116 -30.2107 -30.2083 -30.2055 -30.2030
   -20.1214 -20.1212 -20.1210 -20.1208 -20.1180 -20.1178 -20.1174 -20.1173
   -20.1152 -20.1150 -20.1150 -20.1148 -20.1136 -20.1135 -20.1132 -20.1131
   -20.1093 -20.1088 -20.1084 -20.1081 -20.1079 -20.1073 -20.1072 -20.1066
   -20.1064 -20.1056 -20.1055 -20.1052 -20.1047 -20.1045 -20.1043 -20.1039
   -20.0928 -20.0927 -20.0924 -20.0923 -20.0920 -20.0919 -20.0916 -20.0915
   -20.0634 -20.0634 -20.0620 -20.0619 -20.0615 -20.0615 -20.0602 -20.0601
   -20.0574 -20.0574 -20.0561 -20.0561 -20.0559 -20.0558 -20.0544 -20.0544
    -9.8745  -9.5756  -9.4345  -9.4344  -9.1416  -9.1318  -9.0274  -8.9427
    -8.9291  -8.8148  -8.7779  -8.7757  -7.8170  -7.7500  -7.7421  -7.7023
    -7.6921  -7.6893  -7.6718  -7.6699  -7.5464  -7.5402  -7.5227  -7.5190
     1.3371   1.3391   1.4004   1.4108   1.4187   1.4393   1.4613   1.6952
     1.6954   1.7106   1.7618   1.9584   2.4795   2.5597   2.6273   2.6362
     2.7778   2.7934   4.2022   4.2265   4.4326   4.4779   4.8332   4.8899
     4.9200   4.9424   4.9521   4.9578   5.1123   5.1146   5.1732   5.4704
     5.5048   5.5616   5.6065   5.6083   5.6211   5.6546   5.7047   5.8672
     5.9036   5.9397   5.9428   5.9587   6.0212   6.0866   6.1020   6.2037
     6.2085   6.3006   6.3185   6.6176   6.6259   6.8492   6.8889   6.8926
     6.9139   6.9162   7.0410   7.0633   7.1147   7.1355   7.4322   7.4617
     7.4768   7.5044   7.8481   7.8638   8.0958   8.1379   8.1596   8.2012
     9.4972   9.4989  10.1231  10.1379  10.1533  10.1703  12.3506  12.3534
    12.4299  12.4541  12.4703  12.5000  12.6282  12.6533  12.8671  12.9713
    13.3350  13.3842  13.4659  13.4997  13.8313  14.0879  14.2396  14.2446
    14.3654  14.5043  14.6415  14.9100  15.5665  15.5828  15.5936  16.1551
    16.1805  16.8888  17.1045  17.1397  17.5047

[...]

          k = 0.3333-0.4739-0.4994 ( 62048 PWs)   bands (ev):

[...]

          k =-0.5000 0.0000 0.0000 ( 62124 PWs)   bands (ev):

[...]

          k =-0.5000-0.4739-0.4994 ( 62136 PWs)   bands (ev):

   -65.9689 -65.9689 -65.9689 -65.9689 -65.9689 -65.9689 -65.9689 -65.9689
   -30.3866 -30.3866 -30.3866 -30.3866 -30.3863 -30.3862 -30.3862 -30.3862
   -30.2657 -30.2657 -30.2657 -30.2657 -30.2635 -30.2635 -30.2635 -30.2635
   -30.2556 -30.2556 -30.2556 -30.2556 -30.2533 -30.2533 -30.2533 -30.2533
   -20.1192 -20.1191 -20.1191 -20.1191 -20.1191 -20.1191 -20.1191 -20.1191
   -20.1146 -20.1146 -20.1146 -20.1146 -20.1146 -20.1146 -20.1145 -20.1145
   -20.1075 -20.1075 -20.1075 -20.1075 -20.1072 -20.1072 -20.1072 -20.1072
   -20.1058 -20.1057 -20.1057 -20.1057 -20.1054 -20.1054 -20.1054 -20.1054
   -20.0921 -20.0921 -20.0921 -20.0921 -20.0920 -20.0920 -20.0920 -20.0920
   -20.0600 -20.0600 -20.0600 -20.0600 -20.0599 -20.0599 -20.0599 -20.0599
   -20.0580 -20.0580 -20.0580 -20.0580 -20.0579 -20.0579 -20.0579 -20.0579
    -8.8661  -8.8661  -8.8661  -8.8661  -8.8528  -8.8528  -8.8527  -8.8527
    -8.3420  -8.3420  -8.3420  -8.3420  -8.3182  -8.3182  -8.3182  -8.3182
    -8.2668  -8.2668  -8.2668  -8.2668  -8.2531  -8.2531  -8.2531  -8.2531
     3.0356   3.0356   3.0356   3.0356   3.0892   3.0892   3.0892   3.0892
     3.2300   3.2300   3.2301   3.2301   3.3016   3.3016   3.3016   3.3017
     3.4671   3.4671   3.4671   3.4671   3.5801   3.5801   3.5801   3.5801
     4.2278   4.2278   4.2278   4.2278   4.2391   4.2391   4.2391   4.2391
     4.4346   4.4346   4.4346   4.4346   4.4664   4.4664   4.4664   4.4664
     4.5440   4.5440   4.5440   4.5440   4.5798   4.5798   4.5798   4.5798
     7.1816   7.1816   7.1817   7.1817   7.3159   7.3159   7.3159   7.3159
     7.3886   7.3886   7.3886   7.3886   7.4203   7.4203   7.4203   7.4203
     7.6523   7.6523   7.6523   7.6523   7.6918   7.6918   7.6918   7.6918
    11.9539  11.9539  11.9539  11.9539  11.9665  11.9665  11.9665  11.9665
    12.3256  12.3256  12.3256  12.3256  12.4486  12.4486  12.4486  12.4486
    12.6344  12.6344  12.6344  12.6344  12.6921  12.6921  12.6921  12.6921
    17.1621  17.1621  17.1621  17.1622  17.2268  17.2268  17.2268  17.2268
    17.4459  17.4462  17.4462  17.4463  17.4716

     the Fermi energy is    10.0714 ev

!    total energy              =   -6260.62324421 Ry
     Harris-Foulkes estimate   =   -6260.62324421 Ry
     estimated scf accuracy    <          1.1E-09 Ry

     The total energy is the sum of the following terms:

     one-electron contribution =   -4711.01100926 Ry
     hartree contribution      =    2594.83496997 Ry
     xc contribution           =    -966.42105579 Ry
     ewald contribution        =   -3178.02613874 Ry
     smearing contrib. (-TS)   =      -0.00001039 Ry

     convergence has been achieved in  13 iterations

     Writing output data file Landau_16.save

     General routines

     Parallel routines

   This run was terminated on:  16: 5: 1  28Aug2019

   JOB DONE.