     Program PWSCF v.6.4.1 starts on 19Nov2019 at 22:17:17

     K-points division:     npool     =      40
     Reading input from scf.in

     Current dimensions of program PWSCF are:
     Max number of different atomic species (ntypx) = 10
     Max number of k-points (npk) =  40000
     Max angular momentum in pseudopotentials (lmaxx) =  3

     Subspace diagonalization in iterative solution of the eigenvalue problem:
     a serial algorithm will be used

     Message from routine setup:
     using ibrav=0 with symmetry is DISCOURAGED, use correct ibrav instead

     bravais-lattice index     =            0
     lattice parameter (alat)  =       9.8974  a.u.
     unit-cell volume          =    1423.1377 (a.u.)^3
     number of atoms/cell      =           16
     number of atomic types    =            2
     number of electrons       =       184.07
     number of Kohn-Sham states=          110
     kinetic-energy cutoff     =     120.0000  Ry
     charge density cutoff     =     480.0000  Ry
     convergence threshold     =      1.0E-08
     mixing beta               =       0.7000
     number of iterations used =            8  plain     mixing
     Exchange-correlation      = SLA PW NOGX NOGC ( 1  4  0  0 0 0)

     celldm(1)=   9.897398  celldm(2)=   0.000000  celldm(3)=   0.000000
     celldm(4)=   0.000000  celldm(5)=   0.000000  celldm(6)=   0.000000

     crystal axes: (cart. coord. in units of alat)
               a(1) = (   1.000000   0.000000   0.000000 )
               a(2) = (   0.000000   1.000000   0.000000 )
               a(3) = (   0.000000   0.000000   1.467857 )

     reciprocal axes: (cart. coord. in units 2 pi/alat)
               b(1) = (  1.000000  0.000000  0.000000 )
               b(2) = (  0.000000  1.000000  0.000000 )
               b(3) = (  0.000000  0.000000  0.681265 )

     PseudoPot. # 1 for W  read from file:
     /cluster/scratch/mnoe/QE/pps/W_ONCV_LDA-4.0.upf
     MD5 check sum: ba0307d5d4cd419d6f1d13dc49d7c13a
     Pseudo is Norm-conserving + core correction, Zval = 28.0
     Generated using ONCVPSP code by D. R. Hamann
     Using radial grid of 1380 points,  8 beta functions with:
                l(1) =   0
                l(2) =   0
                l(3) =   1
                l(4) =   1
                l(5) =   2
                l(6) =   2
                l(7) =   3
                l(8) =   3

     PseudoPot. # 2 for O  read from file:
     /cluster/scratch/mnoe/QE/pps/O_ONCV_LDA-3.0.upf
     MD5 check sum: b55cdb4f45ae2203d24ad12cf8d61a31
     Pseudo is Norm-conserving + core correction, Zval =  6.0
     Generated using ONCVPSP code by D. R. Hamann
     Using radial grid of  926 points,  5 beta functions with:
                l(1) =   0
                l(2) =   0
                l(3) =   1
                l(4) =   1
                l(5) =   2

     atomic species   valence    mass     pseudopotential
        W             28.00   183.84000     W ( 1.00)
        O              6.00    15.99940     O ( 1.00)

     16 Sym. Ops., with inversion, found (14 have fractional translation)

   Cartesian axes

     site n.     atom                  positions (alat units)
         1           W   tau(   1) = (   0.2500000   0.2500000   0.3131924  )
         2           W   tau(   2) = (   0.7500000   0.7500000   1.1546651  )
         3           W   tau(   3) = (   0.7500000   0.7500000   0.4207363  )
         4           W   tau(   4) = (   0.2500000   0.2500000   1.0471211  )
         5           O   tau(   5) = (   0.2500000   0.2500000   0.7084988  )
         6           O   tau(   6) = (   0.7500000   0.7500000   0.7593586  )
         7           O   tau(   7) = (   0.7500000   0.7500000   0.0254299  )
         8           O   tau(   8) = (   0.2500000   0.2500000   1.4424275  )
         9           O   tau(   9) = (   0.4739858   0.5260142   0.3669644  )
        10           O   tau(  10) = (   0.5260142   0.4739858   1.1008931  )
        11           O   tau(  11) = (   0.0260142   0.9739858   0.3669644  )
        12           O   tau(  12) = (   0.9739857   0.0260143   1.1008931  )
        13           O   tau(  13) = (   0.9739858   0.4739858   0.3669644  )
        14           O   tau(  14) = (   0.0260143   0.5260142   1.1008931  )
        15           O   tau(  15) = (   0.5260142   0.0260142   0.3669644  )
        16           O   tau(  16) = (   0.4739858   0.9739857   1.1008931  )

     number of k points=    40  gaussian smearing, width (Ry)=  0.0007
                       cart. coord. in units 2pi/alat
        k(    1) = (   0.0000000   0.0000000   0.0000000), wk =   0.0092593
        k(    2) = (   0.0000000   0.0000000   0.1135442), wk =   0.0185185
        k(    3) = (   0.0000000   0.0000000   0.2270884), wk =   0.0185185
        k(    4) = (   0.0000000   0.0000000  -0.3406325), wk =   0.0092593
        k(    5) = (   0.0000000   0.1666667   0.0000000), wk =   0.0370370
        k(    6) = (   0.0000000   0.1666667   0.1135442), wk =   0.0740741
        k(    7) = (   0.0000000   0.1666667   0.2270884), wk =   0.0740741
        k(    8) = (   0.0000000   0.1666667  -0.3406325), wk =   0.0370370
        k(    9) = (   0.0000000   0.3333333   0.0000000), wk =   0.0370370
        k(   10) = (   0.0000000   0.3333333   0.1135442), wk =   0.0740741
        k(   11) = (   0.0000000   0.3333333   0.2270884), wk =   0.0740741
        k(   12) = (   0.0000000   0.3333333  -0.3406325), wk =   0.0370370
        k(   13) = (   0.0000000  -0.5000000   0.0000000), wk =   0.0185185
        k(   14) = (   0.0000000  -0.5000000   0.1135442), wk =   0.0370370
        k(   15) = (   0.0000000  -0.5000000   0.2270884), wk =   0.0370370
        k(   16) = (   0.0000000  -0.5000000  -0.3406325), wk =   0.0185185
        k(   17) = (   0.1666667   0.1666667   0.0000000), wk =   0.0370370
        k(   18) = (   0.1666667   0.1666667   0.1135442), wk =   0.0740741
        k(   19) = (   0.1666667   0.1666667   0.2270884), wk =   0.0740741
        k(   20) = (   0.1666667   0.1666667  -0.3406325), wk =   0.0370370
        k(   21) = (   0.1666667   0.3333333   0.0000000), wk =   0.0740741
        k(   22) = (   0.1666667   0.3333333   0.1135442), wk =   0.1481481
        k(   23) = (   0.1666667   0.3333333   0.2270884), wk =   0.1481481
        k(   24) = (   0.1666667   0.3333333  -0.3406325), wk =   0.0740741
        k(   25) = (   0.1666667  -0.5000000   0.0000000), wk =   0.0370370
        k(   26) = (   0.1666667  -0.5000000   0.1135442), wk =   0.0740741
        k(   27) = (   0.1666667  -0.5000000   0.2270884), wk =   0.0740741
        k(   28) = (   0.1666667  -0.5000000  -0.3406325), wk =   0.0370370
        k(   29) = (   0.3333333   0.3333333   0.0000000), wk =   0.0370370
        k(   30) = (   0.3333333   0.3333333   0.1135442), wk =   0.0740741
        k(   31) = (   0.3333333   0.3333333   0.2270884), wk =   0.0740741
        k(   32) = (   0.3333333   0.3333333  -0.3406325), wk =   0.0370370
        k(   33) = (   0.3333333  -0.5000000   0.0000000), wk =   0.0370370
        k(   34) = (   0.3333333  -0.5000000   0.1135442), wk =   0.0740741
        k(   35) = (   0.3333333  -0.5000000   0.2270884), wk =   0.0740741
        k(   36) = (   0.3333333  -0.5000000  -0.3406325), wk =   0.0370370
        k(   37) = (  -0.5000000  -0.5000000   0.0000000), wk =   0.0092593
        k(   38) = (  -0.5000000  -0.5000000   0.1135442), wk =   0.0185185
        k(   39) = (  -0.5000000  -0.5000000   0.2270884), wk =   0.0185185
        k(   40) = (  -0.5000000  -0.5000000  -0.3406325), wk =   0.0092593

     Initial potential from superposition of free atoms

     starting charge  183.99828, renormalised to  184.07500
     Starting wfcs are  116 randomized atomic wfcs

     Self-consistent Calculation

     iteration #  1     ecut=   120.00 Ry     beta= 0.70
     Davidson diagonalization with overlap
     ethr =  1.00E-02,  avg # of iterations =  4.2

     total energy              =   -3126.86166279 Ry
     Harris-Foulkes estimate   =   -3132.26518421 Ry
     estimated scf accuracy    <       6.83087784 Ry

[...]

     total energy              =   -3130.49200592 Ry
     Harris-Foulkes estimate   =   -3130.49200594 Ry
     estimated scf accuracy    <       0.00000005 Ry

     iteration # 12     ecut=   120.00 Ry     beta= 0.70
     Davidson diagonalization with overlap
     ethr =  2.45E-11,  avg # of iterations =  2.0

     End of self-consistent calculation

          k = 0.0000 0.0000 0.0000 ( 31663 PWs)   bands (ev):

   -66.3868 -66.3863 -66.3853 -66.3849 -30.7626 -30.7575 -30.7223 -30.7223
   -30.7186 -30.7186 -30.6966 -30.6927 -30.6387 -30.6387 -30.6357 -30.6357
   -20.5473 -20.5473 -20.5472 -20.5472 -20.5288 -20.5286 -20.5261 -20.5261
   -20.5260 -20.5260 -20.5248 -20.5248 -20.5248 -20.5248 -20.5226 -20.5223
   -20.5206 -20.5205 -20.5202 -20.5202 -20.5185 -20.5185 -20.5173 -20.5173
   -20.5134 -20.5134 -20.5124 -20.5124 -10.1679  -9.8277  -9.3606  -9.2053
    -9.1853  -9.0751  -8.0236  -7.9098  -7.8889  -7.8889  -7.8653  -7.8653
     0.9260   0.9264   1.0518   1.2914   1.3022   1.4598   2.3056   2.4004
     2.4004   2.4040   3.9413   3.9413   4.6792   4.6792   4.8589   5.3984
     5.3984   5.4183   5.4183   5.6526   5.6526   5.7807   5.8128   6.5085
     6.5085   6.6860   6.9281   6.9422   7.0570   7.0570   7.0779   7.0779
     8.0219   8.0219   8.0536   8.0537   8.8443   8.8475   9.5596   9.5596
    12.2275  12.2275  13.1756  13.1756  13.2230  13.2273  13.4560  14.0154
    14.0154  14.5403  14.5448  14.5748  15.3684  16.4127

[...]

          k = 0.3333-0.5000-0.3406 ( 31604 PWs)   bands (ev):

[...]

          k =-0.5000-0.5000 0.0000 ( 31608 PWs)   bands (ev):

[...]

          k =-0.5000-0.5000-0.3406 ( 31632 PWs)   bands (ev):

   -66.3858 -66.3858 -66.3858 -66.3858 -30.7275 -30.7275 -30.7275 -30.7275
   -30.7253 -30.7253 -30.7253 -30.7253 -30.6330 -30.6330 -30.6330 -30.6330
   -20.5473 -20.5473 -20.5473 -20.5473 -20.5275 -20.5275 -20.5275 -20.5275
   -20.5256 -20.5256 -20.5256 -20.5256 -20.5236 -20.5236 -20.5236 -20.5236
   -20.5204 -20.5204 -20.5204 -20.5204 -20.5179 -20.5179 -20.5179 -20.5179
   -20.5127 -20.5127 -20.5127 -20.5127  -9.5554  -9.5554  -9.5554  -9.5554
    -8.6554  -8.6554  -8.6554  -8.6554  -7.9495  -7.9495  -7.9495  -7.9495
     1.0591   1.0591   1.0591   1.0591   2.9505   2.9505   2.9505   2.9505
     3.1915   3.1915   3.1915   3.1915   4.5239   4.5239   4.5239   4.5239
     5.1465   5.1465   5.1465   5.1465   5.8339   5.8339   5.8339   5.8339
     6.0327   6.0327   6.0327   6.0327   6.5308   6.5308   6.5308   6.5308
     7.3141   7.3141   7.3141   7.3141  11.0643  11.0643  11.0643  11.0643
    12.2665  12.2665  12.2665  12.2665  13.4330  13.4330  13.4330  13.4330
    15.0848  15.0848  15.0848  15.0848  17.8918  17.8918

     the Fermi energy is     8.8493 ev

!    total energy              =   -3130.49200592 Ry
     Harris-Foulkes estimate   =   -3130.49200592 Ry
     estimated scf accuracy    <          8.5E-10 Ry

     The total energy is the sum of the following terms:

     one-electron contribution =   -2392.23168514 Ry
     hartree contribution      =    1313.13605838 Ry
     xc contribution           =    -482.93243049 Ry
     ewald contribution        =   -1568.46392814 Ry
     smearing contrib. (-TS)   =      -0.00002054 Ry

     convergence has been achieved in  12 iterations

     Writing output data file Landau_14.save/

     General routines

     Parallel routines

   This run was terminated on:  22:20: 0  19Nov2019

   JOB DONE.