     Program PWSCF v.6.2 (svn rev. 14038) starts on 23Mar2020 at  3:34:40

     K-points division:     npool     =      40
     Reading input from rscf.in

     Current dimensions of program PWSCF are:
     Max number of different atomic species (ntypx) = 10
     Max number of k-points (npk) =  40000
     Max angular momentum in pseudopotentials (lmaxx) =  3

     Subspace diagonalization in iterative solution of the eigenvalue problem:
     a serial algorithm will be used

     bravais-lattice index     =            0
     lattice parameter (alat)  =      13.8397  a.u.
     unit-cell volume          =    2804.9816 (a.u.)^3
     number of atoms/cell      =           32
     number of atomic types    =            2
     number of electrons       =       368.00
     number of Kohn-Sham states=          221
     kinetic-energy cutoff     =     120.0000  Ry
     charge density cutoff     =     480.0000  Ry
     convergence threshold     =      1.0E-08
     mixing beta               =       0.7000
     number of iterations used =            8  plain     mixing
     Exchange-correlation      = SLA PW NOGX NOGC ( 1  4  0  0 0 0)
     nstep                     =           50

     celldm(1)=  13.839685  celldm(2)=   0.000000  celldm(3)=   0.000000
     celldm(4)=   0.000000  celldm(5)=   0.000000  celldm(6)=   0.000000

     crystal axes: (cart. coord. in units of alat)
               a(1) = (   1.000000   0.000000   0.000000 )
               a(2) = (   0.000000   1.058160   0.000000 )
               a(3) = (   0.000000   0.000000   1.000000 )

     reciprocal axes: (cart. coord. in units 2 pi/alat)
               b(1) = (  1.000000  0.000000  0.000000 )
               b(2) = (  0.000000  0.945037  0.000000 )
               b(3) = (  0.000000  0.000000  1.000000 )

     PseudoPot. # 1 for W  read from file:
     /cluster/scratch/mnoe/QE/pps/W_ONCV_LDA-4.0.upf
     MD5 check sum: ba0307d5d4cd419d6f1d13dc49d7c13a
     Pseudo is Norm-conserving + core correction, Zval = 28.0
     Generated using ONCVPSP code by D. R. Hamann
     Using radial grid of 1380 points,  8 beta functions with:
                l(1) =   0
                l(2) =   0
                l(3) =   1
                l(4) =   1
                l(5) =   2
                l(6) =   2
                l(7) =   3
                l(8) =   3

     PseudoPot. # 2 for O  read from file:
     /cluster/scratch/mnoe/QE/pps/O_ONCV_LDA-3.0.upf
     MD5 check sum: a1bd6164e7280c17a38c229939bfbd54
     Pseudo is Norm-conserving + core correction, Zval =  6.0
     Generated using ONCVPSP code by D. R. Hamann
     Using radial grid of  926 points,  5 beta functions with:
                l(1) =   0
                l(2) =   0
                l(3) =   1
                l(4) =   1
                l(5) =   2

     atomic species   valence    mass     pseudopotential
        W             28.00   183.84000     W ( 1.00)
        O              6.00    15.99940     O ( 1.00)

      4 Sym. Ops. (no inversion) found ( 3 have fractional translation)

   Cartesian axes

     site n.     atom                  positions (alat units)
         1           W   tau(   1) = (   0.2456981   0.2970079   0.0010036  )
         2           W   tau(   2) = (   0.7512481   0.7611522  -0.0042374  )
         3           W   tau(   3) = (   0.2543019   0.2320722   0.5010036  )
         4           W   tau(   4) = (   0.7487519   0.8260879   0.4957626  )
         5           W   tau(   5) = (   0.7543019   0.2970079   0.4989964  )
         6           W   tau(   6) = (   0.2487519   0.7611522   0.5042374  )
         7           W   tau(   7) = (   0.7456981   0.2320722  -0.0010036  )
         8           W   tau(   8) = (   0.2512481   0.8260879   0.0042374  )
         9           O   tau(   9) = (   0.2444059   0.0084647  -0.0021685  )
        10           O   tau(  10) = (   0.7546449  -0.0084647  -0.0037975  )
        11           O   tau(  11) = (   0.2555941   0.5206154   0.4978315  )
        12           O   tau(  12) = (   0.7453551   0.5375447   0.4962025  )
        13           O   tau(  13) = (   0.7555941   0.0084647   0.5021685  )
        14           O   tau(  14) = (   0.2453551  -0.0084647   0.5037975  )
        15           O   tau(  15) = (   0.7444059   0.5206154   0.0021685  )
        16           O   tau(  16) = (   0.2546449   0.5375447   0.0037975  )
        17           O   tau(  17) = (   0.5014294   0.2582765   0.4524172  )
        18           O   tau(  18) = (   0.4999114   0.7984704   0.5475827  )
        19           O   tau(  19) = (  -0.0014294   0.2708035   0.9524173  )
        20           O   tau(  20) = (   0.0000886   0.7887697   0.0475828  )
        21           O   tau(  21) = (   0.4985706   0.2582765   0.0475828  )
        22           O   tau(  22) = (   0.5000886   0.7984704   0.9524173  )
        23           O   tau(  23) = (   0.0014294   0.2708035   0.5475827  )
        24           O   tau(  24) = (  -0.0000886   0.7887697   0.4524172  )
        25           O   tau(  25) = (   0.7024173   0.2665652   0.7492917  )
        26           O   tau(  26) = (   0.2975827   0.7980706   0.2515927  )
        27           O   tau(  27) = (   0.7975827   0.2625148   0.2492918  )
        28           O   tau(  28) = (   0.2024173   0.7891695   0.7515927  )
        29           O   tau(  29) = (   0.2975827   0.2665652   0.7507082  )
        30           O   tau(  30) = (   0.7024173   0.7980706   0.2484073  )
        31           O   tau(  31) = (   0.2024173   0.2625148   0.2507082  )
        32           O   tau(  32) = (   0.7975827   0.7891695   0.7484073  )

     number of k points=    64  gaussian smearing, width (Ry)=  0.0007
                       cart. coord. in units 2pi/alat
        k(    1) = (   0.0000000   0.0000000   0.0000000), wk =   0.0092593
        k(    2) = (   0.0000000   0.0000000   0.1666667), wk =   0.0185185
        k(    3) = (   0.0000000   0.0000000   0.3333333), wk =   0.0185185
        k(    4) = (   0.0000000   0.0000000  -0.5000000), wk =   0.0092593
        k(    5) = (   0.0000000   0.1575061   0.0000000), wk =   0.0185185
        k(    6) = (   0.0000000   0.1575061   0.1666667), wk =   0.0370370
        k(    7) = (   0.0000000   0.1575061   0.3333333), wk =   0.0370370
        k(    8) = (   0.0000000   0.1575061  -0.5000000), wk =   0.0185185
        k(    9) = (   0.0000000   0.3150122   0.0000000), wk =   0.0185185
        k(   10) = (   0.0000000   0.3150122   0.1666667), wk =   0.0370370
        k(   11) = (   0.0000000   0.3150122   0.3333333), wk =   0.0370370
        k(   12) = (   0.0000000   0.3150122  -0.5000000), wk =   0.0185185
        k(   13) = (   0.0000000  -0.4725183   0.0000000), wk =   0.0092593
        k(   14) = (   0.0000000  -0.4725183   0.1666667), wk =   0.0185185
        k(   15) = (   0.0000000  -0.4725183   0.3333333), wk =   0.0185185
        k(   16) = (   0.0000000  -0.4725183  -0.5000000), wk =   0.0092593
        k(   17) = (   0.1666667   0.0000000   0.1666667), wk =   0.0370370
        k(   18) = (   0.1666667   0.0000000   0.3333333), wk =   0.0370370
        k(   19) = (   0.1666667   0.0000000  -0.5000000), wk =   0.0185185
        k(   20) = (   0.1666667   0.1575061   0.1666667), wk =   0.0740741
        k(   21) = (   0.1666667   0.1575061   0.3333333), wk =   0.0740741
        k(   22) = (   0.1666667   0.1575061  -0.5000000), wk =   0.0370370
        k(   23) = (   0.1666667   0.3150122   0.1666667), wk =   0.0740741
        k(   24) = (   0.1666667   0.3150122   0.3333333), wk =   0.0740741
        k(   25) = (   0.1666667   0.3150122  -0.5000000), wk =   0.0370370
        k(   26) = (   0.1666667  -0.4725183   0.1666667), wk =   0.0370370
        k(   27) = (   0.1666667  -0.4725183   0.3333333), wk =   0.0370370
        k(   28) = (   0.1666667  -0.4725183  -0.5000000), wk =   0.0185185
        k(   29) = (   0.3333333   0.0000000   0.3333333), wk =   0.0370370
        k(   30) = (   0.3333333   0.0000000  -0.5000000), wk =   0.0185185
        k(   31) = (   0.3333333   0.1575061   0.3333333), wk =   0.0740741
        k(   32) = (   0.3333333   0.1575061  -0.5000000), wk =   0.0370370
        k(   33) = (   0.3333333   0.3150122   0.3333333), wk =   0.0740741
        k(   34) = (   0.3333333   0.3150122  -0.5000000), wk =   0.0370370
        k(   35) = (   0.3333333  -0.4725183   0.3333333), wk =   0.0370370
        k(   36) = (   0.3333333  -0.4725183  -0.5000000), wk =   0.0185185
        k(   37) = (  -0.5000000   0.0000000  -0.5000000), wk =   0.0092593
        k(   38) = (  -0.5000000   0.1575061  -0.5000000), wk =   0.0185185
        k(   39) = (  -0.5000000   0.3150122  -0.5000000), wk =   0.0185185
        k(   40) = (  -0.5000000  -0.4725183  -0.5000000), wk =   0.0092593
        k(   41) = (   0.1666667   0.0000000   0.0000000), wk =   0.0185185
        k(   42) = (   0.3333333   0.0000000   0.0000000), wk =   0.0185185
        k(   43) = (  -0.5000000   0.0000000   0.0000000), wk =   0.0092593
        k(   44) = (   0.1666667  -0.1575061   0.0000000), wk =   0.0370370
        k(   45) = (   0.3333333  -0.1575061   0.0000000), wk =   0.0370370
        k(   46) = (  -0.5000000  -0.1575061   0.0000000), wk =   0.0185185
        k(   47) = (   0.1666667  -0.3150122   0.0000000), wk =   0.0370370
        k(   48) = (   0.3333333  -0.3150122   0.0000000), wk =   0.0370370
        k(   49) = (  -0.5000000  -0.3150122   0.0000000), wk =   0.0185185
        k(   50) = (   0.1666667   0.4725183   0.0000000), wk =   0.0185185
        k(   51) = (   0.3333333   0.4725183   0.0000000), wk =   0.0185185
        k(   52) = (  -0.5000000   0.4725183   0.0000000), wk =   0.0092593
        k(   53) = (   0.3333333   0.0000000   0.1666667), wk =   0.0370370
        k(   54) = (  -0.5000000   0.0000000   0.1666667), wk =   0.0185185
        k(   55) = (   0.3333333  -0.1575061   0.1666667), wk =   0.0740741
        k(   56) = (  -0.5000000  -0.1575061   0.1666667), wk =   0.0370370
        k(   57) = (   0.3333333  -0.3150122   0.1666667), wk =   0.0740741
        k(   58) = (  -0.5000000  -0.3150122   0.1666667), wk =   0.0370370
        k(   59) = (   0.3333333   0.4725183   0.1666667), wk =   0.0370370
        k(   60) = (  -0.5000000   0.4725183   0.1666667), wk =   0.0185185
        k(   61) = (  -0.5000000   0.0000000   0.3333333), wk =   0.0185185
        k(   62) = (  -0.5000000  -0.1575061   0.3333333), wk =   0.0370370
        k(   63) = (  -0.5000000  -0.3150122   0.3333333), wk =   0.0370370
        k(   64) = (  -0.5000000   0.4725183   0.3333333), wk =   0.0185185

     Initial potential from superposition of free atoms

     starting charge  367.99656, renormalised to  368.00000
     Starting wfc are  232 randomized atomic wfcs

     Self-consistent Calculation

     iteration #  1     ecut=   120.00 Ry     beta= 0.70
     Davidson diagonalization with overlap
     ethr =  1.00E-02,  avg # of iterations =  5.1

     total energy              =   -6254.00107457 Ry
     Harris-Foulkes estimate   =   -6264.58752084 Ry
     estimated scf accuracy    <      13.40929219 Ry

[...]

     End of self-consistent calculation

[...]
     Results may differ from those at the preceding step.

     bravais-lattice index     =            0
     lattice parameter (alat)  =      13.8397  a.u.
     unit-cell volume          =    2813.6753 (a.u.)^3
     number of atoms/cell      =           32
     number of atomic types    =            2
     number of electrons       =       368.00
     number of Kohn-Sham states=          221
     kinetic-energy cutoff     =     120.0000  Ry
     charge density cutoff     =     480.0000  Ry
     convergence threshold     =      1.0E-10
     mixing beta               =       0.7000
     number of iterations used =            8  plain     mixing
     Exchange-correlation      = SLA PW NOGX NOGC ( 1  4  0  0 0 0)

     celldm(1)=  13.839685  celldm(2)=   0.000000  celldm(3)=   0.000000
     celldm(4)=   0.000000  celldm(5)=   0.000000  celldm(6)=   0.000000

     crystal axes: (cart. coord. in units of alat)
               a(1) = (   1.002748   0.000000   0.000000 )
               a(2) = (   0.000000   1.055509   0.000000 )
               a(3) = (   0.000000   0.000000   1.002863 )

     reciprocal axes: (cart. coord. in units 2 pi/alat)
               b(1) = (  0.997260  0.000000  0.000000 )
               b(2) = (  0.000000  0.947410  0.000000 )
               b(3) = (  0.000000  0.000000  0.997145 )

     PseudoPot. # 1 for W  read from file:
     /cluster/scratch/mnoe/QE/pps/W_ONCV_LDA-4.0.upf
     MD5 check sum: ba0307d5d4cd419d6f1d13dc49d7c13a
     Pseudo is Norm-conserving + core correction, Zval = 28.0
     Generated using ONCVPSP code by D. R. Hamann
     Using radial grid of 1380 points,  8 beta functions with:
                l(1) =   0
                l(2) =   0
                l(3) =   1
                l(4) =   1
                l(5) =   2
                l(6) =   2
                l(7) =   3
                l(8) =   3

     PseudoPot. # 2 for O  read from file:
     /cluster/scratch/mnoe/QE/pps/O_ONCV_LDA-3.0.upf
     MD5 check sum: a1bd6164e7280c17a38c229939bfbd54
     Pseudo is Norm-conserving + core correction, Zval =  6.0
     Generated using ONCVPSP code by D. R. Hamann
     Using radial grid of  926 points,  5 beta functions with:
                l(1) =   0
                l(2) =   0
                l(3) =   1
                l(4) =   1
                l(5) =   2

     atomic species   valence    mass     pseudopotential
        W             28.00   183.84000     W ( 1.00)
        O              6.00    15.99940     O ( 1.00)

      4 Sym. Ops. (no inversion) found ( 3 have fractional translation)

   Cartesian axes

     site n.     atom                  positions (alat units)
         1           W   tau(   1) = (   0.2463733   0.2962638   0.0010065  )
         2           W   tau(   2) = (   0.7533124   0.7592454  -0.0042495  )
         3           W   tau(   3) = (   0.2550007   0.2314908   0.5024379  )
         4           W   tau(   4) = (   0.7508094   0.8240184   0.4971819  )
         5           W   tau(   5) = (   0.7563746   0.2962638   0.5004250  )
         6           W   tau(   6) = (   0.2494354   0.7592454   0.5056810  )
         7           W   tau(   7) = (   0.7477472   0.2314908  -0.0010065  )
         8           W   tau(   8) = (   0.2519385   0.8240184   0.0042495  )
         9           O   tau(   9) = (   0.2450775   0.0084435  -0.0021747  )
        10           O   tau(  10) = (   0.7567186  -0.0084435  -0.0038084  )
        11           O   tau(  11) = (   0.2562964   0.5193111   0.4992567  )
        12           O   tau(  12) = (   0.7474032   0.5361981   0.4976230  )
        13           O   tau(  13) = (   0.7576704   0.0084435   0.5036061  )
        14           O   tau(  14) = (   0.2460293  -0.0084435   0.5052398  )
        15           O   tau(  15) = (   0.7464515   0.5193111   0.0021747  )
        16           O   tau(  16) = (   0.2553446   0.5361981   0.0038084  )
        17           O   tau(  17) = (   0.5028072   0.2576295   0.4537124  )
        18           O   tau(  18) = (   0.5012851   0.7964701   0.5491504  )
        19           O   tau(  19) = (  -0.0014333   0.2701251   0.9551439  )
        20           O   tau(  20) = (   0.0000889   0.7867937   0.0477190  )
        21           O   tau(  21) = (   0.4999407   0.2576295   0.0477190  )
        22           O   tau(  22) = (   0.5014628   0.7964701   0.9551439  )
        23           O   tau(  23) = (   0.0014333   0.2701251   0.5491504  )
        24           O   tau(  24) = (  -0.0000889   0.7867937   0.4537124  )
        25           O   tau(  25) = (   0.7043474   0.2658974   0.7514368  )
        26           O   tau(  26) = (   0.2984005   0.7960713   0.2523130  )
        27           O   tau(  27) = (   0.7997744   0.2618572   0.2500054  )
        28           O   tau(  28) = (   0.2029735   0.7871925   0.7537444  )
        29           O   tau(  29) = (   0.2984005   0.2658974   0.7528574  )
        30           O   tau(  30) = (   0.7043474   0.7960713   0.2491184  )
        31           O   tau(  31) = (   0.2029735   0.2618572   0.2514260  )
        32           O   tau(  32) = (   0.7997744   0.7871925   0.7505498  )

     number of k points=    64  gaussian smearing, width (Ry)=  0.0007
                       cart. coord. in units 2pi/alat
        k(    1) = (   0.0000000   0.0000000   0.0000000), wk =   0.0092593
        k(    2) = (   0.0000000   0.0000000   0.1661909), wk =   0.0185185
        k(    3) = (   0.0000000   0.0000000   0.3323818), wk =   0.0185185
        k(    4) = (   0.0000000   0.0000000  -0.4985727), wk =   0.0092593
        k(    5) = (   0.0000000   0.1579017   0.0000000), wk =   0.0185185
        k(    6) = (   0.0000000   0.1579017   0.1661909), wk =   0.0370370
        k(    7) = (   0.0000000   0.1579017   0.3323818), wk =   0.0370370
        k(    8) = (   0.0000000   0.1579017  -0.4985727), wk =   0.0185185
        k(    9) = (   0.0000000   0.3158033   0.0000000), wk =   0.0185185
        k(   10) = (   0.0000000   0.3158033   0.1661909), wk =   0.0370370
        k(   11) = (   0.0000000   0.3158033   0.3323818), wk =   0.0370370
        k(   12) = (   0.0000000   0.3158033  -0.4985727), wk =   0.0185185
        k(   13) = (   0.0000000  -0.4737050   0.0000000), wk =   0.0092593
        k(   14) = (   0.0000000  -0.4737050   0.1661909), wk =   0.0185185
        k(   15) = (   0.0000000  -0.4737050   0.3323818), wk =   0.0185185
        k(   16) = (   0.0000000  -0.4737050  -0.4985727), wk =   0.0092593
        k(   17) = (   0.1662099   0.0000000   0.1661909), wk =   0.0370370
        k(   18) = (   0.1662099   0.0000000   0.3323818), wk =   0.0370370
        k(   19) = (   0.1662099   0.0000000  -0.4985727), wk =   0.0185185
        k(   20) = (   0.1662099   0.1579017   0.1661909), wk =   0.0740741
        k(   21) = (   0.1662099   0.1579017   0.3323818), wk =   0.0740741
        k(   22) = (   0.1662099   0.1579017  -0.4985727), wk =   0.0370370
        k(   23) = (   0.1662099   0.3158033   0.1661909), wk =   0.0740741
        k(   24) = (   0.1662099   0.3158033   0.3323818), wk =   0.0740741
        k(   25) = (   0.1662099   0.3158033  -0.4985727), wk =   0.0370370
        k(   26) = (   0.1662099  -0.4737050   0.1661909), wk =   0.0370370
        k(   27) = (   0.1662099  -0.4737050   0.3323818), wk =   0.0370370
        k(   28) = (   0.1662099  -0.4737050  -0.4985727), wk =   0.0185185
        k(   29) = (   0.3324199   0.0000000   0.3323818), wk =   0.0370370
        k(   30) = (   0.3324199   0.0000000  -0.4985727), wk =   0.0185185
        k(   31) = (   0.3324199   0.1579017   0.3323818), wk =   0.0740741
        k(   32) = (   0.3324199   0.1579017  -0.4985727), wk =   0.0370370
        k(   33) = (   0.3324199   0.3158033   0.3323818), wk =   0.0740741
        k(   34) = (   0.3324199   0.3158033  -0.4985727), wk =   0.0370370
        k(   35) = (   0.3324199  -0.4737050   0.3323818), wk =   0.0370370
        k(   36) = (   0.3324199  -0.4737050  -0.4985727), wk =   0.0185185
        k(   37) = (  -0.4986298   0.0000000  -0.4985727), wk =   0.0092593
        k(   38) = (  -0.4986298   0.1579017  -0.4985727), wk =   0.0185185
        k(   39) = (  -0.4986298   0.3158033  -0.4985727), wk =   0.0185185
        k(   40) = (  -0.4986298  -0.4737050  -0.4985727), wk =   0.0092593
        k(   41) = (   0.1662099   0.0000000   0.0000000), wk =   0.0185185
        k(   42) = (   0.3324199   0.0000000   0.0000000), wk =   0.0185185
        k(   43) = (  -0.4986298   0.0000000   0.0000000), wk =   0.0092593
        k(   44) = (   0.1662099  -0.1579017   0.0000000), wk =   0.0370370
        k(   45) = (   0.3324199  -0.1579017   0.0000000), wk =   0.0370370
        k(   46) = (  -0.4986298  -0.1579017   0.0000000), wk =   0.0185185
        k(   47) = (   0.1662099  -0.3158033   0.0000000), wk =   0.0370370
        k(   48) = (   0.3324199  -0.3158033   0.0000000), wk =   0.0370370
        k(   49) = (  -0.4986298  -0.3158033   0.0000000), wk =   0.0185185
        k(   50) = (   0.1662099   0.4737050   0.0000000), wk =   0.0185185
        k(   51) = (   0.3324199   0.4737050   0.0000000), wk =   0.0185185
        k(   52) = (  -0.4986298   0.4737050   0.0000000), wk =   0.0092593
        k(   53) = (   0.3324199   0.0000000   0.1661909), wk =   0.0370370
        k(   54) = (  -0.4986298   0.0000000   0.1661909), wk =   0.0185185
        k(   55) = (   0.3324199  -0.1579017   0.1661909), wk =   0.0740741
        k(   56) = (  -0.4986298  -0.1579017   0.1661909), wk =   0.0370370
        k(   57) = (   0.3324199  -0.3158033   0.1661909), wk =   0.0740741
        k(   58) = (  -0.4986298  -0.3158033   0.1661909), wk =   0.0370370
        k(   59) = (   0.3324199   0.4737050   0.1661909), wk =   0.0370370
        k(   60) = (  -0.4986298   0.4737050   0.1661909), wk =   0.0185185
        k(   61) = (  -0.4986298   0.0000000   0.3323818), wk =   0.0185185
        k(   62) = (  -0.4986298  -0.1579017   0.3323818), wk =   0.0370370
        k(   63) = (  -0.4986298  -0.3158033   0.3323818), wk =   0.0370370
        k(   64) = (  -0.4986298   0.4737050   0.3323818), wk =   0.0185185

     Initial potential from superposition of free atoms

     starting charge  367.99656, renormalised to  368.00000
     Starting wfc are  232 randomized atomic wfcs

     Writing output data file Landau_3.save

     Self-consistent Calculation

     iteration #  1     ecut=   120.00 Ry     beta= 0.70
     Davidson diagonalization with overlap
     c_bands:  2 eigenvalues not converged
     ethr =  1.00E-06,  avg # of iterations = 14.7

[...]

     total energy              =   -6261.10953159 Ry
     Harris-Foulkes estimate   =   -6261.10953159 Ry
     estimated scf accuracy    <          2.7E-10 Ry

     iteration # 16     ecut=   120.00 Ry     beta= 0.70
     Davidson diagonalization with overlap
     ethr =  1.00E-13,  avg # of iterations =  2.3

     End of self-consistent calculation

[...]

          k = 0.3324 0.4737 0.1662 ( 62422 PWs)   bands (ev):

[...]

          k =-0.4986 0.4737 0.3324 ( 62420 PWs)   bands (ev):

   -66.2309 -66.2309 -66.2309 -66.2309 -66.2305 -66.2305 -66.2304 -66.2304
   -30.5907 -30.5907 -30.5903 -30.5903 -30.5885 -30.5885 -30.5882 -30.5882
   -30.5482 -30.5482 -30.5451 -30.5451 -30.5248 -30.5248 -30.5227 -30.5227
   -30.5216 -30.5216 -30.5191 -30.5191 -30.4998 -30.4998 -30.4963 -30.4963
   -20.3933 -20.3933 -20.3933 -20.3933 -20.3932 -20.3932 -20.3932 -20.3932
   -20.3717 -20.3717 -20.3716 -20.3716 -20.3715 -20.3715 -20.3715 -20.3715
   -20.3698 -20.3698 -20.3696 -20.3696 -20.3693 -20.3693 -20.3692 -20.3692
   -20.3687 -20.3687 -20.3685 -20.3685 -20.3683 -20.3683 -20.3681 -20.3681
   -20.3602 -20.3602 -20.3601 -20.3601 -20.3593 -20.3593 -20.3593 -20.3593
   -20.3580 -20.3580 -20.3575 -20.3575 -20.3563 -20.3563 -20.3558 -20.3558
   -20.3557 -20.3557 -20.3553 -20.3553 -20.3542 -20.3542 -20.3538 -20.3538
    -9.2331  -9.2331  -9.2277  -9.2277  -8.8353  -8.8353  -8.8274  -8.8274
    -8.6007  -8.6007  -8.5936  -8.5936  -8.4415  -8.4415  -8.4310  -8.4310
    -8.3966  -8.3966  -8.3869  -8.3869  -8.1605  -8.1605  -8.1529  -8.1529
     2.2042   2.2042   2.2117   2.2117   2.9461   2.9461   2.9678   2.9678
     3.0722   3.0722   3.0817   3.0817   3.2157   3.2157   3.2387   3.2387
     3.3249   3.3250   3.3570   3.3570   3.5857   3.5857   3.6113   3.6113
     3.7161   3.7161   3.7762   3.7762   4.1969   4.1969   4.2253   4.2253
     4.2744   4.2744   4.3337   4.3337   4.4028   4.4028   4.5028   4.5028
     4.6022   4.6022   4.7497   4.7497   5.0071   5.0071   5.0235   5.0235
     6.9804   6.9804   7.0208   7.0208   7.1353   7.1353   7.1392   7.1392
     7.2320   7.2320   7.2709   7.2709   7.2980   7.2980   7.3590   7.3590
     7.4345   7.4345   7.4977   7.4977   7.5642   7.5642   7.5889   7.5889
    11.3611  11.3611  11.3938  11.3939  11.6738  11.6738  11.7438  11.7438
    12.1217  12.1217  12.1701  12.1701  12.2460  12.2460  12.2677  12.2677
    12.4221  12.4221  12.5275  12.5275  12.8940  12.8940  12.9709  12.9709
    16.4354  16.4354  16.4802  16.4802  17.0292  17.0292  17.0479  17.0479
    17.2929  17.2929  17.3500  17.3513  17.3782

     the Fermi energy is     9.0587 ev

!    total energy              =   -6261.10953159 Ry
     Harris-Foulkes estimate   =   -6261.10953159 Ry
     estimated scf accuracy    <          4.6E-11 Ry

     The total energy is the sum of the following terms:

     one-electron contribution =   -4734.42365770 Ry
     hartree contribution      =    2603.19149523 Ry
     xc contribution           =    -965.66888424 Ry
     ewald contribution        =   -3164.20848488 Ry
     smearing contrib. (-TS)   =      -0.00000000 Ry

     convergence has been achieved in  16 iterations

     Forces acting on atoms (cartesian axes, Ry/au):

     atom    1 type  1   force =    -0.00178115    0.00271551    0.00026114
     atom    2 type  1   force =     0.00080819   -0.00271408   -0.00159928
     atom    3 type  1   force =     0.00178115   -0.00271551    0.00026114
     atom    4 type  1   force =    -0.00080819    0.00271408   -0.00159928
     atom    5 type  1   force =     0.00178115    0.00271551   -0.00026114
     atom    6 type  1   force =    -0.00080819   -0.00271408    0.00159928
     atom    7 type  1   force =    -0.00178115   -0.00271551   -0.00026114
     atom    8 type  1   force =     0.00080819    0.00271408    0.00159928
     atom    9 type  2   force =    -0.00022883   -0.00130839   -0.00001054
     atom   10 type  2   force =     0.00010863    0.00130697   -0.00018283
     atom   11 type  2   force =     0.00022883    0.00130839   -0.00001054
     atom   12 type  2   force =    -0.00010863   -0.00130697   -0.00018283
     atom   13 type  2   force =     0.00022883   -0.00130839    0.00001054
     atom   14 type  2   force =    -0.00010863    0.00130697    0.00018283
     atom   15 type  2   force =    -0.00022883    0.00130839    0.00001054
     atom   16 type  2   force =     0.00010863   -0.00130697    0.00018283
     atom   17 type  2   force =    -0.00092025   -0.00025161   -0.00046610
     atom   18 type  2   force =     0.00035699   -0.00024302    0.00041970
     atom   19 type  2   force =     0.00092025    0.00025161   -0.00046610
     atom   20 type  2   force =    -0.00035699    0.00024302    0.00041970
     atom   21 type  2   force =     0.00092025   -0.00025161    0.00046610
     atom   22 type  2   force =    -0.00035699   -0.00024302   -0.00041970
     atom   23 type  2   force =    -0.00092025    0.00025161    0.00046610
     atom   24 type  2   force =     0.00035699    0.00024302   -0.00041970
     atom   25 type  2   force =    -0.00049464   -0.00041117    0.00024431
     atom   26 type  2   force =     0.00053804    0.00040316   -0.00088170
     atom   27 type  2   force =     0.00049464    0.00041117    0.00024431
     atom   28 type  2   force =    -0.00053804   -0.00040316   -0.00088170
     atom   29 type  2   force =     0.00049464   -0.00041117   -0.00024431
     atom   30 type  2   force =    -0.00053804    0.00040316    0.00088170
     atom   31 type  2   force =    -0.00049464    0.00041117   -0.00024431
     atom   32 type  2   force =     0.00053804   -0.00040316    0.00088170

     Total force =     0.000000     Total SCF correction =     0.000000

     Computing stress (Cartesian axis) and pressure

          total   stress  (Ry/bohr**3)                   (kbar)     P=    0.07
   0.00000081   0.00000000   0.00000000          0.12      0.00      0.00
   0.00000000  -0.00000018   0.00000000          0.00     -0.03      0.00
   0.00000000   0.00000000   0.00000084          0.00      0.00      0.12

     Writing output data file Landau_3.save

     General routines

     Parallel routines

   This run was terminated on:   7:39:51  23Mar2020

   JOB DONE.