     Program PWSCF v.6.4.1 starts on 19Nov2019 at 18:48: 9

     K-points division:     npool     =      40
     Reading input from rscf.in

     Current dimensions of program PWSCF are:
     Max number of different atomic species (ntypx) = 10
     Max number of k-points (npk) =  40000
     Max angular momentum in pseudopotentials (lmaxx) =  3

     Subspace diagonalization in iterative solution of the eigenvalue problem:
     a serial algorithm will be used

     Message from routine setup:
     using ibrav=0 with symmetry is DISCOURAGED, use correct ibrav instead

     bravais-lattice index     =            0
     lattice parameter (alat)  =       9.7849  a.u.
     unit-cell volume          =    1402.1515 (a.u.)^3
     number of atoms/cell      =           16
     number of atomic types    =            2
     number of electrons       =       184.00
     number of Kohn-Sham states=          110
     kinetic-energy cutoff     =     120.0000  Ry
     charge density cutoff     =     480.0000  Ry
     convergence threshold     =      1.0E-08
     mixing beta               =       0.7000
     number of iterations used =            8  plain     mixing
     Exchange-correlation      = SLA PW NOGX NOGC ( 1  4  0  0 0 0)
     nstep                     =           50

     celldm(1)=   9.784926  celldm(2)=   0.000000  celldm(3)=   0.000000
     celldm(4)=   0.000000  celldm(5)=   0.000000  celldm(6)=   0.000000

     crystal axes: (cart. coord. in units of alat)
               a(1) = (   1.000000   0.000000   0.000000 )
               a(2) = (   0.000000   1.000000   0.000000 )
               a(3) = (   0.000000   0.000000   1.496657 )

     reciprocal axes: (cart. coord. in units 2 pi/alat)
               b(1) = (  1.000000  0.000000  0.000000 )
               b(2) = (  0.000000  1.000000  0.000000 )
               b(3) = (  0.000000  0.000000  0.668156 )

     PseudoPot. # 1 for W  read from file:
     /cluster/scratch/mnoe/QE/pps/W_ONCV_LDA-4.0.upf
     MD5 check sum: ba0307d5d4cd419d6f1d13dc49d7c13a
     Pseudo is Norm-conserving + core correction, Zval = 28.0
     Generated using ONCVPSP code by D. R. Hamann
     Using radial grid of 1380 points,  8 beta functions with:
                l(1) =   0
                l(2) =   0
                l(3) =   1
                l(4) =   1
                l(5) =   2
                l(6) =   2
                l(7) =   3
                l(8) =   3

     PseudoPot. # 2 for O  read from file:
     /cluster/scratch/mnoe/QE/pps/O_ONCV_LDA-3.0.upf
     MD5 check sum: b55cdb4f45ae2203d24ad12cf8d61a31
     Pseudo is Norm-conserving + core correction, Zval =  6.0
     Generated using ONCVPSP code by D. R. Hamann
     Using radial grid of  926 points,  5 beta functions with:
                l(1) =   0
                l(2) =   0
                l(3) =   1
                l(4) =   1
                l(5) =   2

     atomic species   valence    mass     pseudopotential
        W             28.00   183.84000     W ( 1.00)
        O              6.00    15.99940     O ( 1.00)

     16 Sym. Ops., with inversion, found (14 have fractional translation)

   Cartesian axes

     site n.     atom                  positions (alat units)
         1           W   tau(   1) = (   0.2500000   0.2500000   0.3127319  )
         2           W   tau(   2) = (   0.7500000   0.7500000   1.1839252  )
         3           W   tau(   3) = (   0.7500000   0.7500000   0.4355967  )
         4           W   tau(   4) = (   0.2500000   0.2500000   1.0610603  )
         5           O   tau(   5) = (   0.2500000   0.2500000   0.7098995  )
         6           O   tau(   6) = (   0.7500000   0.7500000   0.7867575  )
         7           O   tau(   7) = (   0.7500000   0.7500000   0.0384291  )
         8           O   tau(   8) = (   0.2500000   0.2500000   1.4582280  )
         9           O   tau(   9) = (   0.4968061   0.5031938   0.3741643  )
        10           O   tau(  10) = (   0.5031939   0.4968062   1.1224928  )
        11           O   tau(  11) = (   0.0031938   0.9968062   0.3741643  )
        12           O   tau(  12) = (   0.9968061   0.0031939   1.1224928  )
        13           O   tau(  13) = (   0.9968062   0.4968061   0.3741643  )
        14           O   tau(  14) = (   0.0031939   0.5031939   1.1224928  )
        15           O   tau(  15) = (   0.5031938   0.0031938   0.3741643  )
        16           O   tau(  16) = (   0.4968062   0.9968061   1.1224928  )

     number of k points=    40  gaussian smearing, width (Ry)=  0.0007
                       cart. coord. in units 2pi/alat
        k(    1) = (   0.0000000   0.0000000   0.0000000), wk =   0.0092593
        k(    2) = (   0.0000000   0.0000000   0.1113593), wk =   0.0185185
        k(    3) = (   0.0000000   0.0000000   0.2227186), wk =   0.0185185
        k(    4) = (   0.0000000   0.0000000  -0.3340779), wk =   0.0092593
        k(    5) = (   0.0000000   0.1666667   0.0000000), wk =   0.0370370
        k(    6) = (   0.0000000   0.1666667   0.1113593), wk =   0.0740741
        k(    7) = (   0.0000000   0.1666667   0.2227186), wk =   0.0740741
        k(    8) = (   0.0000000   0.1666667  -0.3340779), wk =   0.0370370
        k(    9) = (   0.0000000   0.3333333   0.0000000), wk =   0.0370370
        k(   10) = (   0.0000000   0.3333333   0.1113593), wk =   0.0740741
        k(   11) = (   0.0000000   0.3333333   0.2227186), wk =   0.0740741
        k(   12) = (   0.0000000   0.3333333  -0.3340779), wk =   0.0370370
        k(   13) = (   0.0000000  -0.5000000   0.0000000), wk =   0.0185185
        k(   14) = (   0.0000000  -0.5000000   0.1113593), wk =   0.0370370
        k(   15) = (   0.0000000  -0.5000000   0.2227186), wk =   0.0370370
        k(   16) = (   0.0000000  -0.5000000  -0.3340779), wk =   0.0185185
        k(   17) = (   0.1666667   0.1666667   0.0000000), wk =   0.0370370
        k(   18) = (   0.1666667   0.1666667   0.1113593), wk =   0.0740741
        k(   19) = (   0.1666667   0.1666667   0.2227186), wk =   0.0740741
        k(   20) = (   0.1666667   0.1666667  -0.3340779), wk =   0.0370370
        k(   21) = (   0.1666667   0.3333333   0.0000000), wk =   0.0740741
        k(   22) = (   0.1666667   0.3333333   0.1113593), wk =   0.1481481
        k(   23) = (   0.1666667   0.3333333   0.2227186), wk =   0.1481481
        k(   24) = (   0.1666667   0.3333333  -0.3340779), wk =   0.0740741
        k(   25) = (   0.1666667  -0.5000000   0.0000000), wk =   0.0370370
        k(   26) = (   0.1666667  -0.5000000   0.1113593), wk =   0.0740741
        k(   27) = (   0.1666667  -0.5000000   0.2227186), wk =   0.0740741
        k(   28) = (   0.1666667  -0.5000000  -0.3340779), wk =   0.0370370
        k(   29) = (   0.3333333   0.3333333   0.0000000), wk =   0.0370370
        k(   30) = (   0.3333333   0.3333333   0.1113593), wk =   0.0740741
        k(   31) = (   0.3333333   0.3333333   0.2227186), wk =   0.0740741
        k(   32) = (   0.3333333   0.3333333  -0.3340779), wk =   0.0370370
        k(   33) = (   0.3333333  -0.5000000   0.0000000), wk =   0.0370370
        k(   34) = (   0.3333333  -0.5000000   0.1113593), wk =   0.0740741
        k(   35) = (   0.3333333  -0.5000000   0.2227186), wk =   0.0740741
        k(   36) = (   0.3333333  -0.5000000  -0.3340779), wk =   0.0370370
        k(   37) = (  -0.5000000  -0.5000000   0.0000000), wk =   0.0092593
        k(   38) = (  -0.5000000  -0.5000000   0.1113593), wk =   0.0185185
        k(   39) = (  -0.5000000  -0.5000000   0.2227186), wk =   0.0185185
        k(   40) = (  -0.5000000  -0.5000000  -0.3340779), wk =   0.0092593

     Initial potential from superposition of free atoms

     starting charge  183.99828, renormalised to  184.00000
     Starting wfcs are  116 randomized atomic wfcs

     Self-consistent Calculation

     iteration #  1     ecut=   120.00 Ry     beta= 0.70
     Davidson diagonalization with overlap
     ethr =  1.00E-02,  avg # of iterations =  4.2

     total energy              =   -3126.87572985 Ry
     Harris-Foulkes estimate   =   -3132.27113194 Ry
     estimated scf accuracy    <       6.83580070 Ry

[...]

     End of self-consistent calculation

          k = 0.0000 0.0000 0.0000 ( 31095 PWs)   bands (ev):

   -66.1529 -66.1525 -66.1513 -66.1509 -30.5582 -30.5582 -30.5548 -30.5548
   -30.4652 -30.4652 -30.4626 -30.4626 -30.4394 -30.4348 -30.3798 -30.3765
   -20.3056 -20.3055 -20.3055 -20.3054 -20.2973 -20.2973 -20.2973 -20.2973
   -20.2948 -20.2948 -20.2948 -20.2948 -20.2775 -20.2774 -20.2773 -20.2772
   -20.2752 -20.2750 -20.2706 -20.2706 -20.2694 -20.2694 -20.2693 -20.2692
   -20.2676 -20.2676 -20.2663 -20.2663 -10.0840  -9.8264  -9.1799  -9.1597
    -8.8693  -8.6532  -7.7633  -7.7633  -7.7441  -7.7441  -7.6115  -7.4739
     0.8426   0.8453   1.2530   1.3126   1.6412   1.7459   2.2423   2.3390
     2.5364   2.5364   3.9052   3.9052   4.9554   5.1831   5.1831   5.6132
     5.6132   5.8106   5.8106   5.9593   6.1611   6.1611   6.1848   6.8106
     6.8106   6.8266   7.0757   7.1471   7.1471   7.1959   7.1959   7.2824
     8.4090   8.4173   8.4328   8.4328   8.9579   8.9629   9.6737   9.6737
    12.3738  12.3738  13.5707  13.6301  13.6301  14.1395  14.1584  14.3443
    14.3443  14.5289  14.5371  14.6720  15.4257  16.6865

[...]

          k =-0.5000-0.5000 0.0000 ( 31144 PWs)   bands (ev):

[...]

     the Fermi energy is     8.6160 ev

!    total energy              =   -3130.49169574 Ry
     Harris-Foulkes estimate   =   -3130.49169575 Ry
     estimated scf accuracy    <          8.6E-09 Ry

     The total energy is the sum of the following terms:

     one-electron contribution =   -2382.78773017 Ry
     hartree contribution      =    1309.96494318 Ry
     xc contribution           =    -483.08541729 Ry
     ewald contribution        =   -1574.58349146 Ry
     smearing contrib. (-TS)   =      -0.00000000 Ry

     convergence has been achieved in  12 iterations

     Forces acting on atoms (cartesian axes, Ry/au):

     atom    1 type  1   force =     0.00000000    0.00000000   -0.06022121
     atom    2 type  1   force =     0.00000000    0.00000000    0.06022121
     atom    3 type  1   force =     0.00000000    0.00000000    0.06022121
     atom    4 type  1   force =     0.00000000    0.00000000   -0.06022121
     atom    5 type  2   force =     0.00000000    0.00000000    0.10483637
     atom    6 type  2   force =     0.00000000    0.00000000   -0.10483637
     atom    7 type  2   force =     0.00000000    0.00000000   -0.10483637
     atom    8 type  2   force =     0.00000000    0.00000000    0.10483637
     atom    9 type  2   force =    -0.00084278    0.00084278    0.00000000
     atom   10 type  2   force =     0.00084278   -0.00084278    0.00000000
     atom   11 type  2   force =     0.00084278   -0.00084278    0.00000000
     atom   12 type  2   force =    -0.00084278    0.00084278    0.00000000
     atom   13 type  2   force =    -0.00084278   -0.00084278    0.00000000
     atom   14 type  2   force =     0.00084278    0.00084278    0.00000000
     atom   15 type  2   force =     0.00084278    0.00084278    0.00000000
[...]
   0.00000000   0.00000000  -0.00047484          0.00      0.00    -69.85

     BFGS Geometry Optimization

     number of scf cycles    =   1
     number of bfgs steps    =   0

     enthalpy new            =   -3130.4916957421 Ry

     new trust radius        =       0.1232499807 bohr
     new conv_thr            =       0.0000000100 Ry

     new unit-cell volume =   1431.48539 a.u.^3 (   212.12425 Ang^3 )
     density =      7.25945 g/cm^3

CELL_PARAMETERS (angstrom)
   5.263175318   0.000000000   0.000000000
   0.000000000   5.263175318   0.000000000
   0.000000000   0.000000000   7.657634610

ATOMIC_POSITIONS (crystal)
W        0.250000000   0.250000000   0.208953591    0   0   0
W        0.750000023   0.750000023   0.791046424    0   0   0
W        0.750000023   0.750000023   0.291046424    0   0   0
W        0.250000000   0.250000000   0.708953576    0   0   0
O        0.250000000   0.250000000   0.474323419    0   0   0
O        0.750000023   0.750000023   0.525676581    0   0   0
O        0.750000023   0.750000023   0.025676594    0   0   0
O        0.250000000   0.250000000   0.974323419    0   0   0
O        0.496806134   0.503193820   0.250000000    0   0   0
O        0.503193867   0.496806179   0.750000000    0   0   0
O        0.003193849   0.996806180   0.250000000    0   0   0
O        0.996806087   0.003193884   0.750000000    0   0   0
O        0.996806180   0.496806134   0.250000000    0   0   0
O        0.003193884   0.503193867   0.750000000    0   0   0
O        0.503193820   0.003193849   0.250000000    0   0   0
O        0.496806179   0.996806087   0.750000000    0   0   0

     Writing output data file Landau_27.save/
     NEW-OLD atomic charge density approx. for the potential
     extrapolated charge  187.77048, renormalised to  184.00000

[...]

     enthalpy old            =   -3130.4916957421 Ry
     enthalpy new            =   -3130.5091037480 Ry

     CASE: enthalpy_new < enthalpy_old

[...]

     number of scf cycles    =   4
     number of bfgs steps    =   3

     enthalpy old            =   -3130.5095196135 Ry
     enthalpy new            =   -3130.5095505237 Ry

     CASE: enthalpy_new < enthalpy_old

     new trust radius        =       0.0002566381 bohr
     new conv_thr            =            1.0E-10 Ry

     new unit-cell volume =   1423.05434 a.u.^3 (   210.87489 Ang^3 )
     density =      7.30246 g/cm^3

[...]

ATOMIC_POSITIONS (crystal)
W        0.250000000   0.250000000   0.208953591    0   0   0
W        0.750000023   0.750000023   0.791046424    0   0   0
W        0.750000023   0.750000023   0.291046424    0   0   0
W        0.250000000   0.250000000   0.708953576    0   0   0
O        0.250000000   0.250000000   0.474323419    0   0   0
O        0.750000023   0.750000023   0.525676581    0   0   0
O        0.750000023   0.750000023   0.025676594    0   0   0
O        0.250000000   0.250000000   0.974323419    0   0   0
O        0.496806134   0.503193820   0.250000000    0   0   0
O        0.503193867   0.496806179   0.750000000    0   0   0
O        0.003193849   0.996806180   0.250000000    0   0   0
O        0.996806087   0.003193884   0.750000000    0   0   0
O        0.996806180   0.496806134   0.250000000    0   0   0
O        0.003193884   0.503193867   0.750000000    0   0   0
O        0.503193820   0.003193849   0.250000000    0   0   0
O        0.496806179   0.996806087   0.750000000    0   0   0

     Writing output data file Landau_27.save/
     NEW-OLD atomic charge density approx. for the potential
     extrapolated charge  183.99885, renormalised to  184.00000

[...]

     Threshold (ethr) on eigenvalues was too large:
     Diagonalizing with lowered threshold

     Davidson diagonalization with overlap
     ethr =  7.97E-11,  avg # of iterations =  3.0

[...]

     bfgs converged in   5 scf cycles and   4 bfgs steps
     (criteria: energy <  1.0E-07 Ry, force <  1.0E-07Ry/Bohr, cell <  5.0E-01kbar)

     End of BFGS Geometry Optimization

     Final enthalpy =   -3130.5095505666 Ry
Begin final coordinates
     new unit-cell volume =   1423.05434 a.u.^3 (   210.87489 Ang^3 )
     density =      7.30246 g/cm^3

CELL_PARAMETERS (angstrom)
   5.253009479   0.000000000   0.000000000
   0.000000000   5.253009479   0.000000000
   0.000000000   0.000000000   7.642025963

ATOMIC_POSITIONS (crystal)
W        0.250000000   0.250000000   0.208953591    0   0   0
W        0.750000023   0.750000023   0.791046424    0   0   0
W        0.750000023   0.750000023   0.291046424    0   0   0
W        0.250000000   0.250000000   0.708953576    0   0   0
O        0.250000000   0.250000000   0.474323419    0   0   0
O        0.750000023   0.750000023   0.525676581    0   0   0
O        0.750000023   0.750000023   0.025676594    0   0   0
O        0.250000000   0.250000000   0.974323419    0   0   0
O        0.496806134   0.503193820   0.250000000    0   0   0
O        0.503193867   0.496806179   0.750000000    0   0   0
O        0.003193849   0.996806180   0.250000000    0   0   0
O        0.996806087   0.003193884   0.750000000    0   0   0
O        0.996806180   0.496806134   0.250000000    0   0   0
O        0.003193884   0.503193867   0.750000000    0   0   0
O        0.503193820   0.003193849   0.250000000    0   0   0
O        0.496806179   0.996806087   0.750000000    0   0   0
End final coordinates

     Writing output data file Landau_27.save/

     Final scf calculation at the relaxed structure.
     The G-vectors are recalculated for the final unit cell
     Results may differ from those at the preceding step.

     bravais-lattice index     =            0
     lattice parameter (alat)  =       9.7849  a.u.
     unit-cell volume          =    1423.0543 (a.u.)^3
     number of atoms/cell      =           16
     number of atomic types    =            2
     number of electrons       =       184.00
     number of Kohn-Sham states=          110
     kinetic-energy cutoff     =     120.0000  Ry
     charge density cutoff     =     480.0000  Ry
     convergence threshold     =      1.0E-10
     mixing beta               =       0.7000
     number of iterations used =            8  plain     mixing
     Exchange-correlation      = SLA PW NOGX NOGC ( 1  4  0  0 0 0)

     celldm(1)=   9.784926  celldm(2)=   0.000000  celldm(3)=   0.000000
     celldm(4)=   0.000000  celldm(5)=   0.000000  celldm(6)=   0.000000

     crystal axes: (cart. coord. in units of alat)
               a(1) = (   1.014494   0.000000   0.000000 )
               a(2) = (   0.000000   1.014494   0.000000 )
               a(3) = (   0.000000   0.000000   1.475876 )

     reciprocal axes: (cart. coord. in units 2 pi/alat)
               b(1) = (  0.985713  0.000000  0.000000 )
               b(2) = (  0.000000  0.985713  0.000000 )
               b(3) = (  0.000000  0.000000  0.677564 )

     PseudoPot. # 1 for W  read from file:
     /cluster/scratch/mnoe/QE/pps/W_ONCV_LDA-4.0.upf
     MD5 check sum: ba0307d5d4cd419d6f1d13dc49d7c13a
     Pseudo is Norm-conserving + core correction, Zval = 28.0
     Generated using ONCVPSP code by D. R. Hamann
     Using radial grid of 1380 points,  8 beta functions with:
                l(1) =   0
                l(2) =   0
                l(3) =   1
                l(4) =   1
                l(5) =   2
                l(6) =   2
                l(7) =   3
                l(8) =   3

     PseudoPot. # 2 for O  read from file:
     /cluster/scratch/mnoe/QE/pps/O_ONCV_LDA-3.0.upf
     MD5 check sum: b55cdb4f45ae2203d24ad12cf8d61a31
     Pseudo is Norm-conserving + core correction, Zval =  6.0
     Generated using ONCVPSP code by D. R. Hamann
     Using radial grid of  926 points,  5 beta functions with:
                l(1) =   0
                l(2) =   0
                l(3) =   1
                l(4) =   1
                l(5) =   2

     atomic species   valence    mass     pseudopotential
        W             28.00   183.84000     W ( 1.00)
        O              6.00    15.99940     O ( 1.00)

     16 Sym. Ops., with inversion, found (14 have fractional translation)

   Cartesian axes

     site n.     atom                  positions (alat units)
         1           W   tau(   1) = (   0.2536235   0.2536235   0.3083896  )
         2           W   tau(   2) = (   0.7608706   0.7608706   1.1674863  )
         3           W   tau(   3) = (   0.7608706   0.7608706   0.4295484  )
         4           W   tau(   4) = (   0.2536235   0.2536235   1.0463275  )
         5           O   tau(   5) = (   0.2536235   0.2536235   0.7000425  )
         6           O   tau(   6) = (   0.7608706   0.7608706   0.7758334  )
         7           O   tau(   7) = (   0.7608706   0.7608706   0.0378955  )
         8           O   tau(   8) = (   0.2536235   0.2536235   1.4379804  )
         9           O   tau(   9) = (   0.5040069   0.5104871   0.3689690  )
        10           O   tau(  10) = (   0.5104872   0.5040069   1.1069069  )
        11           O   tau(  11) = (   0.0032401   1.0112539   0.3689690  )
        12           O   tau(  12) = (   1.0112538   0.0032402   1.1069069  )
        13           O   tau(  13) = (   1.0112539   0.5040069   0.3689690  )
        14           O   tau(  14) = (   0.0032402   0.5104872   1.1069069  )
        15           O   tau(  15) = (   0.5104871   0.0032401   0.3689690  )
        16           O   tau(  16) = (   0.5040069   1.0112538   1.1069069  )

     number of k points=    40  gaussian smearing, width (Ry)=  0.0007
                       cart. coord. in units 2pi/alat
        k(    1) = (   0.0000000   0.0000000   0.0000000), wk =   0.0092593
        k(    2) = (   0.0000000   0.0000000   0.1129273), wk =   0.0185185
        k(    3) = (   0.0000000   0.0000000   0.2258546), wk =   0.0185185
        k(    4) = (   0.0000000   0.0000000  -0.3387819), wk =   0.0092593
        k(    5) = (   0.0000000   0.1642855   0.0000000), wk =   0.0370370
        k(    6) = (   0.0000000   0.1642855   0.1129273), wk =   0.0740741
        k(    7) = (   0.0000000   0.1642855   0.2258546), wk =   0.0740741
        k(    8) = (   0.0000000   0.1642855  -0.3387819), wk =   0.0370370
        k(    9) = (   0.0000000   0.3285710   0.0000000), wk =   0.0370370
        k(   10) = (   0.0000000   0.3285710   0.1129273), wk =   0.0740741
        k(   11) = (   0.0000000   0.3285710   0.2258546), wk =   0.0740741
        k(   12) = (   0.0000000   0.3285710  -0.3387819), wk =   0.0370370
        k(   13) = (   0.0000000  -0.4928565   0.0000000), wk =   0.0185185
        k(   14) = (   0.0000000  -0.4928565   0.1129273), wk =   0.0370370
        k(   15) = (   0.0000000  -0.4928565   0.2258546), wk =   0.0370370
        k(   16) = (   0.0000000  -0.4928565  -0.3387819), wk =   0.0185185
        k(   17) = (   0.1642855   0.1642855   0.0000000), wk =   0.0370370
        k(   18) = (   0.1642855   0.1642855   0.1129273), wk =   0.0740741
        k(   19) = (   0.1642855   0.1642855   0.2258546), wk =   0.0740741
        k(   20) = (   0.1642855   0.1642855  -0.3387819), wk =   0.0370370
        k(   21) = (   0.1642855   0.3285710   0.0000000), wk =   0.0740741
        k(   22) = (   0.1642855   0.3285710   0.1129273), wk =   0.1481481
        k(   23) = (   0.1642855   0.3285710   0.2258546), wk =   0.1481481
        k(   24) = (   0.1642855   0.3285710  -0.3387819), wk =   0.0740741
        k(   25) = (   0.1642855  -0.4928565   0.0000000), wk =   0.0370370
        k(   26) = (   0.1642855  -0.4928565   0.1129273), wk =   0.0740741
        k(   27) = (   0.1642855  -0.4928565   0.2258546), wk =   0.0740741
        k(   28) = (   0.1642855  -0.4928565  -0.3387819), wk =   0.0370370
        k(   29) = (   0.3285710   0.3285710   0.0000000), wk =   0.0370370
        k(   30) = (   0.3285710   0.3285710   0.1129273), wk =   0.0740741
        k(   31) = (   0.3285710   0.3285710   0.2258546), wk =   0.0740741
        k(   32) = (   0.3285710   0.3285710  -0.3387819), wk =   0.0370370
        k(   33) = (   0.3285710  -0.4928565   0.0000000), wk =   0.0370370
        k(   34) = (   0.3285710  -0.4928565   0.1129273), wk =   0.0740741
        k(   35) = (   0.3285710  -0.4928565   0.2258546), wk =   0.0740741
        k(   36) = (   0.3285710  -0.4928565  -0.3387819), wk =   0.0370370
        k(   37) = (  -0.4928565  -0.4928565   0.0000000), wk =   0.0092593
        k(   38) = (  -0.4928565  -0.4928565   0.1129273), wk =   0.0185185
        k(   39) = (  -0.4928565  -0.4928565   0.2258546), wk =   0.0185185
        k(   40) = (  -0.4928565  -0.4928565  -0.3387819), wk =   0.0092593

     Initial potential from superposition of free atoms

     starting charge  183.99828, renormalised to  184.00000
     Starting wfcs are  116 randomized atomic wfcs

     Self-consistent Calculation

[...]

     total energy              =   -3130.50975851 Ry
     Harris-Foulkes estimate   =   -3130.50975851 Ry
     estimated scf accuracy    <          2.0E-09 Ry

     iteration # 13     ecut=   120.00 Ry     beta= 0.70
     Davidson diagonalization with overlap
     ethr =  1.11E-12,  avg # of iterations =  3.0

     End of self-consistent calculation

[...]

          k = 0.3286-0.4929-0.3388 ( 31620 PWs)   bands (ev):

[...]

          k =-0.4929-0.4929-0.3388 ( 31640 PWs)   bands (ev):

   -66.4327 -66.4327 -66.4327 -66.4327 -30.7714 -30.7714 -30.7714 -30.7714
   -30.7346 -30.7346 -30.7346 -30.7346 -30.6848 -30.6848 -30.6848 -30.6848
   -20.6009 -20.6009 -20.6009 -20.6009 -20.5963 -20.5963 -20.5963 -20.5963
   -20.5907 -20.5907 -20.5907 -20.5907 -20.5733 -20.5733 -20.5733 -20.5733
   -20.5670 -20.5670 -20.5670 -20.5670 -20.5623 -20.5623 -20.5623 -20.5623
   -20.5596 -20.5596 -20.5596 -20.5596  -9.5623  -9.5623  -9.5623  -9.5623
    -8.6312  -8.6312  -8.6312  -8.6312  -7.9601  -7.9601  -7.9601  -7.9601
     1.0636   1.0636   1.0636   1.0636   2.9057   2.9057   2.9057   2.9057
     3.1594   3.1594   3.1594   3.1594   4.4888   4.4888   4.4888   4.4889
     5.1999   5.1999   5.1999   5.1999   5.8240   5.8240   5.8240   5.8240
     6.0964   6.0964   6.0964   6.0964   6.5604   6.5605   6.5605   6.5605
     7.3948   7.3948   7.3948   7.3948  11.0235  11.0235  11.0235  11.0235
    12.3168  12.3168  12.3168  12.3168  13.4479  13.4479  13.4479  13.4479
    14.8538  14.8538  14.8538  14.8538  17.8401  17.8401

     the Fermi energy is     8.6382 ev

!    total energy              =   -3130.50975851 Ry
     Harris-Foulkes estimate   =   -3130.50975851 Ry
     estimated scf accuracy    <          7.4E-11 Ry

     The total energy is the sum of the following terms:

     one-electron contribution =   -2394.50211033 Ry
     hartree contribution      =    1314.08893571 Ry
     xc contribution           =    -482.86292417 Ry
     ewald contribution        =   -1567.23365972 Ry
     smearing contrib. (-TS)   =      -0.00000000 Ry

     convergence has been achieved in  13 iterations

     Forces acting on atoms (cartesian axes, Ry/au):

     atom    1 type  1   force =     0.00000000    0.00000000   -0.01692833
     atom    2 type  1   force =     0.00000000    0.00000000    0.01692833
     atom    3 type  1   force =     0.00000000    0.00000000    0.01692833
     atom    4 type  1   force =     0.00000000    0.00000000   -0.01692833
     atom    5 type  2   force =     0.00000000    0.00000000    0.08476110
     atom    6 type  2   force =     0.00000000    0.00000000   -0.08476110
     atom    7 type  2   force =     0.00000000    0.00000000   -0.08476110
     atom    8 type  2   force =     0.00000000    0.00000000    0.08476110
     atom    9 type  2   force =    -0.00025298    0.00025298    0.00000000
     atom   10 type  2   force =     0.00025298   -0.00025298    0.00000000
     atom   11 type  2   force =     0.00025298   -0.00025298    0.00000000
     atom   12 type  2   force =    -0.00025298    0.00025298    0.00000000
     atom   13 type  2   force =    -0.00025298   -0.00025298    0.00000000
     atom   14 type  2   force =     0.00025298    0.00025298    0.00000000
     atom   15 type  2   force =     0.00025298    0.00025298    0.00000000
     atom   16 type  2   force =    -0.00025298   -0.00025298    0.00000000

     Total force =     0.000000     Total SCF correction =     0.000000

     Computing stress (Cartesian axis) and pressure

          total   stress  (Ry/bohr**3)                   (kbar)     P=    0.67
   0.00000690   0.00000000   0.00000000          1.01      0.00      0.00
   0.00000000   0.00000690   0.00000000          0.00      1.01      0.00
   0.00000000   0.00000000  -0.00000010          0.00      0.00     -0.01

     Writing output data file Landau_27.save/

     General routines

     Parallel routines

   This run was terminated on:  19:12: 2  19Nov2019

   JOB DONE.