     Program PWSCF v.6.4.1 starts on 21Nov2019 at 17:47:59

     K-points division:     npool     =      40
     Reading input from rscf.in

     Current dimensions of program PWSCF are:
     Max number of different atomic species (ntypx) = 10
     Max number of k-points (npk) =  40000
     Max angular momentum in pseudopotentials (lmaxx) =  3

     Subspace diagonalization in iterative solution of the eigenvalue problem:
     a serial algorithm will be used

     Message from routine setup:
     using ibrav=0 with symmetry is DISCOURAGED, use correct ibrav instead

     bravais-lattice index     =            0
     lattice parameter (alat)  =       9.7849  a.u.
     unit-cell volume          =    1402.1515 (a.u.)^3
     number of atoms/cell      =           16
     number of atomic types    =            2
     number of electrons       =       184.00
     number of Kohn-Sham states=          110
     kinetic-energy cutoff     =     120.0000  Ry
     charge density cutoff     =     480.0000  Ry
     convergence threshold     =      1.0E-08
     mixing beta               =       0.7000
     number of iterations used =            8  plain     mixing
     Exchange-correlation      = SLA PW NOGX NOGC ( 1  4  0  0 0 0)
     nstep                     =           50

     celldm(1)=   9.784926  celldm(2)=   0.000000  celldm(3)=   0.000000
     celldm(4)=   0.000000  celldm(5)=   0.000000  celldm(6)=   0.000000

     crystal axes: (cart. coord. in units of alat)
               a(1) = (   1.000000   0.000000   0.000000 )
               a(2) = (   0.000000   1.000000   0.000000 )
               a(3) = (   0.000000   0.000000   1.496657 )

     reciprocal axes: (cart. coord. in units 2 pi/alat)
               b(1) = (  1.000000  0.000000  0.000000 )
               b(2) = (  0.000000  1.000000  0.000000 )
               b(3) = (  0.000000  0.000000  0.668156 )

     PseudoPot. # 1 for W  read from file:
     /cluster/scratch/mnoe/QE/pps/W_ONCV_LDA-4.0.upf
     MD5 check sum: ba0307d5d4cd419d6f1d13dc49d7c13a
     Pseudo is Norm-conserving + core correction, Zval = 28.0
     Generated using ONCVPSP code by D. R. Hamann
     Using radial grid of 1380 points,  8 beta functions with:
                l(1) =   0
                l(2) =   0
                l(3) =   1
                l(4) =   1
                l(5) =   2
                l(6) =   2
                l(7) =   3
                l(8) =   3

     PseudoPot. # 2 for O  read from file:
     /cluster/scratch/mnoe/QE/pps/O_ONCV_LDA-3.0.upf
     MD5 check sum: b55cdb4f45ae2203d24ad12cf8d61a31
     Pseudo is Norm-conserving + core correction, Zval =  6.0
     Generated using ONCVPSP code by D. R. Hamann
     Using radial grid of  926 points,  5 beta functions with:
                l(1) =   0
                l(2) =   0
                l(3) =   1
                l(4) =   1
                l(5) =   2

     atomic species   valence    mass     pseudopotential
        W             28.00   183.84000     W ( 1.00)
        O              6.00    15.99940     O ( 1.00)

     16 Sym. Ops., with inversion, found (14 have fractional translation)

   Cartesian axes

     site n.     atom                  positions (alat units)
         1           W   tau(   1) = (   0.2500000   0.2500000   0.3127319  )
         2           W   tau(   2) = (   0.7500000   0.7500000   1.1839252  )
         3           W   tau(   3) = (   0.7500000   0.7500000   0.4355967  )
         4           W   tau(   4) = (   0.2500000   0.2500000   1.0610603  )
         5           O   tau(   5) = (   0.2500000   0.2500000   0.7098995  )
         6           O   tau(   6) = (   0.7500000   0.7500000   0.7867575  )
         7           O   tau(   7) = (   0.7500000   0.7500000   0.0384291  )
         8           O   tau(   8) = (   0.2500000   0.2500000   1.4582280  )
         9           O   tau(   9) = (   0.4968061   0.5031938   0.3741643  )
        10           O   tau(  10) = (   0.5031939   0.4968062   1.1224928  )
        11           O   tau(  11) = (   0.0031938   0.9968062   0.3741643  )
        12           O   tau(  12) = (   0.9968061   0.0031939   1.1224928  )
        13           O   tau(  13) = (   0.9968062   0.4968061   0.3741643  )
        14           O   tau(  14) = (   0.0031939   0.5031939   1.1224928  )
        15           O   tau(  15) = (   0.5031938   0.0031938   0.3741643  )
        16           O   tau(  16) = (   0.4968062   0.9968061   1.1224928  )

     number of k points=    60  gaussian smearing, width (Ry)=  0.0007
                       cart. coord. in units 2pi/alat
        k(    1) = (   0.0000000   0.0000000   0.0000000), wk =   0.0041152
        k(    2) = (   0.0000000   0.0000000   0.1113593), wk =   0.0082305
        k(    3) = (   0.0000000   0.0000000   0.2227186), wk =   0.0082305
        k(    4) = (   0.0000000   0.0000000  -0.3340779), wk =   0.0041152
        k(    5) = (   0.0000000   0.1111111   0.0000000), wk =   0.0164609
        k(    6) = (   0.0000000   0.1111111   0.1113593), wk =   0.0329218
        k(    7) = (   0.0000000   0.1111111   0.2227186), wk =   0.0329218
        k(    8) = (   0.0000000   0.1111111  -0.3340779), wk =   0.0164609
        k(    9) = (   0.0000000   0.2222222   0.0000000), wk =   0.0164609
        k(   10) = (   0.0000000   0.2222222   0.1113593), wk =   0.0329218
        k(   11) = (   0.0000000   0.2222222   0.2227186), wk =   0.0329218
        k(   12) = (   0.0000000   0.2222222  -0.3340779), wk =   0.0164609
        k(   13) = (   0.0000000   0.3333333   0.0000000), wk =   0.0164609
        k(   14) = (   0.0000000   0.3333333   0.1113593), wk =   0.0329218
        k(   15) = (   0.0000000   0.3333333   0.2227186), wk =   0.0329218
        k(   16) = (   0.0000000   0.3333333  -0.3340779), wk =   0.0164609
        k(   17) = (   0.0000000   0.4444444   0.0000000), wk =   0.0164609
        k(   18) = (   0.0000000   0.4444444   0.1113593), wk =   0.0329218
        k(   19) = (   0.0000000   0.4444444   0.2227186), wk =   0.0329218
        k(   20) = (   0.0000000   0.4444444  -0.3340779), wk =   0.0164609
        k(   21) = (   0.1111111   0.1111111   0.0000000), wk =   0.0164609
        k(   22) = (   0.1111111   0.1111111   0.1113593), wk =   0.0329218
        k(   23) = (   0.1111111   0.1111111   0.2227186), wk =   0.0329218
        k(   24) = (   0.1111111   0.1111111  -0.3340779), wk =   0.0164609
        k(   25) = (   0.1111111   0.2222222   0.0000000), wk =   0.0329218
        k(   26) = (   0.1111111   0.2222222   0.1113593), wk =   0.0658436
        k(   27) = (   0.1111111   0.2222222   0.2227186), wk =   0.0658436
        k(   28) = (   0.1111111   0.2222222  -0.3340779), wk =   0.0329218
        k(   29) = (   0.1111111   0.3333333   0.0000000), wk =   0.0329218
        k(   30) = (   0.1111111   0.3333333   0.1113593), wk =   0.0658436
        k(   31) = (   0.1111111   0.3333333   0.2227186), wk =   0.0658436
        k(   32) = (   0.1111111   0.3333333  -0.3340779), wk =   0.0329218
        k(   33) = (   0.1111111   0.4444444   0.0000000), wk =   0.0329218
        k(   34) = (   0.1111111   0.4444444   0.1113593), wk =   0.0658436
        k(   35) = (   0.1111111   0.4444444   0.2227186), wk =   0.0658436
        k(   36) = (   0.1111111   0.4444444  -0.3340779), wk =   0.0329218
        k(   37) = (   0.2222222   0.2222222   0.0000000), wk =   0.0164609
        k(   38) = (   0.2222222   0.2222222   0.1113593), wk =   0.0329218
        k(   39) = (   0.2222222   0.2222222   0.2227186), wk =   0.0329218
        k(   40) = (   0.2222222   0.2222222  -0.3340779), wk =   0.0164609
        k(   41) = (   0.2222222   0.3333333   0.0000000), wk =   0.0329218
        k(   42) = (   0.2222222   0.3333333   0.1113593), wk =   0.0658436
        k(   43) = (   0.2222222   0.3333333   0.2227186), wk =   0.0658436
        k(   44) = (   0.2222222   0.3333333  -0.3340779), wk =   0.0329218
        k(   45) = (   0.2222222   0.4444444   0.0000000), wk =   0.0329218
        k(   46) = (   0.2222222   0.4444444   0.1113593), wk =   0.0658436
        k(   47) = (   0.2222222   0.4444444   0.2227186), wk =   0.0658436
        k(   48) = (   0.2222222   0.4444444  -0.3340779), wk =   0.0329218
        k(   49) = (   0.3333333   0.3333333   0.0000000), wk =   0.0164609
        k(   50) = (   0.3333333   0.3333333   0.1113593), wk =   0.0329218
        k(   51) = (   0.3333333   0.3333333   0.2227186), wk =   0.0329218
        k(   52) = (   0.3333333   0.3333333  -0.3340779), wk =   0.0164609
        k(   53) = (   0.3333333   0.4444444   0.0000000), wk =   0.0329218
        k(   54) = (   0.3333333   0.4444444   0.1113593), wk =   0.0658436
        k(   55) = (   0.3333333   0.4444444   0.2227186), wk =   0.0658436
        k(   56) = (   0.3333333   0.4444444  -0.3340779), wk =   0.0329218
        k(   57) = (   0.4444444   0.4444444   0.0000000), wk =   0.0164609
        k(   58) = (   0.4444444   0.4444444   0.1113593), wk =   0.0329218
        k(   59) = (   0.4444444   0.4444444   0.2227186), wk =   0.0329218
        k(   60) = (   0.4444444   0.4444444  -0.3340779), wk =   0.0164609

     Initial potential from superposition of free atoms

     starting charge  183.99828, renormalised to  184.00000
     Starting wfcs are  116 randomized atomic wfcs

     Self-consistent Calculation

     iteration #  1     ecut=   120.00 Ry     beta= 0.70
     Davidson diagonalization with overlap
     ethr =  1.00E-02,  avg # of iterations =  4.4

     total energy              =   -3126.87642651 Ry
     Harris-Foulkes estimate   =   -3132.27134409 Ry
     estimated scf accuracy    <       6.83516596 Ry

[...]

     End of self-consistent calculation

          k = 0.0000 0.0000 0.0000 ( 31095 PWs)   bands (ev):

   -66.1520 -66.1516 -66.1504 -66.1500 -30.5573 -30.5573 -30.5539 -30.5539
   -30.4643 -30.4643 -30.4617 -30.4617 -30.4388 -30.4342 -30.3792 -30.3759
   -20.3046 -20.3045 -20.3045 -20.3044 -20.2962 -20.2962 -20.2961 -20.2961
   -20.2937 -20.2937 -20.2936 -20.2936 -20.2766 -20.2765 -20.2764 -20.2763
   -20.2743 -20.2741 -20.2698 -20.2698 -20.2685 -20.2685 -20.2685 -20.2683
   -20.2667 -20.2667 -20.2655 -20.2655 -10.0843  -9.8269  -9.1803  -9.1602
    -8.8692  -8.6532  -7.7638  -7.7638  -7.7446  -7.7446  -7.6114  -7.4738
     0.8426   0.8452   1.2530   1.3124   1.6413   1.7462   2.2420   2.3388
     2.5364   2.5364   3.9050   3.9050   4.9553   5.1834   5.1834   5.6129
     5.6129   5.8103   5.8103   5.9590   6.1612   6.1612   6.1850   6.8106
     6.8106   6.8261   7.0752   7.1465   7.1465   7.1953   7.1953   7.2823
     8.4082   8.4166   8.4327   8.4327   8.9586   8.9635   9.6741   9.6741
    12.3742  12.3742  13.5711  13.6303  13.6303  14.1399  14.1587  14.3446
    14.3446  14.5294  14.5376  14.6720  15.4261  16.6868

[...]

     the Fermi energy is     8.7654 ev

!    total energy              =   -3130.49181243 Ry
     Harris-Foulkes estimate   =   -3130.49181243 Ry
     estimated scf accuracy    <          7.0E-09 Ry

     The total energy is the sum of the following terms:

     one-electron contribution =   -2382.79223273 Ry
     hartree contribution      =    1309.96915391 Ry
[...]
O        0.003193884   0.503193867   0.750000000    0   0   0
O        0.503193820   0.003193849   0.250000000    0   0   0
O        0.496806179   0.996806087   0.750000000    0   0   0

     Writing output data file Landau_27.save/
     NEW-OLD atomic charge density approx. for the potential
     extrapolated charge  187.76819, renormalised to  184.00000

[...]

     enthalpy old            =   -3130.4918124260 Ry
     enthalpy new            =   -3130.5092222669 Ry

     CASE: enthalpy_new < enthalpy_old

[...]

     number of scf cycles    =   4
     number of bfgs steps    =   3

     enthalpy old            =   -3130.5096378293 Ry
     enthalpy new            =   -3130.5096671970 Ry

     CASE: enthalpy_new < enthalpy_old

     new trust radius        =       0.0002637909 bohr
     new conv_thr            =            1.0E-10 Ry

     new unit-cell volume =   1423.05596 a.u.^3 (   210.87513 Ang^3 )
     density =      7.30245 g/cm^3

[...]

ATOMIC_POSITIONS (crystal)
W        0.250000000   0.250000000   0.208953591    0   0   0
W        0.750000023   0.750000023   0.791046424    0   0   0
W        0.750000023   0.750000023   0.291046424    0   0   0
W        0.250000000   0.250000000   0.708953576    0   0   0
O        0.250000000   0.250000000   0.474323419    0   0   0
O        0.750000023   0.750000023   0.525676581    0   0   0
O        0.750000023   0.750000023   0.025676594    0   0   0
O        0.250000000   0.250000000   0.974323419    0   0   0
O        0.496806134   0.503193820   0.250000000    0   0   0
O        0.503193867   0.496806179   0.750000000    0   0   0
O        0.003193849   0.996806180   0.250000000    0   0   0
O        0.996806087   0.003193884   0.750000000    0   0   0
O        0.996806180   0.496806134   0.250000000    0   0   0
O        0.003193884   0.503193867   0.750000000    0   0   0
O        0.503193820   0.003193849   0.250000000    0   0   0
O        0.496806179   0.996806087   0.750000000    0   0   0

     Writing output data file Landau_27.save/
     NEW-OLD atomic charge density approx. for the potential
     extrapolated charge  183.99791, renormalised to  184.00000

[...]

     Threshold (ethr) on eigenvalues was too large:
     Diagonalizing with lowered threshold

     Davidson diagonalization with overlap
     ethr =  2.37E-10,  avg # of iterations =  3.0

[...]

     bfgs converged in   5 scf cycles and   4 bfgs steps
     (criteria: energy <  1.0E-07 Ry, force <  1.0E-07Ry/Bohr, cell <  5.0E-01kbar)

     End of BFGS Geometry Optimization

     Final enthalpy =   -3130.5096672398 Ry
Begin final coordinates
     new unit-cell volume =   1423.05596 a.u.^3 (   210.87513 Ang^3 )
     density =      7.30245 g/cm^3

CELL_PARAMETERS (angstrom)
   5.253012294   0.000000000   0.000000000
   0.000000000   5.253012294   0.000000000
   0.000000000   0.000000000   7.642026476

ATOMIC_POSITIONS (crystal)
W        0.250000000   0.250000000   0.208953591    0   0   0
W        0.750000023   0.750000023   0.791046424    0   0   0
W        0.750000023   0.750000023   0.291046424    0   0   0
W        0.250000000   0.250000000   0.708953576    0   0   0
O        0.250000000   0.250000000   0.474323419    0   0   0
O        0.750000023   0.750000023   0.525676581    0   0   0
O        0.750000023   0.750000023   0.025676594    0   0   0
O        0.250000000   0.250000000   0.974323419    0   0   0
O        0.496806134   0.503193820   0.250000000    0   0   0
O        0.503193867   0.496806179   0.750000000    0   0   0
O        0.003193849   0.996806180   0.250000000    0   0   0
O        0.996806087   0.003193884   0.750000000    0   0   0
O        0.996806180   0.496806134   0.250000000    0   0   0
O        0.003193884   0.503193867   0.750000000    0   0   0
O        0.503193820   0.003193849   0.250000000    0   0   0
O        0.496806179   0.996806087   0.750000000    0   0   0
End final coordinates

     Writing output data file Landau_27.save/

     Final scf calculation at the relaxed structure.
     The G-vectors are recalculated for the final unit cell
     Results may differ from those at the preceding step.

     bravais-lattice index     =            0
     lattice parameter (alat)  =       9.7849  a.u.
     unit-cell volume          =    1423.0560 (a.u.)^3
     number of atoms/cell      =           16
     number of atomic types    =            2
     number of electrons       =       184.00
     number of Kohn-Sham states=          110
     kinetic-energy cutoff     =     120.0000  Ry
     charge density cutoff     =     480.0000  Ry
     convergence threshold     =      1.0E-10
     mixing beta               =       0.7000
     number of iterations used =            8  plain     mixing
     Exchange-correlation      = SLA PW NOGX NOGC ( 1  4  0  0 0 0)

     celldm(1)=   9.784926  celldm(2)=   0.000000  celldm(3)=   0.000000
     celldm(4)=   0.000000  celldm(5)=   0.000000  celldm(6)=   0.000000

     crystal axes: (cart. coord. in units of alat)
               a(1) = (   1.014495   0.000000   0.000000 )
               a(2) = (   0.000000   1.014495   0.000000 )
               a(3) = (   0.000000   0.000000   1.475876 )

     reciprocal axes: (cart. coord. in units 2 pi/alat)
               b(1) = (  0.985713  0.000000  0.000000 )
               b(2) = (  0.000000  0.985713  0.000000 )
               b(3) = (  0.000000  0.000000  0.677564 )

     PseudoPot. # 1 for W  read from file:
     /cluster/scratch/mnoe/QE/pps/W_ONCV_LDA-4.0.upf
     MD5 check sum: ba0307d5d4cd419d6f1d13dc49d7c13a
     Pseudo is Norm-conserving + core correction, Zval = 28.0
     Generated using ONCVPSP code by D. R. Hamann
     Using radial grid of 1380 points,  8 beta functions with:
                l(1) =   0
                l(2) =   0
                l(3) =   1
                l(4) =   1
                l(5) =   2
                l(6) =   2
                l(7) =   3
                l(8) =   3

     PseudoPot. # 2 for O  read from file:
     /cluster/scratch/mnoe/QE/pps/O_ONCV_LDA-3.0.upf
     MD5 check sum: b55cdb4f45ae2203d24ad12cf8d61a31
     Pseudo is Norm-conserving + core correction, Zval =  6.0
     Generated using ONCVPSP code by D. R. Hamann
     Using radial grid of  926 points,  5 beta functions with:
                l(1) =   0
                l(2) =   0
                l(3) =   1
                l(4) =   1
                l(5) =   2

     atomic species   valence    mass     pseudopotential
        W             28.00   183.84000     W ( 1.00)
        O              6.00    15.99940     O ( 1.00)

     16 Sym. Ops., with inversion, found (14 have fractional translation)

   Cartesian axes

     site n.     atom                  positions (alat units)
         1           W   tau(   1) = (   0.2536236   0.2536236   0.3083896  )
         2           W   tau(   2) = (   0.7608710   0.7608710   1.1674864  )
         3           W   tau(   3) = (   0.7608710   0.7608710   0.4295484  )
         4           W   tau(   4) = (   0.2536236   0.2536236   1.0463275  )
         5           O   tau(   5) = (   0.2536236   0.2536236   0.7000425  )
         6           O   tau(   6) = (   0.7608710   0.7608710   0.7758334  )
         7           O   tau(   7) = (   0.7608710   0.7608710   0.0378955  )
         8           O   tau(   8) = (   0.2536236   0.2536236   1.4379805  )
         9           O   tau(   9) = (   0.5040071   0.5104874   0.3689690  )
        10           O   tau(  10) = (   0.5104875   0.5040072   1.1069070  )
        11           O   tau(  11) = (   0.0032401   1.0112545   0.3689690  )
        12           O   tau(  12) = (   1.0112544   0.0032402   1.1069070  )
        13           O   tau(  13) = (   1.0112545   0.5040071   0.3689690  )
        14           O   tau(  14) = (   0.0032402   0.5104875   1.1069070  )
        15           O   tau(  15) = (   0.5104874   0.0032401   0.3689690  )
        16           O   tau(  16) = (   0.5040072   1.0112544   1.1069070  )

     number of k points=    60  gaussian smearing, width (Ry)=  0.0007
                       cart. coord. in units 2pi/alat
        k(    1) = (   0.0000000   0.0000000   0.0000000), wk =   0.0041152
        k(    2) = (   0.0000000   0.0000000   0.1129273), wk =   0.0082305
        k(    3) = (   0.0000000   0.0000000   0.2258546), wk =   0.0082305
        k(    4) = (   0.0000000   0.0000000  -0.3387819), wk =   0.0041152
        k(    5) = (   0.0000000   0.1095236   0.0000000), wk =   0.0164609
        k(    6) = (   0.0000000   0.1095236   0.1129273), wk =   0.0329218
        k(    7) = (   0.0000000   0.1095236   0.2258546), wk =   0.0329218
        k(    8) = (   0.0000000   0.1095236  -0.3387819), wk =   0.0164609
        k(    9) = (   0.0000000   0.2190472   0.0000000), wk =   0.0164609
        k(   10) = (   0.0000000   0.2190472   0.1129273), wk =   0.0329218
        k(   11) = (   0.0000000   0.2190472   0.2258546), wk =   0.0329218
        k(   12) = (   0.0000000   0.2190472  -0.3387819), wk =   0.0164609
        k(   13) = (   0.0000000   0.3285708   0.0000000), wk =   0.0164609
        k(   14) = (   0.0000000   0.3285708   0.1129273), wk =   0.0329218
        k(   15) = (   0.0000000   0.3285708   0.2258546), wk =   0.0329218
        k(   16) = (   0.0000000   0.3285708  -0.3387819), wk =   0.0164609
        k(   17) = (   0.0000000   0.4380944   0.0000000), wk =   0.0164609
        k(   18) = (   0.0000000   0.4380944   0.1129273), wk =   0.0329218
        k(   19) = (   0.0000000   0.4380944   0.2258546), wk =   0.0329218
        k(   20) = (   0.0000000   0.4380944  -0.3387819), wk =   0.0164609
        k(   21) = (   0.1095236   0.1095236   0.0000000), wk =   0.0164609
        k(   22) = (   0.1095236   0.1095236   0.1129273), wk =   0.0329218
        k(   23) = (   0.1095236   0.1095236   0.2258546), wk =   0.0329218
        k(   24) = (   0.1095236   0.1095236  -0.3387819), wk =   0.0164609
        k(   25) = (   0.1095236   0.2190472   0.0000000), wk =   0.0329218
        k(   26) = (   0.1095236   0.2190472   0.1129273), wk =   0.0658436
        k(   27) = (   0.1095236   0.2190472   0.2258546), wk =   0.0658436
        k(   28) = (   0.1095236   0.2190472  -0.3387819), wk =   0.0329218
        k(   29) = (   0.1095236   0.3285708   0.0000000), wk =   0.0329218
        k(   30) = (   0.1095236   0.3285708   0.1129273), wk =   0.0658436
        k(   31) = (   0.1095236   0.3285708   0.2258546), wk =   0.0658436
        k(   32) = (   0.1095236   0.3285708  -0.3387819), wk =   0.0329218
        k(   33) = (   0.1095236   0.4380944   0.0000000), wk =   0.0329218
        k(   34) = (   0.1095236   0.4380944   0.1129273), wk =   0.0658436
        k(   35) = (   0.1095236   0.4380944   0.2258546), wk =   0.0658436
        k(   36) = (   0.1095236   0.4380944  -0.3387819), wk =   0.0329218
        k(   37) = (   0.2190472   0.2190472   0.0000000), wk =   0.0164609
        k(   38) = (   0.2190472   0.2190472   0.1129273), wk =   0.0329218
        k(   39) = (   0.2190472   0.2190472   0.2258546), wk =   0.0329218
        k(   40) = (   0.2190472   0.2190472  -0.3387819), wk =   0.0164609
        k(   41) = (   0.2190472   0.3285708   0.0000000), wk =   0.0329218
        k(   42) = (   0.2190472   0.3285708   0.1129273), wk =   0.0658436
        k(   43) = (   0.2190472   0.3285708   0.2258546), wk =   0.0658436
        k(   44) = (   0.2190472   0.3285708  -0.3387819), wk =   0.0329218
        k(   45) = (   0.2190472   0.4380944   0.0000000), wk =   0.0329218
        k(   46) = (   0.2190472   0.4380944   0.1129273), wk =   0.0658436
        k(   47) = (   0.2190472   0.4380944   0.2258546), wk =   0.0658436
        k(   48) = (   0.2190472   0.4380944  -0.3387819), wk =   0.0329218
        k(   49) = (   0.3285708   0.3285708   0.0000000), wk =   0.0164609
        k(   50) = (   0.3285708   0.3285708   0.1129273), wk =   0.0329218
        k(   51) = (   0.3285708   0.3285708   0.2258546), wk =   0.0329218
        k(   52) = (   0.3285708   0.3285708  -0.3387819), wk =   0.0164609
        k(   53) = (   0.3285708   0.4380944   0.0000000), wk =   0.0329218
        k(   54) = (   0.3285708   0.4380944   0.1129273), wk =   0.0658436
        k(   55) = (   0.3285708   0.4380944   0.2258546), wk =   0.0658436
        k(   56) = (   0.3285708   0.4380944  -0.3387819), wk =   0.0329218
        k(   57) = (   0.4380944   0.4380944   0.0000000), wk =   0.0164609
        k(   58) = (   0.4380944   0.4380944   0.1129273), wk =   0.0329218
        k(   59) = (   0.4380944   0.4380944   0.2258546), wk =   0.0329218
        k(   60) = (   0.4380944   0.4380944  -0.3387819), wk =   0.0164609

     Initial potential from superposition of free atoms

     starting charge  183.99828, renormalised to  184.00000
     Starting wfcs are  116 randomized atomic wfcs

     Self-consistent Calculation

[...]

     total energy              =   -3130.50987553 Ry
     Harris-Foulkes estimate   =   -3130.50987553 Ry
     estimated scf accuracy    <          1.2E-10 Ry

     iteration # 14     ecut=   120.00 Ry     beta= 0.70
     Davidson diagonalization with overlap
     ethr =  1.00E-13,  avg # of iterations =  2.0

     End of self-consistent calculation

[...]

          k = 0.4381 0.4381-0.3388 ( 31596 PWs)   bands (ev):

   -66.4319 -66.4319 -66.4318 -66.4318 -30.7704 -30.7704 -30.7683 -30.7683
   -30.7342 -30.7342 -30.7337 -30.7337 -30.6863 -30.6862 -30.6840 -30.6840
   -20.5999 -20.5999 -20.5999 -20.5999 -20.5951 -20.5951 -20.5951 -20.5951
   -20.5897 -20.5897 -20.5896 -20.5896 -20.5725 -20.5725 -20.5724 -20.5724
   -20.5662 -20.5662 -20.5662 -20.5662 -20.5615 -20.5615 -20.5614 -20.5614
   -20.5588 -20.5588 -20.5588 -20.5588  -9.5676  -9.5676  -9.5271  -9.5271
    -8.6337  -8.6337  -8.6283  -8.6283  -8.0121  -8.0121  -7.9590  -7.9590
     1.0638   1.0638   1.1772   1.1772   2.9046   2.9046   2.9117   2.9118
     3.1590   3.1590   3.1824   3.1824   4.3359   4.3359   4.5217   4.5217
     5.0829   5.0829   5.2178   5.2178   5.6671   5.6671   5.8314   5.8314
     6.1032   6.1032   6.2369   6.2369   6.5581   6.5581   6.6594   6.6595
     7.3895   7.3895   7.3976   7.3976  11.0221  11.0222  11.0797  11.0797
    12.2266  12.2266  12.3397  12.3397  13.3516  13.3516  13.4494  13.4494
    14.8484  14.8484  15.0436  15.0436  17.6753  17.6753

     the Fermi energy is     8.5228 ev

!    total energy              =   -3130.50987553 Ry
     Harris-Foulkes estimate   =   -3130.50987553 Ry
     estimated scf accuracy    <          1.3E-12 Ry

     The total energy is the sum of the following terms:

     one-electron contribution =   -2394.50819972 Ry
     hartree contribution      =    1314.09414829 Ry
     xc contribution           =    -482.86276425 Ry
     ewald contribution        =   -1567.23305985 Ry
     smearing contrib. (-TS)   =      -0.00000000 Ry

     convergence has been achieved in  14 iterations

     Forces acting on atoms (cartesian axes, Ry/au):

     atom    1 type  1   force =     0.00000000    0.00000000   -0.01695792
     atom    2 type  1   force =     0.00000000    0.00000000    0.01695792
     atom    3 type  1   force =     0.00000000    0.00000000    0.01695792
     atom    4 type  1   force =     0.00000000    0.00000000   -0.01695792
     atom    5 type  2   force =     0.00000000    0.00000000    0.08475531
     atom    6 type  2   force =     0.00000000    0.00000000   -0.08475531
     atom    7 type  2   force =     0.00000000    0.00000000   -0.08475531
     atom    8 type  2   force =     0.00000000    0.00000000    0.08475531
     atom    9 type  2   force =    -0.00025257    0.00025257    0.00000000
     atom   10 type  2   force =     0.00025257   -0.00025257    0.00000000
     atom   11 type  2   force =     0.00025257   -0.00025257    0.00000000
     atom   12 type  2   force =    -0.00025257    0.00025257    0.00000000
     atom   13 type  2   force =    -0.00025257   -0.00025257    0.00000000
     atom   14 type  2   force =     0.00025257    0.00025257    0.00000000
     atom   15 type  2   force =     0.00025257    0.00025257    0.00000000
     atom   16 type  2   force =    -0.00025257   -0.00025257    0.00000000

     Total force =     0.000000     Total SCF correction =     0.000000

     Computing stress (Cartesian axis) and pressure

          total   stress  (Ry/bohr**3)                   (kbar)     P=    0.69
   0.00000700   0.00000000   0.00000000          1.03      0.00      0.00
   0.00000000   0.00000700   0.00000000          0.00      1.03      0.00
   0.00000000   0.00000000  -0.00000002          0.00      0.00     -0.00

     Writing output data file Landau_27.save/

     General routines

     Parallel routines

   This run was terminated on:  18:36:36  21Nov2019

   JOB DONE.