     Program PWSCF v.6.4.1 starts on 21Nov2019 at  0:34:13

     K-points division:     npool     =      64
     Reading input from rscf.in

     Current dimensions of program PWSCF are:
     Max number of different atomic species (ntypx) = 10
     Max number of k-points (npk) =  40000
     Max angular momentum in pseudopotentials (lmaxx) =  3

     Subspace diagonalization in iterative solution of the eigenvalue problem:
     a serial algorithm will be used

     Message from routine setup:
     using ibrav=0 with symmetry is DISCOURAGED, use correct ibrav instead

     bravais-lattice index     =            0
     lattice parameter (alat)  =      13.8397  a.u.
     unit-cell volume          =    2804.9816 (a.u.)^3
     number of atoms/cell      =           32
     number of atomic types    =            2
     number of electrons       =       368.00
     number of Kohn-Sham states=          221
     kinetic-energy cutoff     =     120.0000  Ry
     charge density cutoff     =     480.0000  Ry
     convergence threshold     =      1.0E-08
     mixing beta               =       0.7000
     number of iterations used =            8  plain     mixing
     Exchange-correlation      = SLA PW NOGX NOGC ( 1  4  0  0 0 0)
     nstep                     =           50

     celldm(1)=  13.839685  celldm(2)=   0.000000  celldm(3)=   0.000000
     celldm(4)=   0.000000  celldm(5)=   0.000000  celldm(6)=   0.000000

     crystal axes: (cart. coord. in units of alat)
               a(1) = (   1.000000   0.000000   0.000000 )
               a(2) = (   0.000000   1.058160   0.000000 )
               a(3) = (   0.000000   0.000000   1.000000 )

     reciprocal axes: (cart. coord. in units 2 pi/alat)
               b(1) = (  1.000000  0.000000  0.000000 )
               b(2) = (  0.000000  0.945037  0.000000 )
               b(3) = (  0.000000  0.000000  1.000000 )

     PseudoPot. # 1 for W  read from file:
     /cluster/scratch/mnoe/QE/pps/W_ONCV_LDA-4.0.upf
     MD5 check sum: ba0307d5d4cd419d6f1d13dc49d7c13a
     Pseudo is Norm-conserving + core correction, Zval = 28.0
     Generated using ONCVPSP code by D. R. Hamann
     Using radial grid of 1380 points,  8 beta functions with:
                l(1) =   0
                l(2) =   0
                l(3) =   1
                l(4) =   1
                l(5) =   2
                l(6) =   2
                l(7) =   3
                l(8) =   3

     PseudoPot. # 2 for O  read from file:
     /cluster/scratch/mnoe/QE/pps/O_ONCV_LDA-3.0.upf
     MD5 check sum: b55cdb4f45ae2203d24ad12cf8d61a31
     Pseudo is Norm-conserving + core correction, Zval =  6.0
     Generated using ONCVPSP code by D. R. Hamann
     Using radial grid of  926 points,  5 beta functions with:
                l(1) =   0
                l(2) =   0
                l(3) =   1
                l(4) =   1
                l(5) =   2

     atomic species   valence    mass     pseudopotential
        W             28.00   183.84000     W ( 1.00)
        O              6.00    15.99940     O ( 1.00)

      8 Sym. Ops., with inversion, found ( 6 have fractional translation)

   Cartesian axes

     site n.     atom                  positions (alat units)
         1           W   tau(   1) = (   0.2333500   0.3111896   0.0157200  )
         2           W   tau(   2) = (   0.7666500   0.7469704   0.9842800  )
         3           W   tau(   3) = (   0.2666500   0.2178904   0.5157200  )
         4           W   tau(   4) = (   0.7333500   0.8402696   0.4842800  )
         5           W   tau(   5) = (   0.7666500   0.3111896   0.4842800  )
         6           W   tau(   6) = (   0.2333500   0.7469704   0.5157200  )
         7           W   tau(   7) = (   0.7333500   0.2178904   0.9842800  )
         8           W   tau(   8) = (   0.2666500   0.8402696   0.0157200  )
         9           O   tau(   9) = (   0.2192900   0.0332829   0.0048900  )
        10           O   tau(  10) = (   0.7807100   1.0248772   0.9951100  )
        11           O   tau(  11) = (   0.2807100   0.4957971   0.5048900  )
        12           O   tau(  12) = (   0.7192900   0.5623630   0.4951100  )
        13           O   tau(  13) = (   0.7807100   0.0332829   0.4951100  )
        14           O   tau(  14) = (   0.2192900   1.0248772   0.5048900  )
        15           O   tau(  15) = (   0.7192900   0.4957971   0.9951100  )
        16           O   tau(  16) = (   0.2807100   0.5623630   0.0048900  )
        17           O   tau(  17) = (   0.5045500   0.2311974   0.5127308  )
        18           O   tau(  18) = (   0.4954500   0.8269627   0.4872692  )
        19           O   tau(  19) = (   0.9954500   0.2978827   1.0127308  )
        20           O   tau(  20) = (   0.0045500   0.7602774  -0.0127308  )
        21           O   tau(  21) = (   0.4954500   0.2311974  -0.0127308  )
        22           O   tau(  22) = (   0.5045500   0.8269627   1.0127308  )
        23           O   tau(  23) = (   0.0045500   0.2978827   0.4872692  )
        24           O   tau(  24) = (   0.9954500   0.7602774   0.5127308  )
        25           O   tau(  25) = (   0.7627309   0.2572599   0.7431000  )
        26           O   tau(  26) = (   0.2372692   0.8009002   0.2569000  )
        27           O   tau(  27) = (   0.7372692   0.2718201   0.2430999  )
        28           O   tau(  28) = (   0.2627309   0.7863399   0.7569000  )
        29           O   tau(  29) = (   0.2372692   0.2572599   0.7569000  )
        30           O   tau(  30) = (   0.7627309   0.8009002   0.2430999  )
        31           O   tau(  31) = (   0.2627309   0.2718201   0.2569000  )
        32           O   tau(  32) = (   0.7372692   0.7863399   0.7431000  )

     number of k points=    64  gaussian smearing, width (Ry)=  0.0007
                       cart. coord. in units 2pi/alat
        k(    1) = (   0.0000000   0.0000000   0.0000000), wk =   0.0092593
        k(    2) = (   0.0000000   0.0000000   0.1666667), wk =   0.0185185
        k(    3) = (   0.0000000   0.0000000   0.3333333), wk =   0.0185185
        k(    4) = (   0.0000000   0.0000000  -0.5000000), wk =   0.0092593
        k(    5) = (   0.0000000   0.1575061   0.0000000), wk =   0.0185185
        k(    6) = (   0.0000000   0.1575061   0.1666667), wk =   0.0370370
        k(    7) = (   0.0000000   0.1575061   0.3333333), wk =   0.0370370
        k(    8) = (   0.0000000   0.1575061  -0.5000000), wk =   0.0185185
        k(    9) = (   0.0000000   0.3150122   0.0000000), wk =   0.0185185
        k(   10) = (   0.0000000   0.3150122   0.1666667), wk =   0.0370370
        k(   11) = (   0.0000000   0.3150122   0.3333333), wk =   0.0370370
        k(   12) = (   0.0000000   0.3150122  -0.5000000), wk =   0.0185185
        k(   13) = (   0.0000000  -0.4725183   0.0000000), wk =   0.0092593
        k(   14) = (   0.0000000  -0.4725183   0.1666667), wk =   0.0185185
        k(   15) = (   0.0000000  -0.4725183   0.3333333), wk =   0.0185185
        k(   16) = (   0.0000000  -0.4725183  -0.5000000), wk =   0.0092593
        k(   17) = (   0.1666667   0.0000000   0.1666667), wk =   0.0370370
        k(   18) = (   0.1666667   0.0000000   0.3333333), wk =   0.0370370
        k(   19) = (   0.1666667   0.0000000  -0.5000000), wk =   0.0185185
        k(   20) = (   0.1666667   0.1575061   0.1666667), wk =   0.0740741
        k(   21) = (   0.1666667   0.1575061   0.3333333), wk =   0.0740741
        k(   22) = (   0.1666667   0.1575061  -0.5000000), wk =   0.0370370
        k(   23) = (   0.1666667   0.3150122   0.1666667), wk =   0.0740741
        k(   24) = (   0.1666667   0.3150122   0.3333333), wk =   0.0740741
        k(   25) = (   0.1666667   0.3150122  -0.5000000), wk =   0.0370370
        k(   26) = (   0.1666667  -0.4725183   0.1666667), wk =   0.0370370
        k(   27) = (   0.1666667  -0.4725183   0.3333333), wk =   0.0370370
        k(   28) = (   0.1666667  -0.4725183  -0.5000000), wk =   0.0185185
        k(   29) = (   0.3333333   0.0000000   0.3333333), wk =   0.0370370
        k(   30) = (   0.3333333   0.0000000  -0.5000000), wk =   0.0185185
        k(   31) = (   0.3333333   0.1575061   0.3333333), wk =   0.0740741
        k(   32) = (   0.3333333   0.1575061  -0.5000000), wk =   0.0370370
        k(   33) = (   0.3333333   0.3150122   0.3333333), wk =   0.0740741
        k(   34) = (   0.3333333   0.3150122  -0.5000000), wk =   0.0370370
        k(   35) = (   0.3333333  -0.4725183   0.3333333), wk =   0.0370370
        k(   36) = (   0.3333333  -0.4725183  -0.5000000), wk =   0.0185185
        k(   37) = (  -0.5000000   0.0000000  -0.5000000), wk =   0.0092593
        k(   38) = (  -0.5000000   0.1575061  -0.5000000), wk =   0.0185185
        k(   39) = (  -0.5000000   0.3150122  -0.5000000), wk =   0.0185185
        k(   40) = (  -0.5000000  -0.4725183  -0.5000000), wk =   0.0092593
        k(   41) = (   0.1666667   0.0000000   0.0000000), wk =   0.0185185
        k(   42) = (   0.3333333   0.0000000   0.0000000), wk =   0.0185185
        k(   43) = (  -0.5000000   0.0000000   0.0000000), wk =   0.0092593
        k(   44) = (   0.1666667  -0.1575061   0.0000000), wk =   0.0370370
        k(   45) = (   0.3333333  -0.1575061   0.0000000), wk =   0.0370370
        k(   46) = (  -0.5000000  -0.1575061   0.0000000), wk =   0.0185185
        k(   47) = (   0.1666667  -0.3150122   0.0000000), wk =   0.0370370
        k(   48) = (   0.3333333  -0.3150122   0.0000000), wk =   0.0370370
        k(   49) = (  -0.5000000  -0.3150122   0.0000000), wk =   0.0185185
        k(   50) = (   0.1666667   0.4725183   0.0000000), wk =   0.0185185
        k(   51) = (   0.3333333   0.4725183   0.0000000), wk =   0.0185185
        k(   52) = (  -0.5000000   0.4725183   0.0000000), wk =   0.0092593
        k(   53) = (   0.3333333   0.0000000   0.1666667), wk =   0.0370370
        k(   54) = (  -0.5000000   0.0000000   0.1666667), wk =   0.0185185
        k(   55) = (   0.3333333  -0.1575061   0.1666667), wk =   0.0740741
        k(   56) = (  -0.5000000  -0.1575061   0.1666667), wk =   0.0370370
        k(   57) = (   0.3333333  -0.3150122   0.1666667), wk =   0.0740741
        k(   58) = (  -0.5000000  -0.3150122   0.1666667), wk =   0.0370370
        k(   59) = (   0.3333333   0.4725183   0.1666667), wk =   0.0370370
        k(   60) = (  -0.5000000   0.4725183   0.1666667), wk =   0.0185185
        k(   61) = (  -0.5000000   0.0000000   0.3333333), wk =   0.0185185
        k(   62) = (  -0.5000000  -0.1575061   0.3333333), wk =   0.0370370
        k(   63) = (  -0.5000000  -0.3150122   0.3333333), wk =   0.0370370
        k(   64) = (  -0.5000000   0.4725183   0.3333333), wk =   0.0185185

     Initial potential from superposition of free atoms

     starting charge  367.99656, renormalised to  368.00000
     Starting wfcs are  232 randomized atomic wfcs

     Self-consistent Calculation

     iteration #  1     ecut=   120.00 Ry     beta= 0.70
     Davidson diagonalization with overlap
     ethr =  1.00E-02,  avg # of iterations =  5.1

     total energy              =   -6253.55618494 Ry
     Harris-Foulkes estimate   =   -6264.43679298 Ry
[...]
End final coordinates

     Writing output data file Landau_36.save/

     Final scf calculation at the relaxed structure.
     The G-vectors are recalculated for the final unit cell
     Results may differ from those at the preceding step.

     bravais-lattice index     =            0
     lattice parameter (alat)  =      13.8397  a.u.
     unit-cell volume          =    2809.0007 (a.u.)^3
     number of atoms/cell      =           32
     number of atomic types    =            2
     number of electrons       =       368.00
     number of Kohn-Sham states=          221
     kinetic-energy cutoff     =     120.0000  Ry
     charge density cutoff     =     480.0000  Ry
     convergence threshold     =      1.0E-10
     mixing beta               =       0.7000
     number of iterations used =            8  plain     mixing
     Exchange-correlation      = SLA PW NOGX NOGC ( 1  4  0  0 0 0)

     celldm(1)=  13.839685  celldm(2)=   0.000000  celldm(3)=   0.000000
     celldm(4)=   0.000000  celldm(5)=   0.000000  celldm(6)=   0.000000

     crystal axes: (cart. coord. in units of alat)
               a(1) = (   1.018929   0.000000   0.000000 )
               a(2) = (   0.000000   1.026794   0.000000 )
               a(3) = (   0.000000   0.000000   1.012852 )

     reciprocal axes: (cart. coord. in units 2 pi/alat)
               b(1) = (  0.981422  0.000000  0.000000 )
               b(2) = (  0.000000  0.973905  0.000000 )
               b(3) = (  0.000000  0.000000  0.987311 )

     PseudoPot. # 1 for W  read from file:
     /cluster/scratch/mnoe/QE/pps/W_ONCV_LDA-4.0.upf
     MD5 check sum: ba0307d5d4cd419d6f1d13dc49d7c13a
     Pseudo is Norm-conserving + core correction, Zval = 28.0
     Generated using ONCVPSP code by D. R. Hamann
     Using radial grid of 1380 points,  8 beta functions with:
                l(1) =   0
                l(2) =   0
                l(3) =   1
                l(4) =   1
                l(5) =   2
                l(6) =   2
                l(7) =   3
                l(8) =   3

     PseudoPot. # 2 for O  read from file:
     /cluster/scratch/mnoe/QE/pps/O_ONCV_LDA-3.0.upf
     MD5 check sum: b55cdb4f45ae2203d24ad12cf8d61a31
     Pseudo is Norm-conserving + core correction, Zval =  6.0
     Generated using ONCVPSP code by D. R. Hamann
     Using radial grid of  926 points,  5 beta functions with:
                l(1) =   0
                l(2) =   0
                l(3) =   1
                l(4) =   1
                l(5) =   2

     atomic species   valence    mass     pseudopotential
        W             28.00   183.84000     W ( 1.00)
        O              6.00    15.99940     O ( 1.00)

      8 Sym. Ops., with inversion, found ( 6 have fractional translation)

   Cartesian axes

     site n.     atom                  positions (alat units)
         1           W   tau(   1) = (   0.2377672   0.3019653   0.0159220  )
         2           W   tau(   2) = (   0.7811622   0.7248285   0.9969297  )
         3           W   tau(   3) = (   0.2716975   0.2114316   0.5223479  )
         4           W   tau(   4) = (   0.7472318   0.8153621   0.4905039  )
         5           W   tau(   5) = (   0.7811622   0.3019653   0.4905039  )
         6           W   tau(   6) = (   0.2377672   0.7248285   0.5223479  )
         7           W   tau(   7) = (   0.7472318   0.2114316   0.9969297  )
         8           W   tau(   8) = (   0.2716975   0.8153621   0.0159220  )
         9           O   tau(   9) = (   0.2234410   0.0322964   0.0049528  )
        10           O   tau(  10) = (   0.7954883   0.9944975   1.0078989  )
        11           O   tau(  11) = (   0.2860236   0.4811005   0.5113788  )
        12           O   tau(  12) = (   0.7329057   0.5456933   0.5014731  )
        13           O   tau(  13) = (   0.7954883   0.0322964   0.5014731  )
        14           O   tau(  14) = (   0.2234410   0.9944975   0.5113788  )
        15           O   tau(  15) = (   0.7329057   0.4811005   1.0078989  )
        16           O   tau(  16) = (   0.2860236   0.5456933   0.0049528  )
        17           O   tau(  17) = (   0.5141008   0.2243442   0.5193204  )
        18           O   tau(  18) = (   0.5048285   0.8024496   0.4935315  )
        19           O   tau(  19) = (   1.0142932   0.2890527   1.0257462  )
        20           O   tau(  20) = (   0.0046361   0.7377411  -0.0128944  )
        21           O   tau(  21) = (   0.5048285   0.2243442  -0.0128944  )
        22           O   tau(  22) = (   0.5141008   0.8024496   1.0257462  )
        23           O   tau(  23) = (   0.0046361   0.2890527   0.4935315  )
        24           O   tau(  24) = (   1.0142932   0.7377411   0.5193204  )
        25           O   tau(  25) = (   0.7771689   0.2496341   0.7526501  )
        26           O   tau(  26) = (   0.2417606   0.7771597   0.2602016  )
        27           O   tau(  27) = (   0.7512252   0.2637628   0.2462242  )
        28           O   tau(  28) = (   0.2677042   0.7630310   0.7666276  )
        29           O   tau(  29) = (   0.2417606   0.2496341   0.7666276  )
        30           O   tau(  30) = (   0.7771689   0.7771597   0.2462242  )
        31           O   tau(  31) = (   0.2677042   0.2637628   0.2602016  )
        32           O   tau(  32) = (   0.7512252   0.7630310   0.7526501  )

     number of k points=    64  gaussian smearing, width (Ry)=  0.0007
                       cart. coord. in units 2pi/alat
        k(    1) = (   0.0000000   0.0000000   0.0000000), wk =   0.0092593
        k(    2) = (   0.0000000   0.0000000   0.1645519), wk =   0.0185185
        k(    3) = (   0.0000000   0.0000000   0.3291038), wk =   0.0185185
        k(    4) = (   0.0000000   0.0000000  -0.4936556), wk =   0.0092593
        k(    5) = (   0.0000000   0.1623176   0.0000000), wk =   0.0185185
        k(    6) = (   0.0000000   0.1623176   0.1645519), wk =   0.0370370
        k(    7) = (   0.0000000   0.1623176   0.3291038), wk =   0.0370370
        k(    8) = (   0.0000000   0.1623176  -0.4936556), wk =   0.0185185
        k(    9) = (   0.0000000   0.3246351   0.0000000), wk =   0.0185185
        k(   10) = (   0.0000000   0.3246351   0.1645519), wk =   0.0370370
        k(   11) = (   0.0000000   0.3246351   0.3291038), wk =   0.0370370
        k(   12) = (   0.0000000   0.3246351  -0.4936556), wk =   0.0185185
        k(   13) = (   0.0000000  -0.4869527   0.0000000), wk =   0.0092593
        k(   14) = (   0.0000000  -0.4869527   0.1645519), wk =   0.0185185
        k(   15) = (   0.0000000  -0.4869527   0.3291038), wk =   0.0185185
        k(   16) = (   0.0000000  -0.4869527  -0.4936556), wk =   0.0092593
        k(   17) = (   0.1635704   0.0000000   0.1645519), wk =   0.0370370
        k(   18) = (   0.1635704   0.0000000   0.3291038), wk =   0.0370370
        k(   19) = (   0.1635704   0.0000000  -0.4936556), wk =   0.0185185
        k(   20) = (   0.1635704   0.1623176   0.1645519), wk =   0.0740741
        k(   21) = (   0.1635704   0.1623176   0.3291038), wk =   0.0740741
        k(   22) = (   0.1635704   0.1623176  -0.4936556), wk =   0.0370370
        k(   23) = (   0.1635704   0.3246351   0.1645519), wk =   0.0740741
        k(   24) = (   0.1635704   0.3246351   0.3291038), wk =   0.0740741
        k(   25) = (   0.1635704   0.3246351  -0.4936556), wk =   0.0370370
        k(   26) = (   0.1635704  -0.4869527   0.1645519), wk =   0.0370370
        k(   27) = (   0.1635704  -0.4869527   0.3291038), wk =   0.0370370
        k(   28) = (   0.1635704  -0.4869527  -0.4936556), wk =   0.0185185
        k(   29) = (   0.3271408   0.0000000   0.3291038), wk =   0.0370370
        k(   30) = (   0.3271408   0.0000000  -0.4936556), wk =   0.0185185
        k(   31) = (   0.3271408   0.1623176   0.3291038), wk =   0.0740741
        k(   32) = (   0.3271408   0.1623176  -0.4936556), wk =   0.0370370
        k(   33) = (   0.3271408   0.3246351   0.3291038), wk =   0.0740741
        k(   34) = (   0.3271408   0.3246351  -0.4936556), wk =   0.0370370
        k(   35) = (   0.3271408  -0.4869527   0.3291038), wk =   0.0370370
        k(   36) = (   0.3271408  -0.4869527  -0.4936556), wk =   0.0185185
        k(   37) = (  -0.4907112   0.0000000  -0.4936556), wk =   0.0092593
        k(   38) = (  -0.4907112   0.1623176  -0.4936556), wk =   0.0185185
        k(   39) = (  -0.4907112   0.3246351  -0.4936556), wk =   0.0185185
        k(   40) = (  -0.4907112  -0.4869527  -0.4936556), wk =   0.0092593
        k(   41) = (   0.1635704   0.0000000   0.0000000), wk =   0.0185185
        k(   42) = (   0.3271408   0.0000000   0.0000000), wk =   0.0185185
        k(   43) = (  -0.4907112   0.0000000   0.0000000), wk =   0.0092593
        k(   44) = (   0.1635704  -0.1623176   0.0000000), wk =   0.0370370
        k(   45) = (   0.3271408  -0.1623176   0.0000000), wk =   0.0370370
        k(   46) = (  -0.4907112  -0.1623176   0.0000000), wk =   0.0185185
        k(   47) = (   0.1635704  -0.3246351   0.0000000), wk =   0.0370370
        k(   48) = (   0.3271408  -0.3246351   0.0000000), wk =   0.0370370
        k(   49) = (  -0.4907112  -0.3246351   0.0000000), wk =   0.0185185
        k(   50) = (   0.1635704   0.4869527   0.0000000), wk =   0.0185185
        k(   51) = (   0.3271408   0.4869527   0.0000000), wk =   0.0185185
        k(   52) = (  -0.4907112   0.4869527   0.0000000), wk =   0.0092593
        k(   53) = (   0.3271408   0.0000000   0.1645519), wk =   0.0370370
        k(   54) = (  -0.4907112   0.0000000   0.1645519), wk =   0.0185185
        k(   55) = (   0.3271408  -0.1623176   0.1645519), wk =   0.0740741
        k(   56) = (  -0.4907112  -0.1623176   0.1645519), wk =   0.0370370
        k(   57) = (   0.3271408  -0.3246351   0.1645519), wk =   0.0740741
        k(   58) = (  -0.4907112  -0.3246351   0.1645519), wk =   0.0370370
        k(   59) = (   0.3271408   0.4869527   0.1645519), wk =   0.0370370
        k(   60) = (  -0.4907112   0.4869527   0.1645519), wk =   0.0185185
        k(   61) = (  -0.4907112   0.0000000   0.3291038), wk =   0.0185185
        k(   62) = (  -0.4907112  -0.1623176   0.3291038), wk =   0.0370370
        k(   63) = (  -0.4907112  -0.3246351   0.3291038), wk =   0.0370370
        k(   64) = (  -0.4907112   0.4869527   0.3291038), wk =   0.0185185

     Initial potential from superposition of free atoms

     starting charge  367.99656, renormalised to  368.00000
     Starting wfcs are  232 randomized atomic wfcs

     Self-consistent Calculation

[...]

     total energy              =   -6260.96567913 Ry
     Harris-Foulkes estimate   =   -6260.96567913 Ry
     estimated scf accuracy    <          1.9E-10 Ry

     iteration # 15     ecut=   120.00 Ry     beta= 0.70
     Davidson diagonalization with overlap
     ethr =  1.00E-13,  avg # of iterations =  2.0

     End of self-consistent calculation

[...]

          k = 0.3271 0.4870 0.1646 ( 62356 PWs)   bands (ev):

[...]

          k =-0.4907 0.4870 0.3291 ( 62312 PWs)   bands (ev):

   -66.1681 -66.1681 -66.1680 -66.1680 -66.1677 -66.1677 -66.1677 -66.1677
   -30.5318 -30.5318 -30.5313 -30.5313 -30.5286 -30.5286 -30.5280 -30.5280
   -30.4946 -30.4946 -30.4943 -30.4943 -30.4603 -30.4603 -30.4601 -30.4601
   -30.4345 -30.4345 -30.4332 -30.4332 -30.4297 -30.4297 -30.4286 -30.4286
   -20.3474 -20.3474 -20.3474 -20.3474 -20.3466 -20.3466 -20.3466 -20.3466
   -20.3375 -20.3374 -20.3374 -20.3374 -20.3372 -20.3371 -20.3371 -20.3371
   -20.3150 -20.3150 -20.3149 -20.3149 -20.3144 -20.3144 -20.3144 -20.3144
   -20.3074 -20.3074 -20.3074 -20.3074 -20.3073 -20.3072 -20.3072 -20.3072
   -20.2882 -20.2882 -20.2882 -20.2882 -20.2875 -20.2875 -20.2874 -20.2874
   -20.2828 -20.2828 -20.2827 -20.2827 -20.2823 -20.2823 -20.2823 -20.2822
   -20.2730 -20.2730 -20.2730 -20.2730 -20.2724 -20.2724 -20.2724 -20.2724
    -9.2235  -9.2235  -9.1957  -9.1957  -8.8818  -8.8818  -8.8174  -8.8174
    -8.5097  -8.5097  -8.4677  -8.4677  -8.3322  -8.3322  -8.2988  -8.2988
    -8.2526  -8.2526  -8.2207  -8.2207  -8.0861  -8.0861  -8.0831  -8.0831
     2.2001   2.2001   2.2136   2.2136   2.8460   2.8460   2.9029   2.9029
     2.9426   2.9426   2.9647   2.9647   3.1395   3.1395   3.2068   3.2068
     3.3427   3.3427   3.4527   3.4527   3.5284   3.5284   3.5525   3.5525
     3.7968   3.7968   3.9766   3.9766   4.3568   4.3568   4.4218   4.4218
     4.4426   4.4426   4.4954   4.4954   4.5819   4.5819   4.6056   4.6056
     4.7592   4.7592   4.9419   4.9419   5.0389   5.0389   5.0726   5.0726
     7.1039   7.1039   7.1101   7.1101   7.1623   7.1624   7.2577   7.2577
     7.3394   7.3394   7.4000   7.4000   7.5026   7.5026   7.5711   7.5711
     7.6870   7.6870   7.7142   7.7142   7.7514   7.7515   7.8004   7.8004
    11.4511  11.4511  11.5570  11.5570  11.7006  11.7006  11.8424  11.8424
    12.1388  12.1388  12.2788  12.2789  12.3807  12.3807  12.4312  12.4312
    12.6308  12.6308  12.6838  12.6838  12.8617  12.8617  12.9431  12.9431
    16.1087  16.1087  16.1684  16.1684  16.6842  16.6842  16.8860  16.8860
    17.1179  17.1179  17.1635  17.1636  17.4244

     the Fermi energy is     8.8505 ev

!    total energy              =   -6260.96567913 Ry
     Harris-Foulkes estimate   =   -6260.96567913 Ry
     estimated scf accuracy    <          6.4E-12 Ry

     The total energy is the sum of the following terms:

     one-electron contribution =   -4722.17750623 Ry
     hartree contribution      =    2598.05308540 Ry
     xc contribution           =    -965.69781374 Ry
     ewald contribution        =   -3171.14344456 Ry
     smearing contrib. (-TS)   =      -0.00000000 Ry

     convergence has been achieved in  15 iterations

     Forces acting on atoms (cartesian axes, Ry/au):

     atom    1 type  1   force =     0.01448570    0.01510453    0.00403628
     atom    2 type  1   force =    -0.01448570   -0.01510453   -0.00403628
     atom    3 type  1   force =    -0.01448570   -0.01510453    0.00403628
     atom    4 type  1   force =     0.01448570    0.01510453   -0.00403628
     atom    5 type  1   force =    -0.01448570    0.01510453   -0.00403628
     atom    6 type  1   force =     0.01448570   -0.01510453    0.00403628
     atom    7 type  1   force =     0.01448570   -0.01510453   -0.00403628
     atom    8 type  1   force =    -0.01448570    0.01510453    0.00403628
     atom    9 type  2   force =     0.01160021   -0.10712945    0.00439743
     atom   10 type  2   force =    -0.01160021    0.10712945   -0.00439743
     atom   11 type  2   force =    -0.01160021    0.10712945    0.00439743
     atom   12 type  2   force =     0.01160021   -0.10712945   -0.00439743
     atom   13 type  2   force =    -0.01160021   -0.10712945   -0.00439743
     atom   14 type  2   force =     0.01160021    0.10712945    0.00439743
     atom   15 type  2   force =     0.01160021    0.10712945   -0.00439743
     atom   16 type  2   force =    -0.01160021   -0.10712945    0.00439743
     atom   17 type  2   force =     0.01052651   -0.00992005    0.00113300
     atom   18 type  2   force =    -0.01052651    0.00992005   -0.00113300
     atom   19 type  2   force =    -0.01052651    0.00992005    0.00113300
     atom   20 type  2   force =     0.01052651   -0.00992005   -0.00113300
     atom   21 type  2   force =    -0.01052651   -0.00992005   -0.00113300
     atom   22 type  2   force =     0.01052651    0.00992005    0.00113300
     atom   23 type  2   force =     0.01052651    0.00992005   -0.00113300
     atom   24 type  2   force =    -0.01052651   -0.00992005    0.00113300
     atom   25 type  2   force =    -0.00206987    0.00704222    0.01278751
     atom   26 type  2   force =     0.00206987   -0.00704222   -0.01278751
     atom   27 type  2   force =     0.00206987   -0.00704222    0.01278751
     atom   28 type  2   force =    -0.00206987    0.00704222   -0.01278751
     atom   29 type  2   force =     0.00206987    0.00704222   -0.01278751
     atom   30 type  2   force =    -0.00206987   -0.00704222    0.01278751
     atom   31 type  2   force =    -0.00206987   -0.00704222   -0.01278751
     atom   32 type  2   force =     0.00206987    0.00704222    0.01278751

     Total force =     0.000000     Total SCF correction =     0.000000

     Computing stress (Cartesian axis) and pressure

          total   stress  (Ry/bohr**3)                   (kbar)     P=    0.60
   0.00000826   0.00000000   0.00000000          1.21      0.00      0.00
   0.00000000  -0.00000151   0.00000000          0.00     -0.22      0.00
   0.00000000   0.00000000   0.00000557          0.00      0.00      0.82

     Writing output data file Landau_36.save/

     General routines

     Parallel routines

   This run was terminated on:   2: 1:34  21Nov2019

   JOB DONE.