     Program PWSCF v.6.2 (svn rev. 14038) starts on 28Aug2019 at 21:41:46

     K-points division:     npool     =      64
     Reading input from scf.in

     Current dimensions of program PWSCF are:
     Max number of different atomic species (ntypx) = 10
     Max number of k-points (npk) =  40000
     Max angular momentum in pseudopotentials (lmaxx) =  3

     Subspace diagonalization in iterative solution of the eigenvalue problem:
     a serial algorithm will be used

     bravais-lattice index     =            0
     lattice parameter (alat)  =      13.8354  a.u.
     unit-cell volume          =    2797.5237 (a.u.)^3
     number of atoms/cell      =           32
     number of atomic types    =            2
     number of electrons       =       369.00
     number of Kohn-Sham states=          222
     kinetic-energy cutoff     =     120.0000  Ry
     charge density cutoff     =     480.0000  Ry
     convergence threshold     =      1.0E-08
     mixing beta               =       0.7000
     number of iterations used =            8  plain     mixing
     Exchange-correlation      = SLA PW NOGX NOGC ( 1  4  0  0 0 0)

     celldm(1)=  13.835360  celldm(2)=   0.000000  celldm(3)=   0.000000
     celldm(4)=   0.000000  celldm(5)=   0.000000  celldm(6)=   0.000000

     crystal axes: (cart. coord. in units of alat)
               a(1) = (   1.000000   0.000000   0.000000 )
               a(2) = (   0.000000   1.054784   0.000000 )
               a(3) = (   0.000000   0.000000   1.001473 )

     reciprocal axes: (cart. coord. in units 2 pi/alat)
               b(1) = (  1.000000  0.000000  0.000000 )
               b(2) = (  0.000000  0.948062  0.000000 )
               b(3) = (  0.000000  0.000000  0.998530 )

     PseudoPot. # 1 for W  read from file:
     /cluster/scratch/mnoe/QE/pps/W_ONCV_LDA-4.0.upf
     MD5 check sum: ba0307d5d4cd419d6f1d13dc49d7c13a
     Pseudo is Norm-conserving + core correction, Zval = 28.0
     Generated using ONCVPSP code by D. R. Hamann
     Using radial grid of 1380 points,  8 beta functions with:
                l(1) =   0
                l(2) =   0
                l(3) =   1
                l(4) =   1
                l(5) =   2
                l(6) =   2
                l(7) =   3
                l(8) =   3

     PseudoPot. # 2 for O  read from file:
     /cluster/scratch/mnoe/QE/pps/O_ONCV_LDA-3.0.upf
     MD5 check sum: b55cdb4f45ae2203d24ad12cf8d61a31
     Pseudo is Norm-conserving + core correction, Zval =  6.0
     Generated using ONCVPSP code by D. R. Hamann
     Using radial grid of  926 points,  5 beta functions with:
                l(1) =   0
                l(2) =   0
                l(3) =   1
                l(4) =   1
                l(5) =   2

     atomic species   valence    mass     pseudopotential
        W             28.00   183.84000     W ( 1.00)
        O              6.00    15.99940     O ( 1.00)

      8 Sym. Ops., with inversion, found ( 6 have fractional translation)

   Cartesian axes

     site n.     atom                  positions (alat units)
         1           W   tau(   1) = (   0.2421400   0.2973013   0.0074409  )
         2           W   tau(   2) = (   0.7578600   0.7574823   0.9940316  )
         3           W   tau(   3) = (   0.2578600   0.2300905   0.5081772  )
         4           W   tau(   4) = (   0.7421400   0.8246931   0.4932954  )
         5           W   tau(   5) = (   0.7578600   0.2973013   0.4932954  )
         6           W   tau(   6) = (   0.2421400   0.7574823   0.5081772  )
         7           W   tau(   7) = (   0.7421400   0.2300905   0.9940316  )
         8           W   tau(   8) = (   0.2578600   0.8246931   0.0074409  )
         9           O   tau(   9) = (   0.2355000   0.0087758   0.0023134  )
        10           O   tau(  10) = (   0.7645000   1.0460078   0.9991592  )
        11           O   tau(  11) = (   0.2645000   0.5186160   0.5030497  )
        12           O   tau(  12) = (   0.7355000   0.5361676   0.4984229  )
        13           O   tau(  13) = (   0.7645000   0.0087758   0.4984229  )
        14           O   tau(  14) = (   0.2355000   1.0460078   0.5030497  )
        15           O   tau(  15) = (   0.7355000   0.5186160   0.9991592  )
        16           O   tau(  16) = (   0.2645000   0.5361676   0.0023134  )
        17           O   tau(  17) = (   0.5021500   0.2480007   0.4502020  )
        18           O   tau(  18) = (   0.4978500   0.8067829   0.5512706  )
        19           O   tau(  19) = (   0.9978500   0.2793911   0.9509383  )
        20           O   tau(  20) = (   0.0021501   0.7753925   0.0505343  )
        21           O   tau(  21) = (   0.4978500   0.2480007   0.0505343  )
        22           O   tau(  22) = (   0.5021500   0.8067829   0.9509383  )
        23           O   tau(  23) = (   0.0021501   0.2793911   0.5512706  )
        24           O   tau(  24) = (   0.9978500   0.7753925   0.4502020  )
        25           O   tau(  25) = (   0.6995400   0.2602678   0.7478396  )
        26           O   tau(  26) = (   0.3004600   0.7945157   0.2536330  )
        27           O   tau(  27) = (   0.8004600   0.2671239   0.2471033  )
        28           O   tau(  28) = (   0.1995400   0.7876596   0.7543692  )
        29           O   tau(  29) = (   0.3004600   0.2602678   0.7543692  )
        30           O   tau(  30) = (   0.6995400   0.7945157   0.2471033  )
        31           O   tau(  31) = (   0.1995400   0.2671239   0.2536330  )
        32           O   tau(  32) = (   0.8004600   0.7876596   0.7478396  )

     number of k points=    64  gaussian smearing, width (Ry)=  0.0007
                       cart. coord. in units 2pi/alat
        k(    1) = (   0.0000000   0.0000000   0.0000000), wk =   0.0092593
        k(    2) = (   0.0000000   0.0000000   0.1664216), wk =   0.0185185
        k(    3) = (   0.0000000   0.0000000   0.3328432), wk =   0.0185185
        k(    4) = (   0.0000000   0.0000000  -0.4992648), wk =   0.0092593
        k(    5) = (   0.0000000   0.1580103   0.0000000), wk =   0.0185185
        k(    6) = (   0.0000000   0.1580103   0.1664216), wk =   0.0370370
        k(    7) = (   0.0000000   0.1580103   0.3328432), wk =   0.0370370
        k(    8) = (   0.0000000   0.1580103  -0.4992648), wk =   0.0185185
        k(    9) = (   0.0000000   0.3160206   0.0000000), wk =   0.0185185
        k(   10) = (   0.0000000   0.3160206   0.1664216), wk =   0.0370370
        k(   11) = (   0.0000000   0.3160206   0.3328432), wk =   0.0370370
        k(   12) = (   0.0000000   0.3160206  -0.4992648), wk =   0.0185185
        k(   13) = (   0.0000000  -0.4740309   0.0000000), wk =   0.0092593
        k(   14) = (   0.0000000  -0.4740309   0.1664216), wk =   0.0185185
        k(   15) = (   0.0000000  -0.4740309   0.3328432), wk =   0.0185185
        k(   16) = (   0.0000000  -0.4740309  -0.4992648), wk =   0.0092593
        k(   17) = (   0.1666667   0.0000000   0.0000000), wk =   0.0185185
        k(   18) = (   0.1666667   0.0000000   0.1664216), wk =   0.0370370
        k(   19) = (   0.1666667   0.0000000   0.3328432), wk =   0.0370370
        k(   20) = (   0.1666667   0.0000000  -0.4992648), wk =   0.0185185
        k(   21) = (   0.1666667   0.1580103   0.0000000), wk =   0.0370370
        k(   22) = (   0.1666667   0.1580103   0.1664216), wk =   0.0740741
        k(   23) = (   0.1666667   0.1580103   0.3328432), wk =   0.0740741
        k(   24) = (   0.1666667   0.1580103  -0.4992648), wk =   0.0370370
        k(   25) = (   0.1666667   0.3160206   0.0000000), wk =   0.0370370
        k(   26) = (   0.1666667   0.3160206   0.1664216), wk =   0.0740741
        k(   27) = (   0.1666667   0.3160206   0.3328432), wk =   0.0740741
        k(   28) = (   0.1666667   0.3160206  -0.4992648), wk =   0.0370370
        k(   29) = (   0.1666667  -0.4740309   0.0000000), wk =   0.0185185
        k(   30) = (   0.1666667  -0.4740309   0.1664216), wk =   0.0370370
        k(   31) = (   0.1666667  -0.4740309   0.3328432), wk =   0.0370370
        k(   32) = (   0.1666667  -0.4740309  -0.4992648), wk =   0.0185185
        k(   33) = (   0.3333333   0.0000000   0.0000000), wk =   0.0185185
        k(   34) = (   0.3333333   0.0000000   0.1664216), wk =   0.0370370
        k(   35) = (   0.3333333   0.0000000   0.3328432), wk =   0.0370370
        k(   36) = (   0.3333333   0.0000000  -0.4992648), wk =   0.0185185
        k(   37) = (   0.3333333   0.1580103   0.0000000), wk =   0.0370370
        k(   38) = (   0.3333333   0.1580103   0.1664216), wk =   0.0740741
        k(   39) = (   0.3333333   0.1580103   0.3328432), wk =   0.0740741
        k(   40) = (   0.3333333   0.1580103  -0.4992648), wk =   0.0370370
        k(   41) = (   0.3333333   0.3160206   0.0000000), wk =   0.0370370
        k(   42) = (   0.3333333   0.3160206   0.1664216), wk =   0.0740741
        k(   43) = (   0.3333333   0.3160206   0.3328432), wk =   0.0740741
        k(   44) = (   0.3333333   0.3160206  -0.4992648), wk =   0.0370370
        k(   45) = (   0.3333333  -0.4740309   0.0000000), wk =   0.0185185
        k(   46) = (   0.3333333  -0.4740309   0.1664216), wk =   0.0370370
        k(   47) = (   0.3333333  -0.4740309   0.3328432), wk =   0.0370370
        k(   48) = (   0.3333333  -0.4740309  -0.4992648), wk =   0.0185185
        k(   49) = (  -0.5000000   0.0000000   0.0000000), wk =   0.0092593
        k(   50) = (  -0.5000000   0.0000000   0.1664216), wk =   0.0185185
        k(   51) = (  -0.5000000   0.0000000   0.3328432), wk =   0.0185185
        k(   52) = (  -0.5000000   0.0000000  -0.4992648), wk =   0.0092593
        k(   53) = (  -0.5000000   0.1580103   0.0000000), wk =   0.0185185
        k(   54) = (  -0.5000000   0.1580103   0.1664216), wk =   0.0370370
        k(   55) = (  -0.5000000   0.1580103   0.3328432), wk =   0.0370370
        k(   56) = (  -0.5000000   0.1580103  -0.4992648), wk =   0.0185185
        k(   57) = (  -0.5000000   0.3160206   0.0000000), wk =   0.0185185
        k(   58) = (  -0.5000000   0.3160206   0.1664216), wk =   0.0370370
        k(   59) = (  -0.5000000   0.3160206   0.3328432), wk =   0.0370370
        k(   60) = (  -0.5000000   0.3160206  -0.4992648), wk =   0.0185185
        k(   61) = (  -0.5000000  -0.4740309   0.0000000), wk =   0.0092593
        k(   62) = (  -0.5000000  -0.4740309   0.1664216), wk =   0.0185185
        k(   63) = (  -0.5000000  -0.4740309   0.3328432), wk =   0.0185185
        k(   64) = (  -0.5000000  -0.4740309  -0.4992648), wk =   0.0092593

     Initial potential from superposition of free atoms

     starting charge  367.99656, renormalised to  369.00000
     Starting wfc are  232 randomized atomic wfcs

     Self-consistent Calculation

     iteration #  1     ecut=   120.00 Ry     beta= 0.70
     Davidson diagonalization with overlap
     ethr =  1.00E-02,  avg # of iterations =  5.5

     total energy              =   -6253.08500315 Ry
     Harris-Foulkes estimate   =   -6264.03505159 Ry
     estimated scf accuracy    <      13.74843194 Ry

[...]

     total energy              =   -6260.38432572 Ry
     Harris-Foulkes estimate   =   -6260.38432574 Ry
     estimated scf accuracy    <       0.00000005 Ry

     iteration # 13     ecut=   120.00 Ry     beta= 0.70
     Davidson diagonalization with overlap
     ethr =  1.42E-11,  avg # of iterations =  2.2

     End of self-consistent calculation

          k = 0.0000 0.0000 0.0000 ( 62119 PWs)   bands (ev):

   -65.8927 -65.8923 -65.8917 -65.8917 -65.8913 -65.8913 -65.8907 -65.8903
   -30.3643 -30.3601 -30.3597 -30.3557 -30.3059 -30.3009 -30.3002 -30.2954
   -30.2412 -30.2391 -30.2331 -30.2313 -30.2302 -30.2280 -30.2240 -30.2225
   -30.1392 -30.1369 -30.1366 -30.1344 -30.1322 -30.1287 -30.1266 -30.1235
   -20.0464 -20.0461 -20.0460 -20.0458 -20.0416 -20.0413 -20.0410 -20.0407
   -20.0344 -20.0341 -20.0341 -20.0339 -20.0334 -20.0333 -20.0329 -20.0327
   -20.0326 -20.0323 -20.0315 -20.0313 -20.0313 -20.0305 -20.0299 -20.0297
   -20.0288 -20.0286 -20.0282 -20.0277 -20.0269 -20.0264 -20.0262 -20.0261
   -20.0128 -20.0127 -20.0125 -20.0124 -20.0123 -20.0122 -20.0120 -20.0119
   -19.9712 -19.9712 -19.9696 -19.9696 -19.9691 -19.9691 -19.9680 -19.9679
   -19.9653 -19.9653 -19.9641 -19.9641 -19.9637 -19.9637 -19.9621 -19.9621
    -9.8522  -9.5452  -9.4142  -9.4131  -9.1108  -9.0974  -9.0171  -8.9089
    -8.8949  -8.7976  -8.7572  -8.7535  -7.8060  -7.7393  -7.7306  -7.6776
    -7.6751  -7.6634  -7.6431  -7.6389  -7.5184  -7.5095  -7.4944  -7.4876
     1.3846   1.3871   1.4408   1.4538   1.4605   1.4861   1.4890   1.7136
     1.7158   1.7340   1.8016   1.9896   2.5088   2.5906   2.6411   2.6491
     2.7932   2.8088   4.2247   4.2531   4.4571   4.5110   4.8424   4.9030
     4.9519   4.9768   4.9860   4.9893   5.1334   5.1350   5.1921   5.4770
     5.5151   5.5799   5.6260   5.6263   5.6471   5.6731   5.7272   5.8864
     5.9273   5.9605   5.9622   5.9681   6.0379   6.1059   6.1254   6.2369
     6.2430   6.3224   6.3390   6.6304   6.6414   6.8615   6.9073   6.9091
     6.9272   6.9372   7.0522   7.0794   7.1275   7.1526   7.4559   7.4895
     7.5003   7.5320   7.8731   7.8893   8.1072   8.1532   8.1692   8.2143
     9.5689   9.5714  10.1654  10.1797  10.1936  10.2103  12.3860  12.3991
    12.4896  12.5084  12.5182  12.5576  12.6673  12.6971  12.9025  13.0218
    13.3726  13.4331  13.5009  13.5360  13.8649  14.1172  14.2767  14.2815
    14.4210  14.5554  14.7015  14.8926  15.6259  15.6363  15.6428  16.2025
    16.2326  16.9201  17.1294  17.1696  17.4543  17.4871

[...]

          k = 0.3333-0.4740-0.4993 ( 62024 PWs)   bands (ev):

[...]

          k =-0.5000 0.0000 0.0000 ( 62096 PWs)   bands (ev):

[...]

          k =-0.5000-0.4740-0.4993 ( 62088 PWs)   bands (ev):

   -65.8915 -65.8915 -65.8915 -65.8915 -65.8915 -65.8915 -65.8915 -65.8915
   -30.3304 -30.3304 -30.3304 -30.3304 -30.3301 -30.3301 -30.3301 -30.3301
   -30.1896 -30.1896 -30.1896 -30.1896 -30.1876 -30.1876 -30.1876 -30.1876
   -30.1767 -30.1766 -30.1766 -30.1766 -30.1746 -30.1746 -30.1746 -30.1746
   -20.0437 -20.0437 -20.0437 -20.0437 -20.0436 -20.0436 -20.0436 -20.0436
   -20.0335 -20.0335 -20.0335 -20.0335 -20.0334 -20.0334 -20.0334 -20.0334
   -20.0311 -20.0311 -20.0311 -20.0311 -20.0311 -20.0310 -20.0310 -20.0310
   -20.0277 -20.0276 -20.0276 -20.0276 -20.0276 -20.0276 -20.0276 -20.0276
   -20.0123 -20.0123 -20.0123 -20.0123 -20.0123 -20.0123 -20.0123 -20.0123
   -19.9680 -19.9680 -19.9680 -19.9680 -19.9678 -19.9677 -19.9677 -19.9677
   -19.9657 -19.9657 -19.9657 -19.9657 -19.9655 -19.9655 -19.9655 -19.9655
    -8.8438  -8.8438  -8.8438  -8.8438  -8.8299  -8.8298  -8.8298  -8.8298
    -8.3189  -8.3189  -8.3189  -8.3189  -8.2911  -8.2911  -8.2911  -8.2911
    -8.2416  -8.2416  -8.2416  -8.2416  -8.2275  -8.2275  -8.2275  -8.2275
     3.0616   3.0616   3.0616   3.0616   3.1187   3.1187   3.1187   3.1187
     3.2629   3.2629   3.2629   3.2630   3.3384   3.3384   3.3384   3.3385
     3.4909   3.4909   3.4909   3.4909   3.6080   3.6080   3.6080   3.6080
     4.2535   4.2535   4.2535   4.2535   4.2619   4.2619   4.2619   4.2619
     4.4540   4.4540   4.4540   4.4540   4.4887   4.4887   4.4887   4.4887
     4.5692   4.5692   4.5692   4.5692   4.6050   4.6050   4.6050   4.6050
     7.1905   7.1905   7.1905   7.1905   7.3312   7.3312   7.3312   7.3313
     7.4039   7.4039   7.4039   7.4039   7.4400   7.4400   7.4400   7.4400
     7.6748   7.6748   7.6748   7.6748   7.7159   7.7159   7.7159   7.7159
    12.0051  12.0051  12.0051  12.0051  12.0190  12.0190  12.0190  12.0190
    12.3590  12.3590  12.3590  12.3590  12.4885  12.4885  12.4885  12.4885
    12.6757  12.6757  12.6757  12.6757  12.7375  12.7375  12.7375  12.7375
    17.1595  17.1595  17.1596  17.1596  17.2322  17.2322  17.2322  17.2323
    17.4733  17.4733  17.4733  17.4734  17.5029  17.5029

     the Fermi energy is    10.1698 ev

!    total energy              =   -6260.38432573 Ry
     Harris-Foulkes estimate   =   -6260.38432573 Ry
     estimated scf accuracy    <          9.5E-10 Ry

     The total energy is the sum of the following terms:

     one-electron contribution =   -4710.17039567 Ry
     hartree contribution      =    2595.44216674 Ry
     xc contribution           =    -966.77648372 Ry
     ewald contribution        =   -3178.87957045 Ry
     smearing contrib. (-TS)   =      -0.00004263 Ry

     convergence has been achieved in  13 iterations

     Writing output data file Landau_17.save

     General routines

     Parallel routines

   This run was terminated on:  21:59: 6  28Aug2019

   JOB DONE.