     Program PWSCF v.6.2 (svn rev. 14038) starts on 28Feb2020 at 18:31:15

     K-points division:     npool     =      40
     Reading input from rscf.in

     Current dimensions of program PWSCF are:
     Max number of different atomic species (ntypx) = 10
     Max number of k-points (npk) =  40000
     Max angular momentum in pseudopotentials (lmaxx) =  3

     Subspace diagonalization in iterative solution of the eigenvalue problem:
     a serial algorithm will be used

     bravais-lattice index     =            0
     lattice parameter (alat)  =      13.8397  a.u.
     unit-cell volume          =    2804.9816 (a.u.)^3
     number of atoms/cell      =           32
     number of atomic types    =            2
     number of electrons       =       368.00
     number of Kohn-Sham states=          221
     kinetic-energy cutoff     =     120.0000  Ry
     charge density cutoff     =     480.0000  Ry
     convergence threshold     =      1.0E-08
     mixing beta               =       0.7000
     number of iterations used =            8  plain     mixing
     Exchange-correlation      = SLA PW NOGX NOGC ( 1  4  0  0 0 0)
     nstep                     =           50

     celldm(1)=  13.839685  celldm(2)=   0.000000  celldm(3)=   0.000000
     celldm(4)=   0.000000  celldm(5)=   0.000000  celldm(6)=   0.000000

     crystal axes: (cart. coord. in units of alat)
               a(1) = (   1.000000   0.000000   0.000000 )
               a(2) = (   0.000000   1.058160   0.000000 )
               a(3) = (   0.000000   0.000000   1.000000 )

     reciprocal axes: (cart. coord. in units 2 pi/alat)
               b(1) = (  1.000000  0.000000  0.000000 )
               b(2) = (  0.000000  0.945037  0.000000 )
               b(3) = (  0.000000  0.000000  1.000000 )

     PseudoPot. # 1 for W  read from file:
     /cluster/scratch/mnoe/QE/pps/W_ONCV_LDA-4.0.upf
     MD5 check sum: ba0307d5d4cd419d6f1d13dc49d7c13a
     Pseudo is Norm-conserving + core correction, Zval = 28.0
     Generated using ONCVPSP code by D. R. Hamann
     Using radial grid of 1380 points,  8 beta functions with:
                l(1) =   0
                l(2) =   0
                l(3) =   1
                l(4) =   1
                l(5) =   2
                l(6) =   2
                l(7) =   3
                l(8) =   3

     PseudoPot. # 2 for O  read from file:
     /cluster/scratch/mnoe/QE/pps/O_ONCV_LDA-3.0.upf
     MD5 check sum: a1bd6164e7280c17a38c229939bfbd54
     Pseudo is Norm-conserving + core correction, Zval =  6.0
     Generated using ONCVPSP code by D. R. Hamann
     Using radial grid of  926 points,  5 beta functions with:
                l(1) =   0
                l(2) =   0
                l(3) =   1
                l(4) =   1
                l(5) =   2

     atomic species   valence    mass     pseudopotential
        W             28.00   183.84000     W ( 1.00)
        O              6.00    15.99940     O ( 1.00)

      8 Sym. Ops. (no inversion) found ( 4 have fractional translation)

   Cartesian axes

     site n.     atom                  positions (alat units)
         1           W   tau(   1) = (   0.2760800   0.3086742   0.2507400  )
         2           W   tau(   2) = (  -0.2507400   0.7494859  -0.7239200  )
         3           W   tau(   3) = (   0.2239200   0.2204059   0.7507400  )
         4           W   tau(   4) = (   0.7507400   0.8377542   0.7760800  )
         5           W   tau(   5) = (   0.7239200   0.3086742   0.7492600  )
         6           W   tau(   6) = (   0.2507400   0.7494859   0.7239200  )
         7           W   tau(   7) = (  -0.2239200   0.2204059  -0.7507400  )
         8           W   tau(   8) = (   0.2492600   0.8377542   0.2239200  )
         9           O   tau(   9) = (   0.2786800   0.0285231   0.2708000  )
        10           O   tau(  10) = (  -0.2708000   1.0296370  -0.7213200  )
        11           O   tau(  11) = (   0.2213200   0.5005569   0.7708000  )
        12           O   tau(  12) = (   0.7708000   0.5576032   0.7786800  )
        13           O   tau(  13) = (   0.7213200   0.0285231   0.7292000  )
        14           O   tau(  14) = (   0.2708000   1.0296370   0.7213200  )
        15           O   tau(  15) = (  -0.2213200   0.5005569  -0.7708000  )
        16           O   tau(  16) = (   0.2292000   0.5576032   0.2213200  )
        17           O   tau(  17) = (   0.4907701   0.2972583   0.7504437  )
        18           O   tau(  18) = (   0.4981100   0.7726261   0.7495563  )
        19           O   tau(  19) = (  -0.9907701   0.2318217   1.2504437  )
        20           O   tau(  20) = (   0.0018899   0.8146139   0.2495563  )
        21           O   tau(  21) = (   0.5092299   0.2972583   0.2495563  )
        22           O   tau(  22) = (   0.5018900   0.7726261   1.2504437  )
        23           O   tau(  23) = (  -0.0092300   0.2318217   0.7495563  )
        24           O   tau(  24) = (  -1.0018900   0.8146139   0.7504437  )
        25           O   tau(  25) = (   0.7504438   0.2435461   2.0018900  )
        26           O   tau(  26) = (   0.2495563   0.7609017   0.4907700  )
        27           O   tau(  27) = (   0.7495563   0.2855339   0.5018900  )
        28           O   tau(  28) = (   0.2504438   0.8263384   1.9907701  )
        29           O   tau(  29) = (   0.2495563   0.2435461   0.9981100  )
        30           O   tau(  30) = (   0.7504438   0.7609017   0.5092299  )
        31           O   tau(  31) = (   0.2504438   0.2855339   0.4981100  )
        32           O   tau(  32) = (   0.7495563   0.8263384   1.0092299  )

     number of k points=    40  gaussian smearing, width (Ry)=  0.0007
                       cart. coord. in units 2pi/alat
        k(    1) = (   0.0000000   0.0000000   0.0000000), wk =   0.0092593
        k(    2) = (   0.0000000   0.0000000   0.1666667), wk =   0.0370370
        k(    3) = (   0.0000000   0.0000000   0.3333333), wk =   0.0370370
        k(    4) = (   0.0000000   0.0000000  -0.5000000), wk =   0.0185185
        k(    5) = (   0.0000000   0.1575061   0.0000000), wk =   0.0185185
        k(    6) = (   0.0000000   0.1575061   0.1666667), wk =   0.0740741
        k(    7) = (   0.0000000   0.1575061   0.3333333), wk =   0.0740741
        k(    8) = (   0.0000000   0.1575061  -0.5000000), wk =   0.0370370
        k(    9) = (   0.0000000   0.3150122   0.0000000), wk =   0.0185185
        k(   10) = (   0.0000000   0.3150122   0.1666667), wk =   0.0740741
        k(   11) = (   0.0000000   0.3150122   0.3333333), wk =   0.0740741
        k(   12) = (   0.0000000   0.3150122  -0.5000000), wk =   0.0370370
        k(   13) = (   0.0000000  -0.4725183   0.0000000), wk =   0.0092593
        k(   14) = (   0.0000000  -0.4725183   0.1666667), wk =   0.0370370
        k(   15) = (   0.0000000  -0.4725183   0.3333333), wk =   0.0370370
        k(   16) = (   0.0000000  -0.4725183  -0.5000000), wk =   0.0185185
        k(   17) = (   0.1666667   0.0000000   0.1666667), wk =   0.0370370
        k(   18) = (   0.1666667   0.0000000   0.3333333), wk =   0.0740741
        k(   19) = (   0.1666667   0.0000000  -0.5000000), wk =   0.0370370
        k(   20) = (   0.1666667   0.1575061   0.1666667), wk =   0.0740741
        k(   21) = (   0.1666667   0.1575061   0.3333333), wk =   0.1481481
        k(   22) = (   0.1666667   0.1575061  -0.5000000), wk =   0.0740741
        k(   23) = (   0.1666667   0.3150122   0.1666667), wk =   0.0740741
        k(   24) = (   0.1666667   0.3150122   0.3333333), wk =   0.1481481
        k(   25) = (   0.1666667   0.3150122  -0.5000000), wk =   0.0740741
        k(   26) = (   0.1666667  -0.4725183   0.1666667), wk =   0.0370370
        k(   27) = (   0.1666667  -0.4725183   0.3333333), wk =   0.0740741
        k(   28) = (   0.1666667  -0.4725183  -0.5000000), wk =   0.0370370
        k(   29) = (   0.3333333   0.0000000   0.3333333), wk =   0.0370370
        k(   30) = (   0.3333333   0.0000000  -0.5000000), wk =   0.0370370
        k(   31) = (   0.3333333   0.1575061   0.3333333), wk =   0.0740741
        k(   32) = (   0.3333333   0.1575061  -0.5000000), wk =   0.0740741
        k(   33) = (   0.3333333   0.3150122   0.3333333), wk =   0.0740741
        k(   34) = (   0.3333333   0.3150122  -0.5000000), wk =   0.0740741
        k(   35) = (   0.3333333  -0.4725183   0.3333333), wk =   0.0370370
        k(   36) = (   0.3333333  -0.4725183  -0.5000000), wk =   0.0370370
        k(   37) = (  -0.5000000   0.0000000  -0.5000000), wk =   0.0092593
        k(   38) = (  -0.5000000   0.1575061  -0.5000000), wk =   0.0185185
        k(   39) = (  -0.5000000   0.3150122  -0.5000000), wk =   0.0185185
        k(   40) = (  -0.5000000  -0.4725183  -0.5000000), wk =   0.0092593

     Initial potential from superposition of free atoms

     starting charge  367.99656, renormalised to  368.00000
     Starting wfc are  232 randomized atomic wfcs

     Self-consistent Calculation

     iteration #  1     ecut=   120.00 Ry     beta= 0.70
     Davidson diagonalization with overlap
     ethr =  1.00E-02,  avg # of iterations =  5.2

     total energy              =   -6253.69455133 Ry
     Harris-Foulkes estimate   =   -6264.40762829 Ry
     estimated scf accuracy    <      13.57084423 Ry

[...]

     End of self-consistent calculation

          k = 0.0000 0.0000 0.0000 ( 62239 PWs)   bands (ev):

   -66.1241 -66.1237 -66.1233 -66.1233 -66.1229 -66.1229 -66.1225 -66.1221
   -30.7016 -30.7011 -30.6973 -30.6973 -30.6060 -30.6060 -30.6027 -30.6025
   -30.4960 -30.4959 -30.4899 -30.4899 -30.4059 -30.4059 -30.4010 -30.4010
   -30.3242 -30.3219 -30.3219 -30.3198 -30.2692 -30.2677 -30.2677 -30.2664
   -20.2824 -20.2823 -20.2818 -20.2818 -20.2797 -20.2797 -20.2791 -20.2790
   -20.2706 -20.2705 -20.2699 -20.2699 -20.2680 -20.2680 -20.2677 -20.2677
   -20.2543 -20.2541 -20.2541 -20.2541 -20.2519 -20.2519 -20.2517 -20.2515
   -20.2507 -20.2505 -20.2496 -20.2496 -20.2492 -20.2492 -20.2482 -20.2479
   -20.2326 -20.2322 -20.2322 -20.2319 -20.2308 -20.2302 -20.2301 -20.2292
   -20.2285 -20.2279 -20.2279 -20.2273 -20.2247 -20.2245 -20.2245 -20.2243
   -20.2209 -20.2206 -20.2206 -20.2205 -20.2198 -20.2196 -20.2196 -20.2194
   -10.1013  -9.8984  -9.7289  -9.7289  -9.3708  -9.3708  -9.1196  -9.1074
    -8.5003  -8.3826  -8.3826  -8.3582  -8.1452  -8.0972  -8.0557  -8.0557
    -7.8153  -7.8123  -7.7658  -7.7658  -7.3861  -7.3145  -7.3145  -7.2472
     0.8894   0.8968   1.0293   1.0293   1.2582   1.2582   1.3740   1.3964
     2.0661   2.0753   2.0753   2.0903   2.1021   2.2111   2.5827   2.6323
     2.6607   2.6607   3.9191   3.9191   4.0575   4.1457   4.2164   4.2164
     4.4571   4.4571   4.9234   5.0918   5.1360   5.3404   5.3404   5.3946
     5.4690   5.4690   5.5350   5.6198   5.6198   5.6608   5.7149   5.7483
     5.7483   5.8734   5.8986   5.9781   5.9781   6.0288   6.0508   6.2611
     6.3527   6.4232   6.6411   6.6411   6.6795   6.7419   6.7419   6.8776
     7.0156   7.0156   7.0394   7.1695   7.1695   7.2121   7.2726   7.2793
     7.3079   7.3079   8.1707   8.1915   8.2515   8.3775   8.3775   8.3878
     9.6984   9.7300   9.9386   9.9386   9.9932  10.2335  12.4802  12.4809
[...]
W        0.223919999   0.208291609   0.750740013    0   0   0
W        0.750739991   0.791708362   0.776080001    0   0   0
W        0.723920009   0.291708393   0.749259987    0   0   0
W        0.250740013   0.708291607   0.723919999    0   0   0
W       -0.223920015   0.208291609  -0.750739997    0   0   0
W        0.249259987   0.791708362   0.223920009    0   0   0
O        0.278679984   0.026955401   0.270799982    0   0   0
O       -0.270799996   0.973044646  -0.721320032    0   0   0
O        0.221320032   0.473044588   0.770799996    0   0   0
O        0.770799982   0.526955408   0.778679968    0   0   0
O        0.721320018   0.026955401   0.729199988    0   0   0
O        0.270800012   0.973044646   0.721320016    0   0   0
O       -0.221320032   0.473044588  -0.770799996    0   0   0
O        0.229200004   0.526955408   0.221320018    0   0   0
O        0.490770063   0.280920004   0.750443739    0   0   0
O        0.498109997   0.730159978   0.749556285    0   0   0
O       -0.990770112   0.219079965   1.250443730    0   0   0
O        0.001889944   0.769839993   0.249556315    0   0   0
O        0.509229937   0.280920004   0.249556315    0   0   0
O        0.501890003   0.730159978   1.250443730    0   0   0
O       -0.009229963   0.219079965   0.749556285    0   0   0
O       -1.001890019   0.769839993   0.750443739    0   0   0
O        0.750443801   0.230159977   2.001890003    0   0   0
O        0.249556303   0.719079966   0.490770047    0   0   0
O        0.749556256   0.269839992   0.501889954    0   0   0
O        0.250443756   0.780920005   1.990770063    0   0   0
O        0.249556303   0.230159977   0.998110007    0   0   0
O        0.750443801   0.719079966   0.509229888    0   0   0
O        0.250443756   0.269839992   0.498109981    0   0   0
O        0.749556256   0.780920005   1.009229947    0   0   0
End final coordinates

     A final scf calculation at the relaxed structure.
     The G-vectors are recalculated for the final unit cell
     Results may differ from those at the preceding step.

     bravais-lattice index     =            0
     lattice parameter (alat)  =      13.8397  a.u.
     unit-cell volume          =    2820.3754 (a.u.)^3
     number of atoms/cell      =           32
     number of atomic types    =            2
     number of electrons       =       368.00
     number of Kohn-Sham states=          221
     kinetic-energy cutoff     =     120.0000  Ry
     charge density cutoff     =     480.0000  Ry
     convergence threshold     =      1.0E-10
     mixing beta               =       0.7000
     number of iterations used =            8  plain     mixing
     Exchange-correlation      = SLA PW NOGX NOGC ( 1  4  0  0 0 0)

     celldm(1)=  13.839685  celldm(2)=   0.000000  celldm(3)=   0.000000
     celldm(4)=   0.000000  celldm(5)=   0.000000  celldm(6)=   0.000000

     crystal axes: (cart. coord. in units of alat)
               a(1) = (   1.019039   0.000000   0.000000 )
               a(2) = (   0.000000   1.024583   0.000000 )
               a(3) = (   0.000000   0.000000   1.019039 )

     reciprocal axes: (cart. coord. in units 2 pi/alat)
               b(1) = (  0.981317  0.000000  0.000000 )
               b(2) = (  0.000000  0.976007  0.000000 )
               b(3) = (  0.000000  0.000000  0.981317 )

     PseudoPot. # 1 for W  read from file:
     /cluster/scratch/mnoe/QE/pps/W_ONCV_LDA-4.0.upf
     MD5 check sum: ba0307d5d4cd419d6f1d13dc49d7c13a
     Pseudo is Norm-conserving + core correction, Zval = 28.0
     Generated using ONCVPSP code by D. R. Hamann
     Using radial grid of 1380 points,  8 beta functions with:
                l(1) =   0
                l(2) =   0
                l(3) =   1
                l(4) =   1
                l(5) =   2
                l(6) =   2
                l(7) =   3
                l(8) =   3

     PseudoPot. # 2 for O  read from file:
     /cluster/scratch/mnoe/QE/pps/O_ONCV_LDA-3.0.upf
     MD5 check sum: a1bd6164e7280c17a38c229939bfbd54
     Pseudo is Norm-conserving + core correction, Zval =  6.0
     Generated using ONCVPSP code by D. R. Hamann
     Using radial grid of  926 points,  5 beta functions with:
                l(1) =   0
                l(2) =   0
                l(3) =   1
                l(4) =   1
                l(5) =   2

     atomic species   valence    mass     pseudopotential
        W             28.00   183.84000     W ( 1.00)
        O              6.00    15.99940     O ( 1.00)

      8 Sym. Ops. (no inversion) found ( 4 have fractional translation)

   Cartesian axes

     site n.     atom                  positions (alat units)
         1           W   tau(   1) = (   0.2813362   0.2988794   0.2555137  )
         2           W   tau(   2) = (  -0.2555137   0.7257033  -0.7377024  )
         3           W   tau(   3) = (   0.2281831   0.2134120   0.7650330  )
         4           W   tau(   4) = (   0.7650330   0.8111707   0.7908554  )
         5           W   tau(   5) = (   0.7377024   0.2988794   0.7635248  )
         6           W   tau(   6) = (   0.2555137   0.7257033   0.7377024  )
         7           W   tau(   7) = (  -0.2281831   0.2134120  -0.7650330  )
         8           W   tau(   8) = (   0.2540055   0.8111707   0.2281831  )
         9           O   tau(   9) = (   0.2839857   0.0276180   0.2759556  )
        10           O   tau(  10) = (  -0.2759556   0.9969647  -0.7350529  )
        11           O   tau(  11) = (   0.2255336   0.4846733   0.7854749  )
        12           O   tau(  12) = (   0.7854749   0.5399094   0.7935049  )
        13           O   tau(  13) = (   0.7350529   0.0276180   0.7430829  )
        14           O   tau(  14) = (   0.2759557   0.9969647   0.7350529  )
        15           O   tau(  15) = (  -0.2255336   0.4846733  -0.7854749  )
        16           O   tau(  16) = (   0.2335636   0.5399094   0.2255336  )
        17           O   tau(  17) = (   0.5001136   0.2878258   0.7647311  )
        18           O   tau(  18) = (   0.5075933   0.7481093   0.7638268  )
        19           O   tau(  19) = (  -1.0096330   0.2244655   1.2742504  )
        20           O   tau(  20) = (   0.0019259   0.7887648   0.2543075  )
        21           O   tau(  21) = (   0.5189249   0.2878258   0.2543075  )
        22           O   tau(  22) = (   0.5114453   0.7481093   1.2742504  )
        23           O   tau(  23) = (  -0.0094057   0.2244655   0.7638268  )
        24           O   tau(  24) = (  -1.0209646   0.7887648   0.7647311  )
        25           O   tau(  25) = (   0.7647312   0.2358179   2.0400031  )
        26           O   tau(  26) = (   0.2543075   0.7367569   0.5001136  )
        27           O   tau(  27) = (   0.7638267   0.2764734   0.5114452  )
        28           O   tau(  28) = (   0.2552118   0.8001172   2.0286715  )
        29           O   tau(  29) = (   0.2543075   0.2358179   1.0171126  )
        30           O   tau(  30) = (   0.7647312   0.7367569   0.5189249  )
        31           O   tau(  31) = (   0.2552118   0.2764734   0.5075933  )
        32           O   tau(  32) = (   0.7638267   0.8001172   1.0284442  )

     number of k points=    40  gaussian smearing, width (Ry)=  0.0007
                       cart. coord. in units 2pi/alat
        k(    1) = (   0.0000000   0.0000000   0.0000000), wk =   0.0092593
        k(    2) = (   0.0000000   0.0000000   0.1635529), wk =   0.0370370
        k(    3) = (   0.0000000   0.0000000   0.3271057), wk =   0.0370370
        k(    4) = (   0.0000000   0.0000000  -0.4906586), wk =   0.0185185
        k(    5) = (   0.0000000   0.1626678   0.0000000), wk =   0.0185185
        k(    6) = (   0.0000000   0.1626678   0.1635529), wk =   0.0740741
        k(    7) = (   0.0000000   0.1626678   0.3271057), wk =   0.0740741
        k(    8) = (   0.0000000   0.1626678  -0.4906586), wk =   0.0370370
        k(    9) = (   0.0000000   0.3253357   0.0000000), wk =   0.0185185
        k(   10) = (   0.0000000   0.3253357   0.1635529), wk =   0.0740741
        k(   11) = (   0.0000000   0.3253357   0.3271057), wk =   0.0740741
        k(   12) = (   0.0000000   0.3253357  -0.4906586), wk =   0.0370370
        k(   13) = (   0.0000000  -0.4880035   0.0000000), wk =   0.0092593
        k(   14) = (   0.0000000  -0.4880035   0.1635529), wk =   0.0370370
        k(   15) = (   0.0000000  -0.4880035   0.3271057), wk =   0.0370370
        k(   16) = (   0.0000000  -0.4880035  -0.4906586), wk =   0.0185185
        k(   17) = (   0.1635529   0.0000000   0.1635529), wk =   0.0370370
        k(   18) = (   0.1635529   0.0000000   0.3271057), wk =   0.0740741
        k(   19) = (   0.1635529   0.0000000  -0.4906586), wk =   0.0370370
        k(   20) = (   0.1635529   0.1626678   0.1635529), wk =   0.0740741
        k(   21) = (   0.1635529   0.1626678   0.3271057), wk =   0.1481481
        k(   22) = (   0.1635529   0.1626678  -0.4906586), wk =   0.0740741
        k(   23) = (   0.1635529   0.3253357   0.1635529), wk =   0.0740741
        k(   24) = (   0.1635529   0.3253357   0.3271057), wk =   0.1481481
        k(   25) = (   0.1635529   0.3253357  -0.4906586), wk =   0.0740741
        k(   26) = (   0.1635529  -0.4880035   0.1635529), wk =   0.0370370
        k(   27) = (   0.1635529  -0.4880035   0.3271057), wk =   0.0740741
        k(   28) = (   0.1635529  -0.4880035  -0.4906586), wk =   0.0370370
        k(   29) = (   0.3271057   0.0000000   0.3271057), wk =   0.0370370
        k(   30) = (   0.3271057   0.0000000  -0.4906586), wk =   0.0370370
        k(   31) = (   0.3271057   0.1626678   0.3271057), wk =   0.0740741
        k(   32) = (   0.3271057   0.1626678  -0.4906586), wk =   0.0740741
        k(   33) = (   0.3271057   0.3253357   0.3271057), wk =   0.0740741
        k(   34) = (   0.3271057   0.3253357  -0.4906586), wk =   0.0740741
        k(   35) = (   0.3271057  -0.4880035   0.3271057), wk =   0.0370370
        k(   36) = (   0.3271057  -0.4880035  -0.4906586), wk =   0.0370370
        k(   37) = (  -0.4906586   0.0000000  -0.4906586), wk =   0.0092593
        k(   38) = (  -0.4906586   0.1626678  -0.4906586), wk =   0.0185185
        k(   39) = (  -0.4906586   0.3253357  -0.4906586), wk =   0.0185185
        k(   40) = (  -0.4906586  -0.4880035  -0.4906586), wk =   0.0092593

     Initial potential from superposition of free atoms

     starting charge  367.99656, renormalised to  368.00000
     Starting wfc are  232 randomized atomic wfcs

     Writing output data file Landau_29.save

     Self-consistent Calculation

[...]

     total energy              =   -6260.99045300 Ry
     Harris-Foulkes estimate   =   -6260.99045300 Ry
     estimated scf accuracy    <          9.0E-10 Ry

     iteration # 14     ecut=   120.00 Ry     beta= 0.70
     Davidson diagonalization with overlap
     ethr =  2.45E-13,  avg # of iterations =  2.0

     End of self-consistent calculation

[...]

          k = 0.3271-0.4880-0.4907 ( 62576 PWs)   bands (ev):

[...]

          k =-0.4907-0.4880-0.4907 ( 62592 PWs)   bands (ev):

   -66.2261 -66.2261 -66.2261 -66.2260 -66.2260 -66.2260 -66.2260 -66.2260
   -30.6563 -30.6563 -30.6559 -30.6559 -30.6559 -30.6558 -30.6554 -30.6554
   -30.5047 -30.5047 -30.5040 -30.5040 -30.5040 -30.5039 -30.5028 -30.5028
   -30.4811 -30.4811 -30.4794 -30.4794 -30.4794 -30.4794 -30.4782 -30.4782
   -20.4000 -20.4000 -20.4000 -20.4000 -20.3999 -20.3999 -20.3999 -20.3999
   -20.3895 -20.3895 -20.3895 -20.3895 -20.3893 -20.3893 -20.3893 -20.3893
   -20.3639 -20.3639 -20.3639 -20.3639 -20.3638 -20.3638 -20.3638 -20.3638
   -20.3621 -20.3621 -20.3620 -20.3620 -20.3619 -20.3619 -20.3619 -20.3619
   -20.3430 -20.3430 -20.3422 -20.3422 -20.3422 -20.3422 -20.3416 -20.3416
   -20.3409 -20.3409 -20.3403 -20.3403 -20.3403 -20.3403 -20.3396 -20.3395
   -20.3298 -20.3298 -20.3297 -20.3297 -20.3297 -20.3297 -20.3297 -20.3297
    -9.1143  -9.1143  -9.0735  -9.0735  -9.0735  -9.0735  -9.0384  -9.0384
    -8.5150  -8.5150  -8.4624  -8.4624  -8.4624  -8.4624  -8.4045  -8.4045
    -8.2727  -8.2727  -8.2552  -8.2552  -8.2552  -8.2552  -8.2355  -8.2355
     2.6689   2.6689   2.6689   2.6689   2.6984   2.6984   2.7460   2.7460
     3.0904   3.0904   3.1002   3.1002   3.1277   3.1277   3.1277   3.1277
     3.1490   3.1490   3.3769   3.3769   3.3769   3.3769   3.4659   3.4659
     4.0627   4.0627   4.1159   4.1159   4.1159   4.1159   4.1160   4.1160
     4.2774   4.2774   4.3270   4.3270   4.3270   4.3271   4.3787   4.3787
     4.5405   4.5405   4.5642   4.5642   4.5642   4.5642   4.6540   4.6540
     7.0912   7.0912   7.1639   7.1639   7.1639   7.1639   7.2067   7.2067
     7.2806   7.2806   7.2806   7.2806   7.3313   7.3313   7.4756   7.4756
     7.6636   7.6636   7.6817   7.6817   7.6817   7.6817   7.6858   7.6858
    11.9204  11.9204  11.9262  11.9262  11.9457  11.9457  11.9457  11.9457
    12.1265  12.1265  12.1752  12.1752  12.2081  12.2081  12.2081  12.2081
    12.4206  12.4206  12.4581  12.4581  12.4581  12.4581  12.4770  12.4770
    16.6816  16.6816  16.7240  16.7240  16.7240  16.7240  17.0675  17.0675
    17.1837  17.1837  17.2846  17.2846  17.2846

     the Fermi energy is     8.7721 ev

!    total energy              =   -6260.99045300 Ry
     Harris-Foulkes estimate   =   -6260.99045300 Ry
     estimated scf accuracy    <          6.8E-11 Ry

     The total energy is the sum of the following terms:

     one-electron contribution =   -4732.45779184 Ry
     hartree contribution      =    2602.29787480 Ry
     xc contribution           =    -965.67798655 Ry
     ewald contribution        =   -3165.15254942 Ry
     smearing contrib. (-TS)   =      -0.00000000 Ry

     convergence has been achieved in  14 iterations

     Forces acting on atoms (cartesian axes, Ry/au):

     atom    1 type  1   force =    -0.04834342    0.00450109    0.00014525
     atom    2 type  1   force =    -0.00014525   -0.00450109   -0.04834342
     atom    3 type  1   force =     0.04834342   -0.00450109    0.00014525
     atom    4 type  1   force =     0.00014525    0.00450109   -0.04834342
     atom    5 type  1   force =     0.04834342    0.00450109   -0.00014525
     atom    6 type  1   force =     0.00014525   -0.00450109    0.04834342
     atom    7 type  1   force =    -0.04834342   -0.00450109   -0.00014525
     atom    8 type  1   force =    -0.00014525    0.00450109    0.04834342
     atom    9 type  2   force =    -0.00075531   -0.08335212   -0.01376198
     atom   10 type  2   force =     0.01376198    0.08335212   -0.00075531
     atom   11 type  2   force =     0.00075531    0.08335212   -0.01376198
     atom   12 type  2   force =    -0.01376198   -0.08335212   -0.00075531
     atom   13 type  2   force =     0.00075531   -0.08335212    0.01376198
     atom   14 type  2   force =    -0.01376198    0.08335212    0.00075531
     atom   15 type  2   force =    -0.00075531    0.08335212    0.01376198
     atom   16 type  2   force =     0.01376198   -0.08335212    0.00075531
     atom   17 type  2   force =    -0.03050205    0.00237871    0.00327527
     atom   18 type  2   force =     0.00604207   -0.00935676    0.00446819
     atom   19 type  2   force =     0.03050205   -0.00237871    0.00327527
     atom   20 type  2   force =    -0.00604207    0.00935676    0.00446819
     atom   21 type  2   force =     0.03050205    0.00237871   -0.00327527
     atom   22 type  2   force =    -0.00604207   -0.00935676   -0.00446819
     atom   23 type  2   force =    -0.03050205   -0.00237871   -0.00327527
     atom   24 type  2   force =     0.00604207    0.00935676   -0.00446819
     atom   25 type  2   force =    -0.00446819   -0.00935676   -0.00604207
     atom   26 type  2   force =    -0.00327527   -0.00237871   -0.03050205
     atom   27 type  2   force =     0.00446819    0.00935676   -0.00604207
     atom   28 type  2   force =     0.00327527    0.00237871   -0.03050205
     atom   29 type  2   force =     0.00446819   -0.00935676    0.00604207
     atom   30 type  2   force =     0.00327527   -0.00237871    0.03050205
     atom   31 type  2   force =    -0.00446819    0.00935676    0.00604207
     atom   32 type  2   force =    -0.00327527    0.00237871    0.03050205

     Total force =     0.000000     Total SCF correction =     0.000000

     Computing stress (Cartesian axis) and pressure

          total   stress  (Ry/bohr**3)                   (kbar)     P=    0.88
   0.00000954   0.00000000   0.00000000          1.40      0.00      0.00
   0.00000000  -0.00000105   0.00000000          0.00     -0.15      0.00
   0.00000000   0.00000000   0.00000954          0.00      0.00      1.40

     Writing output data file Landau_29.save

     General routines

     Parallel routines

   This run was terminated on:  20:46:58  28Feb2020

   JOB DONE.