     Program PWSCF v.6.4.1 starts on 19Nov2019 at 18:31:38

     K-points division:     npool     =      40
     Reading input from rscf.in

     Current dimensions of program PWSCF are:
     Max number of different atomic species (ntypx) = 10
     Max number of k-points (npk) =  40000
     Max angular momentum in pseudopotentials (lmaxx) =  3

     Subspace diagonalization in iterative solution of the eigenvalue problem:
     a serial algorithm will be used

     Message from routine setup:
     using ibrav=0 with symmetry is DISCOURAGED, use correct ibrav instead

     bravais-lattice index     =            0
     lattice parameter (alat)  =       9.7849  a.u.
     unit-cell volume          =    1402.1515 (a.u.)^3
     number of atoms/cell      =           16
     number of atomic types    =            2
     number of electrons       =       184.00
     number of Kohn-Sham states=          110
     kinetic-energy cutoff     =     120.0000  Ry
     charge density cutoff     =     480.0000  Ry
     convergence threshold     =      1.0E-08
     mixing beta               =       0.7000
     number of iterations used =            8  plain     mixing
     Exchange-correlation      = SLA PW NOGX NOGC ( 1  4  0  0 0 0)
     nstep                     =           50

     celldm(1)=   9.784926  celldm(2)=   0.000000  celldm(3)=   0.000000
     celldm(4)=   0.000000  celldm(5)=   0.000000  celldm(6)=   0.000000

     crystal axes: (cart. coord. in units of alat)
               a(1) = (   1.000000   0.000000   0.000000 )
               a(2) = (   0.000000   1.000000   0.000000 )
               a(3) = (   0.000000   0.000000   1.496657 )

     reciprocal axes: (cart. coord. in units 2 pi/alat)
               b(1) = (  1.000000  0.000000  0.000000 )
               b(2) = (  0.000000  1.000000  0.000000 )
               b(3) = (  0.000000  0.000000  0.668156 )

     PseudoPot. # 1 for W  read from file:
     /cluster/scratch/mnoe/QE/pps/W_ONCV_LDA-4.0.upf
     MD5 check sum: ba0307d5d4cd419d6f1d13dc49d7c13a
     Pseudo is Norm-conserving + core correction, Zval = 28.0
     Generated using ONCVPSP code by D. R. Hamann
     Using radial grid of 1380 points,  8 beta functions with:
                l(1) =   0
                l(2) =   0
                l(3) =   1
                l(4) =   1
                l(5) =   2
                l(6) =   2
                l(7) =   3
                l(8) =   3

     PseudoPot. # 2 for O  read from file:
     /cluster/scratch/mnoe/QE/pps/O_ONCV_LDA-3.0.upf
     MD5 check sum: b55cdb4f45ae2203d24ad12cf8d61a31
     Pseudo is Norm-conserving + core correction, Zval =  6.0
     Generated using ONCVPSP code by D. R. Hamann
     Using radial grid of  926 points,  5 beta functions with:
                l(1) =   0
                l(2) =   0
                l(3) =   1
                l(4) =   1
                l(5) =   2

     atomic species   valence    mass     pseudopotential
        W             28.00   183.84000     W ( 1.00)
        O              6.00    15.99940     O ( 1.00)

     16 Sym. Ops., with inversion, found (14 have fractional translation)

   Cartesian axes

     site n.     atom                  positions (alat units)
         1           W   tau(   1) = (   0.2500000   0.2500000   0.3178130  )
         2           W   tau(   2) = (   0.7500000   0.7500000   1.1788441  )
         3           W   tau(   3) = (   0.7500000   0.7500000   0.4305156  )
         4           W   tau(   4) = (   0.2500000   0.2500000   1.0661414  )
         5           O   tau(   5) = (   0.2500000   0.2500000   0.7195150  )
         6           O   tau(   6) = (   0.7500000   0.7500000   0.7771420  )
         7           O   tau(   7) = (   0.7500000   0.7500000   0.0288135  )
         8           O   tau(   8) = (   0.2500000   0.2500000   1.4678435  )
         9           O   tau(   9) = (   0.4792520   0.5207480   0.3741643  )
        10           O   tau(  10) = (   0.5207480   0.4792520   1.1224928  )
        11           O   tau(  11) = (   0.0207480   0.9792520   0.3741643  )
        12           O   tau(  12) = (   0.9792520   0.0207480   1.1224928  )
        13           O   tau(  13) = (   0.9792520   0.4792520   0.3741643  )
        14           O   tau(  14) = (   0.0207480   0.5207480   1.1224928  )
        15           O   tau(  15) = (   0.5207480   0.0207480   0.3741643  )
        16           O   tau(  16) = (   0.4792520   0.9792520   1.1224928  )

     number of k points=    40  gaussian smearing, width (Ry)=  0.0007
                       cart. coord. in units 2pi/alat
        k(    1) = (   0.0000000   0.0000000   0.0000000), wk =   0.0092593
        k(    2) = (   0.0000000   0.0000000   0.1113593), wk =   0.0185185
        k(    3) = (   0.0000000   0.0000000   0.2227186), wk =   0.0185185
        k(    4) = (   0.0000000   0.0000000  -0.3340779), wk =   0.0092593
        k(    5) = (   0.0000000   0.1666667   0.0000000), wk =   0.0370370
        k(    6) = (   0.0000000   0.1666667   0.1113593), wk =   0.0740741
        k(    7) = (   0.0000000   0.1666667   0.2227186), wk =   0.0740741
        k(    8) = (   0.0000000   0.1666667  -0.3340779), wk =   0.0370370
        k(    9) = (   0.0000000   0.3333333   0.0000000), wk =   0.0370370
        k(   10) = (   0.0000000   0.3333333   0.1113593), wk =   0.0740741
        k(   11) = (   0.0000000   0.3333333   0.2227186), wk =   0.0740741
        k(   12) = (   0.0000000   0.3333333  -0.3340779), wk =   0.0370370
        k(   13) = (   0.0000000  -0.5000000   0.0000000), wk =   0.0185185
        k(   14) = (   0.0000000  -0.5000000   0.1113593), wk =   0.0370370
        k(   15) = (   0.0000000  -0.5000000   0.2227186), wk =   0.0370370
        k(   16) = (   0.0000000  -0.5000000  -0.3340779), wk =   0.0185185
        k(   17) = (   0.1666667   0.1666667   0.0000000), wk =   0.0370370
        k(   18) = (   0.1666667   0.1666667   0.1113593), wk =   0.0740741
        k(   19) = (   0.1666667   0.1666667   0.2227186), wk =   0.0740741
        k(   20) = (   0.1666667   0.1666667  -0.3340779), wk =   0.0370370
        k(   21) = (   0.1666667   0.3333333   0.0000000), wk =   0.0740741
        k(   22) = (   0.1666667   0.3333333   0.1113593), wk =   0.1481481
        k(   23) = (   0.1666667   0.3333333   0.2227186), wk =   0.1481481
        k(   24) = (   0.1666667   0.3333333  -0.3340779), wk =   0.0740741
        k(   25) = (   0.1666667  -0.5000000   0.0000000), wk =   0.0370370
        k(   26) = (   0.1666667  -0.5000000   0.1113593), wk =   0.0740741
        k(   27) = (   0.1666667  -0.5000000   0.2227186), wk =   0.0740741
        k(   28) = (   0.1666667  -0.5000000  -0.3340779), wk =   0.0370370
        k(   29) = (   0.3333333   0.3333333   0.0000000), wk =   0.0370370
        k(   30) = (   0.3333333   0.3333333   0.1113593), wk =   0.0740741
        k(   31) = (   0.3333333   0.3333333   0.2227186), wk =   0.0740741
        k(   32) = (   0.3333333   0.3333333  -0.3340779), wk =   0.0370370
        k(   33) = (   0.3333333  -0.5000000   0.0000000), wk =   0.0370370
        k(   34) = (   0.3333333  -0.5000000   0.1113593), wk =   0.0740741
        k(   35) = (   0.3333333  -0.5000000   0.2227186), wk =   0.0740741
        k(   36) = (   0.3333333  -0.5000000  -0.3340779), wk =   0.0370370
        k(   37) = (  -0.5000000  -0.5000000   0.0000000), wk =   0.0092593
        k(   38) = (  -0.5000000  -0.5000000   0.1113593), wk =   0.0185185
        k(   39) = (  -0.5000000  -0.5000000   0.2227186), wk =   0.0185185
        k(   40) = (  -0.5000000  -0.5000000  -0.3340779), wk =   0.0092593

     Initial potential from superposition of free atoms

     starting charge  183.99828, renormalised to  184.00000
     Starting wfcs are  116 randomized atomic wfcs

     Self-consistent Calculation

     iteration #  1     ecut=   120.00 Ry     beta= 0.70
     Davidson diagonalization with overlap
     ethr =  1.00E-02,  avg # of iterations =  4.2

     total energy              =   -3126.96426120 Ry
     Harris-Foulkes estimate   =   -3132.28124136 Ry
     estimated scf accuracy    <       6.74166092 Ry

[...]

     End of self-consistent calculation

          k = 0.0000 0.0000 0.0000 ( 31095 PWs)   bands (ev):

   -66.1377 -66.1373 -66.1360 -66.1356 -30.5394 -30.5394 -30.5361 -30.5361
   -30.4602 -30.4546 -30.4438 -30.4438 -30.4412 -30.4412 -30.4007 -30.3964
   -20.2866 -20.2866 -20.2866 -20.2865 -20.2717 -20.2717 -20.2716 -20.2716
   -20.2696 -20.2696 -20.2695 -20.2695 -20.2606 -20.2605 -20.2566 -20.2565
   -20.2564 -20.2563 -20.2548 -20.2547 -20.2543 -20.2543 -20.2531 -20.2531
   -20.2502 -20.2502 -20.2490 -20.2490 -10.0680  -9.8183  -9.1867  -9.1682
    -8.9241  -8.7322  -7.7319  -7.7319  -7.7115  -7.7115  -7.6797  -7.5531
     0.8639   0.8648   1.2527   1.3367   1.6771   1.7196   2.2460   2.3374
     2.5738   2.5738   3.9860   3.9860   4.9777   5.1000   5.1000   5.6042
     5.6042   5.6990   5.6990   5.9282   6.0257   6.0257   6.1305   6.8035
     6.8035   6.8142   7.0452   7.1808   7.1808   7.1834   7.2131   7.2131
     8.2894   8.2915   8.3006   8.3006   9.0185   9.0209   9.7819   9.7819
    12.3853  12.3853  13.6035  13.6035  13.6587  13.8027  13.8103  14.3420
    14.3420  14.7347  14.9444  14.9490  15.4859  16.8105

[...]

          k =-0.5000-0.5000 0.0000 ( 31144 PWs)   bands (ev):

[...]

     the Fermi energy is     8.9745 ev

!    total energy              =   -3130.52175208 Ry
     Harris-Foulkes estimate   =   -3130.52175208 Ry
     estimated scf accuracy    <          8.0E-09 Ry

     The total energy is the sum of the following terms:

     one-electron contribution =   -2382.76250261 Ry
     hartree contribution      =    1309.94544555 Ry
     xc contribution           =    -483.10098092 Ry
     ewald contribution        =   -1574.60371410 Ry
     smearing contrib. (-TS)   =      -0.00000000 Ry

     convergence has been achieved in  12 iterations

     Forces acting on atoms (cartesian axes, Ry/au):

     atom    1 type  1   force =     0.00000000    0.00000000   -0.04545126
     atom    2 type  1   force =     0.00000000    0.00000000    0.04545126
     atom    3 type  1   force =     0.00000000    0.00000000    0.04545126
     atom    4 type  1   force =     0.00000000    0.00000000   -0.04545126
     atom    5 type  2   force =     0.00000000    0.00000000    0.06754633
     atom    6 type  2   force =     0.00000000    0.00000000   -0.06754633
     atom    7 type  2   force =     0.00000000    0.00000000   -0.06754633
     atom    8 type  2   force =     0.00000000    0.00000000    0.06754633
     atom    9 type  2   force =    -0.00478867    0.00478867    0.00000000
     atom   10 type  2   force =     0.00478867   -0.00478867    0.00000000
     atom   11 type  2   force =     0.00478867   -0.00478867    0.00000000
     atom   12 type  2   force =    -0.00478867    0.00478867    0.00000000
     atom   13 type  2   force =    -0.00478867   -0.00478867    0.00000000
     atom   14 type  2   force =     0.00478867    0.00478867    0.00000000
     atom   15 type  2   force =     0.00478867    0.00478867    0.00000000
[...]

     new trust radius        =       0.1143239179 bohr
     new conv_thr            =       0.0000000100 Ry

     new unit-cell volume =   1434.33715 a.u.^3 (   212.54683 Ang^3 )
     density =      7.24502 g/cm^3

CELL_PARAMETERS (angstrom)
   5.257003812   0.000000000   0.000000000
   0.000000000   5.257003812   0.000000000
   0.000000000   0.000000000   7.690915769

ATOMIC_POSITIONS (crystal)
W        0.250000000   0.250000000   0.212348554    0   0   0
W        0.750000023   0.750000023   0.787651461    0   0   0
W        0.750000023   0.750000023   0.287651461    0   0   0
W        0.250000000   0.250000000   0.712348539    0   0   0
O        0.250000000   0.250000000   0.480748088    0   0   0
O        0.750000023   0.750000023   0.519251912    0   0   0
O        0.750000023   0.750000023   0.019251925    0   0   0
O        0.250000000   0.250000000   0.980748088    0   0   0
O        0.479252001   0.520747953   0.250000000    0   0   0
O        0.520747999   0.479252047   0.750000000    0   0   0
O        0.020747982   0.979252047   0.250000000    0   0   0
O        0.979251955   0.020748016   0.750000000    0   0   0
O        0.979252047   0.479252001   0.250000000    0   0   0
O        0.020748016   0.520747999   0.750000000    0   0   0
O        0.520747953   0.020747982   0.250000000    0   0   0
O        0.479252047   0.979251955   0.750000000    0   0   0

     Writing output data file Landau_17.save/
     NEW-OLD atomic charge density approx. for the potential
     extrapolated charge  188.12881, renormalised to  184.00000

[...]

     enthalpy old            =   -3130.5217520754 Ry
     enthalpy new            =   -3130.5340574973 Ry

     CASE: enthalpy_new < enthalpy_old

[...]

     Threshold (ethr) on eigenvalues was too large:
     Diagonalizing with lowered threshold

     Davidson diagonalization with overlap
     ethr =  2.83E-11,  avg # of iterations =  4.0

[...]

     number of scf cycles    =   5
     number of bfgs steps    =   4

     enthalpy old            =   -3130.5346164755 Ry
     enthalpy new            =   -3130.5346165967 Ry

     CASE: enthalpy_new < enthalpy_old

     small trust_radius: resetting bfgs history

     new trust radius        =       0.0000033187 bohr
     new conv_thr            =            1.0E-10 Ry

     new unit-cell volume =   1424.88656 a.u.^3 (   211.14640 Ang^3 )
     density =      7.29307 g/cm^3

[...]

ATOMIC_POSITIONS (crystal)
W        0.250000000   0.250000000   0.212348554    0   0   0
W        0.750000023   0.750000023   0.787651461    0   0   0
W        0.750000023   0.750000023   0.287651461    0   0   0
W        0.250000000   0.250000000   0.712348539    0   0   0
O        0.250000000   0.250000000   0.480748088    0   0   0
O        0.750000023   0.750000023   0.519251912    0   0   0
O        0.750000023   0.750000023   0.019251925    0   0   0
O        0.250000000   0.250000000   0.980748088    0   0   0
O        0.479252001   0.520747953   0.250000000    0   0   0
O        0.520747999   0.479252047   0.750000000    0   0   0
O        0.020747982   0.979252047   0.250000000    0   0   0
O        0.979251955   0.020748016   0.750000000    0   0   0
O        0.979252047   0.479252001   0.250000000    0   0   0
O        0.020748016   0.520747999   0.750000000    0   0   0
O        0.520747953   0.020747982   0.250000000    0   0   0
O        0.479252047   0.979251955   0.750000000    0   0   0

     Writing output data file Landau_17.save/
     NEW-OLD atomic charge density approx. for the potential
     extrapolated charge  183.99989, renormalised to  184.00000

[...]

     Threshold (ethr) on eigenvalues was too large:
     Diagonalizing with lowered threshold

     Davidson diagonalization with overlap
     ethr =  1.27E-12,  avg # of iterations =  2.8

[...]

     bfgs converged in   6 scf cycles and   5 bfgs steps
     (criteria: energy <  1.0E-07 Ry, force <  1.0E-07Ry/Bohr, cell <  5.0E-01kbar)

     End of BFGS Geometry Optimization

     Final enthalpy =   -3130.5346165968 Ry
Begin final coordinates
     new unit-cell volume =   1424.88656 a.u.^3 (   211.14640 Ang^3 )
     density =      7.29307 g/cm^3

CELL_PARAMETERS (angstrom)
   5.244646442   0.000000000   0.000000000
   0.000000000   5.244646442   0.000000000
   0.000000000   0.000000000   7.676287843

ATOMIC_POSITIONS (crystal)
W        0.250000000   0.250000000   0.212348554    0   0   0
W        0.750000023   0.750000023   0.787651461    0   0   0
W        0.750000023   0.750000023   0.287651461    0   0   0
W        0.250000000   0.250000000   0.712348539    0   0   0
O        0.250000000   0.250000000   0.480748088    0   0   0
O        0.750000023   0.750000023   0.519251912    0   0   0
O        0.750000023   0.750000023   0.019251925    0   0   0
O        0.250000000   0.250000000   0.980748088    0   0   0
O        0.479252001   0.520747953   0.250000000    0   0   0
O        0.520747999   0.479252047   0.750000000    0   0   0
O        0.020747982   0.979252047   0.250000000    0   0   0
O        0.979251955   0.020748016   0.750000000    0   0   0
O        0.979252047   0.479252001   0.250000000    0   0   0
O        0.020748016   0.520747999   0.750000000    0   0   0
O        0.520747953   0.020747982   0.250000000    0   0   0
O        0.479252047   0.979251955   0.750000000    0   0   0
End final coordinates

     Writing output data file Landau_17.save/

     Final scf calculation at the relaxed structure.
     The G-vectors are recalculated for the final unit cell
     Results may differ from those at the preceding step.

     bravais-lattice index     =            0
     lattice parameter (alat)  =       9.7849  a.u.
     unit-cell volume          =    1424.8866 (a.u.)^3
     number of atoms/cell      =           16
     number of atomic types    =            2
     number of electrons       =       184.00
     number of Kohn-Sham states=          110
     kinetic-energy cutoff     =     120.0000  Ry
     charge density cutoff     =     480.0000  Ry
     convergence threshold     =      1.0E-10
     mixing beta               =       0.7000
     number of iterations used =            8  plain     mixing
     Exchange-correlation      = SLA PW NOGX NOGC ( 1  4  0  0 0 0)

     celldm(1)=   9.784926  celldm(2)=   0.000000  celldm(3)=   0.000000
     celldm(4)=   0.000000  celldm(5)=   0.000000  celldm(6)=   0.000000

     crystal axes: (cart. coord. in units of alat)
               a(1) = (   1.012879   0.000000   0.000000 )
               a(2) = (   0.000000   1.012879   0.000000 )
               a(3) = (   0.000000   0.000000   1.482493 )

     reciprocal axes: (cart. coord. in units 2 pi/alat)
               b(1) = (  0.987285  0.000000  0.000000 )
               b(2) = (  0.000000  0.987285  0.000000 )
               b(3) = (  0.000000  0.000000  0.674540 )

     PseudoPot. # 1 for W  read from file:
     /cluster/scratch/mnoe/QE/pps/W_ONCV_LDA-4.0.upf
     MD5 check sum: ba0307d5d4cd419d6f1d13dc49d7c13a
     Pseudo is Norm-conserving + core correction, Zval = 28.0
     Generated using ONCVPSP code by D. R. Hamann
     Using radial grid of 1380 points,  8 beta functions with:
                l(1) =   0
                l(2) =   0
                l(3) =   1
                l(4) =   1
                l(5) =   2
                l(6) =   2
                l(7) =   3
                l(8) =   3

     PseudoPot. # 2 for O  read from file:
     /cluster/scratch/mnoe/QE/pps/O_ONCV_LDA-3.0.upf
     MD5 check sum: b55cdb4f45ae2203d24ad12cf8d61a31
     Pseudo is Norm-conserving + core correction, Zval =  6.0
     Generated using ONCVPSP code by D. R. Hamann
     Using radial grid of  926 points,  5 beta functions with:
                l(1) =   0
                l(2) =   0
                l(3) =   1
                l(4) =   1
                l(5) =   2

     atomic species   valence    mass     pseudopotential
        W             28.00   183.84000     W ( 1.00)
        O              6.00    15.99940     O ( 1.00)

     16 Sym. Ops., with inversion, found (14 have fractional translation)

   Cartesian axes

     site n.     atom                  positions (alat units)
         1           W   tau(   1) = (   0.2532197   0.2532197   0.3148052  )
         2           W   tau(   2) = (   0.7596592   0.7596592   1.1676876  )
         3           W   tau(   3) = (   0.7596592   0.7596592   0.4264412  )
         4           W   tau(   4) = (   0.2532197   0.2532197   1.0560515  )
         5           O   tau(   5) = (   0.2532197   0.2532197   0.7127055  )
         6           O   tau(   6) = (   0.7596592   0.7596592   0.7697872  )
         7           O   tau(   7) = (   0.7596592   0.7596592   0.0285408  )
         8           O   tau(   8) = (   0.2532197   0.2532197   1.4539519  )
         9           O   tau(   9) = (   0.4854242   0.5274546   0.3706232  )
        10           O   tau(  10) = (   0.5274547   0.4854243   1.1118695  )
        11           O   tau(  11) = (   0.0210152   0.9918638   0.3706232  )
        12           O   tau(  12) = (   0.9918637   0.0210152   1.1118695  )
        13           O   tau(  13) = (   0.9918638   0.4854242   0.3706232  )
        14           O   tau(  14) = (   0.0210152   0.5274547   1.1118695  )
        15           O   tau(  15) = (   0.5274546   0.0210152   0.3706232  )
        16           O   tau(  16) = (   0.4854243   0.9918637   1.1118695  )

     number of k points=    40  gaussian smearing, width (Ry)=  0.0007
                       cart. coord. in units 2pi/alat
        k(    1) = (   0.0000000   0.0000000   0.0000000), wk =   0.0092593
        k(    2) = (   0.0000000   0.0000000   0.1124233), wk =   0.0185185
        k(    3) = (   0.0000000   0.0000000   0.2248465), wk =   0.0185185
        k(    4) = (   0.0000000   0.0000000  -0.3372698), wk =   0.0092593
        k(    5) = (   0.0000000   0.1645475   0.0000000), wk =   0.0370370
        k(    6) = (   0.0000000   0.1645475   0.1124233), wk =   0.0740741
        k(    7) = (   0.0000000   0.1645475   0.2248465), wk =   0.0740741
        k(    8) = (   0.0000000   0.1645475  -0.3372698), wk =   0.0370370
        k(    9) = (   0.0000000   0.3290949   0.0000000), wk =   0.0370370
        k(   10) = (   0.0000000   0.3290949   0.1124233), wk =   0.0740741
        k(   11) = (   0.0000000   0.3290949   0.2248465), wk =   0.0740741
        k(   12) = (   0.0000000   0.3290949  -0.3372698), wk =   0.0370370
        k(   13) = (   0.0000000  -0.4936424   0.0000000), wk =   0.0185185
        k(   14) = (   0.0000000  -0.4936424   0.1124233), wk =   0.0370370
        k(   15) = (   0.0000000  -0.4936424   0.2248465), wk =   0.0370370
        k(   16) = (   0.0000000  -0.4936424  -0.3372698), wk =   0.0185185
        k(   17) = (   0.1645475   0.1645475   0.0000000), wk =   0.0370370
        k(   18) = (   0.1645475   0.1645475   0.1124233), wk =   0.0740741
        k(   19) = (   0.1645475   0.1645475   0.2248465), wk =   0.0740741
        k(   20) = (   0.1645475   0.1645475  -0.3372698), wk =   0.0370370
        k(   21) = (   0.1645475   0.3290949   0.0000000), wk =   0.0740741
        k(   22) = (   0.1645475   0.3290949   0.1124233), wk =   0.1481481
        k(   23) = (   0.1645475   0.3290949   0.2248465), wk =   0.1481481
        k(   24) = (   0.1645475   0.3290949  -0.3372698), wk =   0.0740741
        k(   25) = (   0.1645475  -0.4936424   0.0000000), wk =   0.0370370
        k(   26) = (   0.1645475  -0.4936424   0.1124233), wk =   0.0740741
        k(   27) = (   0.1645475  -0.4936424   0.2248465), wk =   0.0740741
        k(   28) = (   0.1645475  -0.4936424  -0.3372698), wk =   0.0370370
        k(   29) = (   0.3290949   0.3290949   0.0000000), wk =   0.0370370
        k(   30) = (   0.3290949   0.3290949   0.1124233), wk =   0.0740741
        k(   31) = (   0.3290949   0.3290949   0.2248465), wk =   0.0740741
        k(   32) = (   0.3290949   0.3290949  -0.3372698), wk =   0.0370370
        k(   33) = (   0.3290949  -0.4936424   0.0000000), wk =   0.0370370
        k(   34) = (   0.3290949  -0.4936424   0.1124233), wk =   0.0740741
        k(   35) = (   0.3290949  -0.4936424   0.2248465), wk =   0.0740741
        k(   36) = (   0.3290949  -0.4936424  -0.3372698), wk =   0.0370370
        k(   37) = (  -0.4936424  -0.4936424   0.0000000), wk =   0.0092593
        k(   38) = (  -0.4936424  -0.4936424   0.1124233), wk =   0.0185185
        k(   39) = (  -0.4936424  -0.4936424   0.2248465), wk =   0.0185185
        k(   40) = (  -0.4936424  -0.4936424  -0.3372698), wk =   0.0092593

     Initial potential from superposition of free atoms

     starting charge  183.99828, renormalised to  184.00000
     Starting wfcs are  116 randomized atomic wfcs

     Self-consistent Calculation

[...]

     total energy              =   -3130.53480324 Ry
     Harris-Foulkes estimate   =   -3130.53480324 Ry
     estimated scf accuracy    <          2.6E-10 Ry

     iteration # 14     ecut=   120.00 Ry     beta= 0.70
     Davidson diagonalization with overlap
     ethr =  1.44E-13,  avg # of iterations =  2.0

     End of self-consistent calculation

[...]

          k = 0.3291-0.4936-0.3373 ( 31628 PWs)   bands (ev):

[...]

          k =-0.4936-0.4936-0.3373 ( 31624 PWs)   bands (ev):

   -66.4448 -66.4448 -66.4448 -66.4448 -30.7851 -30.7851 -30.7851 -30.7851
   -30.7668 -30.7668 -30.7668 -30.7668 -30.6948 -30.6948 -30.6948 -30.6948
   -20.6104 -20.6104 -20.6103 -20.6103 -20.5986 -20.5986 -20.5986 -20.5986
   -20.5933 -20.5933 -20.5933 -20.5933 -20.5812 -20.5812 -20.5812 -20.5812
   -20.5808 -20.5808 -20.5808 -20.5808 -20.5750 -20.5750 -20.5750 -20.5750
   -20.5714 -20.5714 -20.5714 -20.5714  -9.5848  -9.5848  -9.5848  -9.5848
    -8.6723  -8.6722  -8.6722  -8.6722  -7.9775  -7.9775  -7.9775  -7.9775
     1.0236   1.0237   1.0237   1.0237   2.9184   2.9184   2.9185   2.9185
     3.1599   3.1599   3.1599   3.1599   4.4782   4.4782   4.4782   4.4782
     5.1366   5.1366   5.1366   5.1366   5.8036   5.8036   5.8036   5.8036
     6.0254   6.0254   6.0254   6.0254   6.5125   6.5125   6.5125   6.5125
     7.3106   7.3106   7.3106   7.3106  11.0232  11.0232  11.0232  11.0232
    12.2525  12.2525  12.2525  12.2525  13.4082  13.4082  13.4082  13.4082
    14.9802  14.9802  14.9802  14.9802  17.8583  17.8583

     the Fermi energy is     8.6532 ev

!    total energy              =   -3130.53480324 Ry
     Harris-Foulkes estimate   =   -3130.53480324 Ry
     estimated scf accuracy    <          1.5E-12 Ry

     The total energy is the sum of the following terms:

     one-electron contribution =   -2395.10428285 Ry
     hartree contribution      =    1314.22143802 Ry
     xc contribution           =    -482.85431324 Ry
     ewald contribution        =   -1566.79764518 Ry
     smearing contrib. (-TS)   =      -0.00000000 Ry

     convergence has been achieved in  14 iterations

     Forces acting on atoms (cartesian axes, Ry/au):

     atom    1 type  1   force =     0.00000000    0.00000000   -0.00967420
     atom    2 type  1   force =     0.00000000    0.00000000    0.00967420
     atom    3 type  1   force =     0.00000000    0.00000000    0.00967420
     atom    4 type  1   force =     0.00000000    0.00000000   -0.00967420
     atom    5 type  2   force =     0.00000000    0.00000000    0.05173836
     atom    6 type  2   force =     0.00000000    0.00000000   -0.05173836
     atom    7 type  2   force =     0.00000000    0.00000000   -0.05173836
     atom    8 type  2   force =     0.00000000    0.00000000    0.05173836
     atom    9 type  2   force =    -0.00129883    0.00129883    0.00000000
     atom   10 type  2   force =     0.00129883   -0.00129883    0.00000000
     atom   11 type  2   force =     0.00129883   -0.00129883    0.00000000
     atom   12 type  2   force =    -0.00129883    0.00129883    0.00000000
     atom   13 type  2   force =    -0.00129883   -0.00129883    0.00000000
     atom   14 type  2   force =     0.00129883    0.00129883    0.00000000
     atom   15 type  2   force =     0.00129883    0.00129883    0.00000000
     atom   16 type  2   force =    -0.00129883   -0.00129883    0.00000000

     Total force =     0.000000     Total SCF correction =     0.000000

     Computing stress (Cartesian axis) and pressure

          total   stress  (Ry/bohr**3)                   (kbar)     P=    0.63
   0.00000620   0.00000000   0.00000000          0.91      0.00      0.00
   0.00000000   0.00000620   0.00000000          0.00      0.91      0.00
   0.00000000   0.00000000   0.00000043          0.00      0.00      0.06

     Writing output data file Landau_17.save/

     General routines

     Parallel routines

   This run was terminated on:  19: 2:32  19Nov2019

   JOB DONE.