     Program PWSCF v.6.2 (svn rev. 14038) starts on 28Aug2019 at 21:37:46

     K-points division:     npool     =      64
     Reading input from scf.in

     Current dimensions of program PWSCF are:
     Max number of different atomic species (ntypx) = 10
     Max number of k-points (npk) =  40000
     Max angular momentum in pseudopotentials (lmaxx) =  3

     Subspace diagonalization in iterative solution of the eigenvalue problem:
     a serial algorithm will be used

     bravais-lattice index     =            0
     lattice parameter (alat)  =      13.8371  a.u.
     unit-cell volume          =    2800.5265 (a.u.)^3
     number of atoms/cell      =           32
     number of atomic types    =            2
     number of electrons       =       369.00
     number of Kohn-Sham states=          222
     kinetic-energy cutoff     =     120.0000  Ry
     charge density cutoff     =     480.0000  Ry
     convergence threshold     =      1.0E-08
     mixing beta               =       0.7000
     number of iterations used =            8  plain     mixing
     Exchange-correlation      = SLA PW NOGX NOGC ( 1  4  0  0 0 0)

     celldm(1)=  13.837055  celldm(2)=   0.000000  celldm(3)=   0.000000
     celldm(4)=   0.000000  celldm(5)=   0.000000  celldm(6)=   0.000000

     crystal axes: (cart. coord. in units of alat)
               a(1) = (   1.000000   0.000000   0.000000 )
               a(2) = (   0.000000   1.056180   0.000000 )
               a(3) = (   0.000000   0.000000   1.000854 )

     reciprocal axes: (cart. coord. in units 2 pi/alat)
               b(1) = (  1.000000  0.000000  0.000000 )
               b(2) = (  0.000000  0.946808  0.000000 )
               b(3) = (  0.000000  0.000000  0.999147 )

     PseudoPot. # 1 for W  read from file:
     /cluster/scratch/mnoe/QE/pps/W_ONCV_LDA-4.0.upf
     MD5 check sum: ba0307d5d4cd419d6f1d13dc49d7c13a
     Pseudo is Norm-conserving + core correction, Zval = 28.0
     Generated using ONCVPSP code by D. R. Hamann
     Using radial grid of 1380 points,  8 beta functions with:
                l(1) =   0
                l(2) =   0
                l(3) =   1
                l(4) =   1
                l(5) =   2
                l(6) =   2
                l(7) =   3
                l(8) =   3

     PseudoPot. # 2 for O  read from file:
     /cluster/scratch/mnoe/QE/pps/O_ONCV_LDA-3.0.upf
     MD5 check sum: b55cdb4f45ae2203d24ad12cf8d61a31
     Pseudo is Norm-conserving + core correction, Zval =  6.0
     Generated using ONCVPSP code by D. R. Hamann
     Using radial grid of  926 points,  5 beta functions with:
                l(1) =   0
                l(2) =   0
                l(3) =   1
                l(4) =   1
                l(5) =   2

     atomic species   valence    mass     pseudopotential
        W             28.00   183.84000     W ( 1.00)
        O              6.00    15.99940     O ( 1.00)

      8 Sym. Ops., with inversion, found ( 6 have fractional translation)

   Cartesian axes

     site n.     atom                  positions (alat units)
         1           W   tau(   1) = (   0.2439900   0.2976949   0.0056849  )
         2           W   tau(   2) = (   0.7560100   0.7584851   0.9951693  )
         3           W   tau(   3) = (   0.2560100   0.2303951   0.5061120  )
         4           W   tau(   4) = (   0.7439900   0.8257848   0.4947422  )
         5           W   tau(   5) = (   0.7560100   0.2976949   0.4947422  )
         6           W   tau(   6) = (   0.2439900   0.7584851   0.5061120  )
         7           W   tau(   7) = (   0.7439900   0.2303951   0.9951693  )
         8           W   tau(   8) = (   0.2560100   0.8257848   0.0056849  )
         9           O   tau(   9) = (   0.2389100   0.0087874   0.0017715  )
        10           O   tau(  10) = (   0.7610900   1.0473926   0.9990827  )
        11           O   tau(  11) = (   0.2610900   0.5193026   0.5021986  )
        12           O   tau(  12) = (   0.7389100   0.5368774   0.4986556  )
        13           O   tau(  13) = (   0.7610900   0.0087874   0.4986556  )
        14           O   tau(  14) = (   0.2389100   1.0473926   0.5021986  )
        15           O   tau(  15) = (   0.7389100   0.5193026   0.9990827  )
        16           O   tau(  16) = (   0.2610900   0.5368774   0.0017715  )
        17           O   tau(  17) = (   0.5016400   0.2520257   0.4499240  )
        18           O   tau(  18) = (   0.4983600   0.8041543   0.5509301  )
        19           O   tau(  19) = (   0.9983600   0.2760643   0.9503511  )
        20           O   tau(  20) = (   0.0016401   0.7801156   0.0505031  )
        21           O   tau(  21) = (   0.4983600   0.2520257   0.0505031  )
        22           O   tau(  22) = (   0.5016400   0.8041543   0.9503511  )
        23           O   tau(  23) = (   0.0016401   0.2760643   0.5509301  )
        24           O   tau(  24) = (   0.9983600   0.7801156   0.4499240  )
        25           O   tau(  25) = (   0.6995400   0.2614257   0.7481485  )
        26           O   tau(  26) = (   0.3004600   0.7947543   0.2527056  )
        27           O   tau(  27) = (   0.8004600   0.2666643   0.2477214  )
        28           O   tau(  28) = (   0.1995400   0.7895156   0.7531328  )
        29           O   tau(  29) = (   0.3004600   0.2614257   0.7531328  )
        30           O   tau(  30) = (   0.6995400   0.7947543   0.2477214  )
        31           O   tau(  31) = (   0.1995400   0.2666643   0.2527056  )
        32           O   tau(  32) = (   0.8004600   0.7895156   0.7481485  )

     number of k points=    64  gaussian smearing, width (Ry)=  0.0007
                       cart. coord. in units 2pi/alat
        k(    1) = (   0.0000000   0.0000000   0.0000000), wk =   0.0092593
        k(    2) = (   0.0000000   0.0000000   0.1665244), wk =   0.0185185
        k(    3) = (   0.0000000   0.0000000   0.3330489), wk =   0.0185185
        k(    4) = (   0.0000000   0.0000000  -0.4995733), wk =   0.0092593
        k(    5) = (   0.0000000   0.1578014   0.0000000), wk =   0.0185185
        k(    6) = (   0.0000000   0.1578014   0.1665244), wk =   0.0370370
        k(    7) = (   0.0000000   0.1578014   0.3330489), wk =   0.0370370
        k(    8) = (   0.0000000   0.1578014  -0.4995733), wk =   0.0185185
        k(    9) = (   0.0000000   0.3156028   0.0000000), wk =   0.0185185
        k(   10) = (   0.0000000   0.3156028   0.1665244), wk =   0.0370370
        k(   11) = (   0.0000000   0.3156028   0.3330489), wk =   0.0370370
        k(   12) = (   0.0000000   0.3156028  -0.4995733), wk =   0.0185185
        k(   13) = (   0.0000000  -0.4734042   0.0000000), wk =   0.0092593
        k(   14) = (   0.0000000  -0.4734042   0.1665244), wk =   0.0185185
        k(   15) = (   0.0000000  -0.4734042   0.3330489), wk =   0.0185185
        k(   16) = (   0.0000000  -0.4734042  -0.4995733), wk =   0.0092593
        k(   17) = (   0.1666667   0.0000000   0.0000000), wk =   0.0185185
        k(   18) = (   0.1666667   0.0000000   0.1665244), wk =   0.0370370
        k(   19) = (   0.1666667   0.0000000   0.3330489), wk =   0.0370370
        k(   20) = (   0.1666667   0.0000000  -0.4995733), wk =   0.0185185
        k(   21) = (   0.1666667   0.1578014   0.0000000), wk =   0.0370370
        k(   22) = (   0.1666667   0.1578014   0.1665244), wk =   0.0740741
        k(   23) = (   0.1666667   0.1578014   0.3330489), wk =   0.0740741
        k(   24) = (   0.1666667   0.1578014  -0.4995733), wk =   0.0370370
        k(   25) = (   0.1666667   0.3156028   0.0000000), wk =   0.0370370
        k(   26) = (   0.1666667   0.3156028   0.1665244), wk =   0.0740741
        k(   27) = (   0.1666667   0.3156028   0.3330489), wk =   0.0740741
        k(   28) = (   0.1666667   0.3156028  -0.4995733), wk =   0.0370370
        k(   29) = (   0.1666667  -0.4734042   0.0000000), wk =   0.0185185
        k(   30) = (   0.1666667  -0.4734042   0.1665244), wk =   0.0370370
        k(   31) = (   0.1666667  -0.4734042   0.3330489), wk =   0.0370370
        k(   32) = (   0.1666667  -0.4734042  -0.4995733), wk =   0.0185185
        k(   33) = (   0.3333333   0.0000000   0.0000000), wk =   0.0185185
        k(   34) = (   0.3333333   0.0000000   0.1665244), wk =   0.0370370
        k(   35) = (   0.3333333   0.0000000   0.3330489), wk =   0.0370370
        k(   36) = (   0.3333333   0.0000000  -0.4995733), wk =   0.0185185
        k(   37) = (   0.3333333   0.1578014   0.0000000), wk =   0.0370370
        k(   38) = (   0.3333333   0.1578014   0.1665244), wk =   0.0740741
        k(   39) = (   0.3333333   0.1578014   0.3330489), wk =   0.0740741
        k(   40) = (   0.3333333   0.1578014  -0.4995733), wk =   0.0370370
        k(   41) = (   0.3333333   0.3156028   0.0000000), wk =   0.0370370
        k(   42) = (   0.3333333   0.3156028   0.1665244), wk =   0.0740741
        k(   43) = (   0.3333333   0.3156028   0.3330489), wk =   0.0740741
        k(   44) = (   0.3333333   0.3156028  -0.4995733), wk =   0.0370370
        k(   45) = (   0.3333333  -0.4734042   0.0000000), wk =   0.0185185
        k(   46) = (   0.3333333  -0.4734042   0.1665244), wk =   0.0370370
        k(   47) = (   0.3333333  -0.4734042   0.3330489), wk =   0.0370370
        k(   48) = (   0.3333333  -0.4734042  -0.4995733), wk =   0.0185185
        k(   49) = (  -0.5000000   0.0000000   0.0000000), wk =   0.0092593
        k(   50) = (  -0.5000000   0.0000000   0.1665244), wk =   0.0185185
        k(   51) = (  -0.5000000   0.0000000   0.3330489), wk =   0.0185185
        k(   52) = (  -0.5000000   0.0000000  -0.4995733), wk =   0.0092593
        k(   53) = (  -0.5000000   0.1578014   0.0000000), wk =   0.0185185
        k(   54) = (  -0.5000000   0.1578014   0.1665244), wk =   0.0370370
        k(   55) = (  -0.5000000   0.1578014   0.3330489), wk =   0.0370370
        k(   56) = (  -0.5000000   0.1578014  -0.4995733), wk =   0.0185185
        k(   57) = (  -0.5000000   0.3156028   0.0000000), wk =   0.0185185
        k(   58) = (  -0.5000000   0.3156028   0.1665244), wk =   0.0370370
        k(   59) = (  -0.5000000   0.3156028   0.3330489), wk =   0.0370370
        k(   60) = (  -0.5000000   0.3156028  -0.4995733), wk =   0.0185185
        k(   61) = (  -0.5000000  -0.4734042   0.0000000), wk =   0.0092593
        k(   62) = (  -0.5000000  -0.4734042   0.1665244), wk =   0.0185185
        k(   63) = (  -0.5000000  -0.4734042   0.3330489), wk =   0.0185185
        k(   64) = (  -0.5000000  -0.4734042  -0.4995733), wk =   0.0092593

     Initial potential from superposition of free atoms

     starting charge  367.99656, renormalised to  369.00000
     Starting wfc are  232 randomized atomic wfcs

     Self-consistent Calculation

     iteration #  1     ecut=   120.00 Ry     beta= 0.70
     Davidson diagonalization with overlap
     ethr =  1.00E-02,  avg # of iterations =  5.5

     total energy              =   -6253.08472831 Ry
     Harris-Foulkes estimate   =   -6264.04241326 Ry
     estimated scf accuracy    <      13.75775784 Ry

[...]

     total energy              =   -6260.38759696 Ry
     Harris-Foulkes estimate   =   -6260.38759699 Ry
     estimated scf accuracy    <       0.00000006 Ry

     iteration # 13     ecut=   120.00 Ry     beta= 0.70
     Davidson diagonalization with overlap
     ethr =  1.49E-11,  avg # of iterations =  2.2

     End of self-consistent calculation

          k = 0.0000 0.0000 0.0000 ( 62175 PWs)   bands (ev):

   -65.9137 -65.9132 -65.9126 -65.9126 -65.9122 -65.9122 -65.9116 -65.9112
   -30.3879 -30.3840 -30.3838 -30.3801 -30.3284 -30.3245 -30.3240 -30.3203
   -30.2567 -30.2547 -30.2501 -30.2499 -30.2473 -30.2471 -30.2458 -30.2425
   -30.1545 -30.1520 -30.1511 -30.1507 -30.1490 -30.1476 -30.1453 -30.1427
   -20.0693 -20.0690 -20.0690 -20.0687 -20.0641 -20.0638 -20.0637 -20.0634
   -20.0568 -20.0565 -20.0561 -20.0559 -20.0557 -20.0556 -20.0555 -20.0548
   -20.0546 -20.0546 -20.0539 -20.0537 -20.0535 -20.0532 -20.0523 -20.0521
   -20.0520 -20.0520 -20.0513 -20.0505 -20.0505 -20.0498 -20.0497 -20.0496
   -20.0349 -20.0348 -20.0346 -20.0345 -20.0345 -20.0344 -20.0341 -20.0341
   -19.9898 -19.9898 -19.9886 -19.9886 -19.9882 -19.9882 -19.9873 -19.9872
   -19.9840 -19.9840 -19.9830 -19.9830 -19.9826 -19.9826 -19.9815 -19.9815
    -9.8689  -9.5641  -9.4327  -9.4321  -9.1283  -9.1205  -9.0385  -8.9308
    -8.9176  -8.8180  -8.7775  -8.7754  -7.8238  -7.7602  -7.7552  -7.7026
    -7.6823  -7.6760  -7.6534  -7.6512  -7.5257  -7.5207  -7.5028  -7.4989
     1.3581   1.3593   1.4161   1.4237   1.4387   1.4536   1.4642   1.6940
     1.6958   1.7064   1.7799   1.9665   2.4952   2.5746   2.6261   2.6309
     2.7790   2.7883   4.2123   4.2292   4.4430   4.4744   4.8466   4.8855
     4.9525   4.9679   4.9839   4.9849   5.1074   5.1080   5.1529   5.4635
     5.4857   5.5691   5.6052   5.6058   5.6155   5.6445   5.6823   5.8708
     5.8952   5.9489   5.9495   5.9690   6.0138   6.1078   6.1175   6.2261
     6.2292   6.3126   6.3234   6.6240   6.6305   6.8475   6.8744   6.8922
     6.9083   6.9274   7.0558   7.0715   7.1291   7.1434   7.4663   7.4863
     7.5107   7.5295   7.8679   7.8833   8.1070   8.1342   8.1693   8.1962
     9.5077   9.5094  10.1323  10.1409  10.1632  10.1733  12.3806  12.3829
    12.4485  12.4718  12.4889  12.5188  12.6344  12.6523  12.9475  13.0266
    13.3556  13.3990  13.5031  13.5247  13.8669  14.1586  14.2698  14.2748
    14.3563  14.5167  14.6222  14.8706  15.6034  15.6135  15.6279  16.2016
    16.2188  16.9135  17.1322  17.1557  17.4219  17.4513

[...]

          k = 0.3333-0.4734-0.4996 ( 62080 PWs)   bands (ev):

[...]

          k =-0.5000 0.0000 0.0000 ( 62184 PWs)   bands (ev):

[...]

          k =-0.5000-0.4734-0.4996 ( 62176 PWs)   bands (ev):

   -65.9124 -65.9124 -65.9124 -65.9124 -65.9124 -65.9124 -65.9124 -65.9124
   -30.3546 -30.3546 -30.3546 -30.3546 -30.3544 -30.3543 -30.3543 -30.3543
   -30.2044 -30.2044 -30.2044 -30.2044 -30.2026 -30.2025 -30.2025 -30.2025
   -30.1963 -30.1963 -30.1963 -30.1963 -30.1944 -30.1944 -30.1944 -30.1944
   -20.0666 -20.0665 -20.0665 -20.0665 -20.0665 -20.0665 -20.0665 -20.0665
   -20.0556 -20.0556 -20.0556 -20.0556 -20.0555 -20.0555 -20.0555 -20.0555
   -20.0535 -20.0535 -20.0535 -20.0535 -20.0534 -20.0534 -20.0534 -20.0534
   -20.0511 -20.0511 -20.0511 -20.0511 -20.0510 -20.0510 -20.0510 -20.0510
   -20.0344 -20.0344 -20.0344 -20.0344 -20.0344 -20.0344 -20.0344 -20.0344
   -19.9866 -19.9865 -19.9865 -19.9865 -19.9864 -19.9863 -19.9863 -19.9863
   -19.9852 -19.9851 -19.9851 -19.9851 -19.9850 -19.9849 -19.9849 -19.9849
    -8.8582  -8.8582  -8.8582  -8.8582  -8.8477  -8.8477  -8.8477  -8.8477
    -8.3342  -8.3342  -8.3342  -8.3342  -8.3126  -8.3126  -8.3126  -8.3126
    -8.2580  -8.2580  -8.2580  -8.2580  -8.2493  -8.2493  -8.2493  -8.2493
     3.0649   3.0649   3.0649   3.0649   3.1058   3.1059   3.1059   3.1059
     3.2463   3.2463   3.2464   3.2464   3.2984   3.2984   3.2984   3.2984
     3.4894   3.4894   3.4894   3.4894   3.5786   3.5786   3.5786   3.5786
     4.2391   4.2391   4.2391   4.2391   4.2464   4.2464   4.2464   4.2464
     4.4414   4.4414   4.4414   4.4414   4.4638   4.4638   4.4638   4.4638
     4.5463   4.5463   4.5463   4.5463   4.5718   4.5718   4.5718   4.5718
     7.1916   7.1916   7.1916   7.1916   7.3052   7.3052   7.3052   7.3052
     7.3895   7.3896   7.3896   7.3896   7.4141   7.4141   7.4141   7.4141
     7.6718   7.6719   7.6719   7.6719   7.7016   7.7016   7.7016   7.7016
    11.9792  11.9792  11.9792  11.9792  11.9897  11.9897  11.9897  11.9897
    12.3550  12.3550  12.3550  12.3550  12.4584  12.4584  12.4584  12.4584
    12.6589  12.6589  12.6589  12.6589  12.7055  12.7055  12.7055  12.7055
    17.1546  17.1546  17.1546  17.1546  17.2124  17.2124  17.2124  17.2124
    17.4540  17.4540  17.4540  17.4540  17.4788  17.4788

     the Fermi energy is    10.1271 ev

!    total energy              =   -6260.38759697 Ry
     Harris-Foulkes estimate   =   -6260.38759697 Ry
     estimated scf accuracy    <          9.7E-10 Ry

     The total energy is the sum of the following terms:

     one-electron contribution =   -4715.88958202 Ry
     hartree contribution      =    2598.04738105 Ry
     xc contribution           =    -966.77802830 Ry
     ewald contribution        =   -3175.76734442 Ry
     smearing contrib. (-TS)   =      -0.00002328 Ry

     convergence has been achieved in  13 iterations

     Writing output data file Landau_13.save

     General routines

     Parallel routines

   This run was terminated on:  21:48:16  28Aug2019

   JOB DONE.