     Program PWSCF v.6.2 (svn rev. 14038) starts on 23Mar2020 at 23:56:24

     K-points division:     npool     =      40
     Reading input from rscf.in

     Current dimensions of program PWSCF are:
     Max number of different atomic species (ntypx) = 10
     Max number of k-points (npk) =  40000
     Max angular momentum in pseudopotentials (lmaxx) =  3

     Subspace diagonalization in iterative solution of the eigenvalue problem:
     a serial algorithm will be used

     bravais-lattice index     =            0
     lattice parameter (alat)  =      13.8397  a.u.
     unit-cell volume          =    2804.9816 (a.u.)^3
     number of atoms/cell      =           32
     number of atomic types    =            2
     number of electrons       =       368.00
     number of Kohn-Sham states=          221
     kinetic-energy cutoff     =     120.0000  Ry
     charge density cutoff     =     480.0000  Ry
     convergence threshold     =      1.0E-08
     mixing beta               =       0.7000
     number of iterations used =            8  plain     mixing
     Exchange-correlation      = SLA PW NOGX NOGC ( 1  4  0  0 0 0)
     nstep                     =           50

     celldm(1)=  13.839685  celldm(2)=   0.000000  celldm(3)=   0.000000
     celldm(4)=   0.000000  celldm(5)=   0.000000  celldm(6)=   0.000000

     crystal axes: (cart. coord. in units of alat)
               a(1) = (   1.000000   0.000000   0.000000 )
               a(2) = (   0.000000   1.058160   0.000000 )
               a(3) = (   0.000000   0.000000   1.000000 )

     reciprocal axes: (cart. coord. in units 2 pi/alat)
               b(1) = (  1.000000  0.000000  0.000000 )
               b(2) = (  0.000000  0.945037  0.000000 )
               b(3) = (  0.000000  0.000000  1.000000 )

     PseudoPot. # 1 for W  read from file:
     /cluster/scratch/mnoe/QE/pps/W_ONCV_LDA-4.0.upf
     MD5 check sum: ba0307d5d4cd419d6f1d13dc49d7c13a
     Pseudo is Norm-conserving + core correction, Zval = 28.0
     Generated using ONCVPSP code by D. R. Hamann
     Using radial grid of 1380 points,  8 beta functions with:
                l(1) =   0
                l(2) =   0
                l(3) =   1
                l(4) =   1
                l(5) =   2
                l(6) =   2
                l(7) =   3
                l(8) =   3

     PseudoPot. # 2 for O  read from file:
     /cluster/scratch/mnoe/QE/pps/O_ONCV_LDA-3.0.upf
     MD5 check sum: a1bd6164e7280c17a38c229939bfbd54
     Pseudo is Norm-conserving + core correction, Zval =  6.0
     Generated using ONCVPSP code by D. R. Hamann
     Using radial grid of  926 points,  5 beta functions with:
                l(1) =   0
                l(2) =   0
                l(3) =   1
                l(4) =   1
                l(5) =   2

     atomic species   valence    mass     pseudopotential
        W             28.00   183.84000     W ( 1.00)
        O              6.00    15.99940     O ( 1.00)

      4 Sym. Ops. (no inversion) found ( 3 have fractional translation)

   Cartesian axes

     site n.     atom                  positions (alat units)
         1           W   tau(   1) = (   0.2475698   0.2949727   0.0011294  )
         2           W   tau(   2) = (   0.7512666   0.7631874  -0.0023616  )
         3           W   tau(   3) = (   0.2524302   0.2341074   0.5011294  )
         4           W   tau(   4) = (   0.7487334   0.8240527   0.4976384  )
         5           W   tau(   5) = (   0.7524302   0.2949727   0.4988706  )
         6           W   tau(   6) = (   0.2487334   0.7631874   0.5023616  )
         7           W   tau(   7) = (   0.7475698   0.2341074  -0.0011294  )
         8           W   tau(   8) = (   0.2512666   0.8240527   0.0023616  )
         9           O   tau(   9) = (   0.2464091   0.0079102  -0.0005942  )
        10           O   tau(  10) = (   0.7532292  -0.0079102  -0.0016792  )
        11           O   tau(  11) = (   0.2535909   0.5211698   0.4994058  )
        12           O   tau(  12) = (   0.7467708   0.5369903   0.4983208  )
        13           O   tau(  13) = (   0.7535909   0.0079102   0.5005942  )
        14           O   tau(  14) = (   0.2467708  -0.0079102   0.5016792  )
        15           O   tau(  15) = (   0.7464091   0.5211698   0.0005941  )
        16           O   tau(  16) = (   0.2532292   0.5369903   0.0016792  )
        17           O   tau(  17) = (   0.5007610   0.2605694   0.4571201  )
        18           O   tau(  18) = (   0.4997499   0.7970522   0.5428799  )
        19           O   tau(  19) = (  -0.0007610   0.2685107   0.9571202  )
        20           O   tau(  20) = (   0.0002501   0.7901879   0.0428798  )
        21           O   tau(  21) = (   0.4992390   0.2605694   0.0428798  )
        22           O   tau(  22) = (   0.5002501   0.7970522   0.9571202  )
        23           O   tau(  23) = (   0.0007610   0.2685107   0.5428799  )
        24           O   tau(  24) = (  -0.0002501   0.7901879   0.4571201  )
        25           O   tau(  25) = (   0.7071202   0.2649661   0.7494022  )
        26           O   tau(  26) = (   0.2928798   0.7956616   0.2509349  )
        27           O   tau(  27) = (   0.7928799   0.2641140   0.2494022  )
        28           O   tau(  28) = (   0.2071202   0.7915785   0.7509348  )
        29           O   tau(  29) = (   0.2928798   0.2649661   0.7505978  )
        30           O   tau(  30) = (   0.7071202   0.7956616   0.2490652  )
        31           O   tau(  31) = (   0.2071202   0.2641140   0.2505978  )
        32           O   tau(  32) = (   0.7928799   0.7915785   0.7490651  )

     number of k points=    64  gaussian smearing, width (Ry)=  0.0007
                       cart. coord. in units 2pi/alat
        k(    1) = (   0.0000000   0.0000000   0.0000000), wk =   0.0092593
        k(    2) = (   0.0000000   0.0000000   0.1666667), wk =   0.0185185
        k(    3) = (   0.0000000   0.0000000   0.3333333), wk =   0.0185185
        k(    4) = (   0.0000000   0.0000000  -0.5000000), wk =   0.0092593
        k(    5) = (   0.0000000   0.1575061   0.0000000), wk =   0.0185185
        k(    6) = (   0.0000000   0.1575061   0.1666667), wk =   0.0370370
        k(    7) = (   0.0000000   0.1575061   0.3333333), wk =   0.0370370
        k(    8) = (   0.0000000   0.1575061  -0.5000000), wk =   0.0185185
        k(    9) = (   0.0000000   0.3150122   0.0000000), wk =   0.0185185
        k(   10) = (   0.0000000   0.3150122   0.1666667), wk =   0.0370370
        k(   11) = (   0.0000000   0.3150122   0.3333333), wk =   0.0370370
        k(   12) = (   0.0000000   0.3150122  -0.5000000), wk =   0.0185185
        k(   13) = (   0.0000000  -0.4725183   0.0000000), wk =   0.0092593
        k(   14) = (   0.0000000  -0.4725183   0.1666667), wk =   0.0185185
        k(   15) = (   0.0000000  -0.4725183   0.3333333), wk =   0.0185185
        k(   16) = (   0.0000000  -0.4725183  -0.5000000), wk =   0.0092593
        k(   17) = (   0.1666667   0.0000000   0.1666667), wk =   0.0370370
        k(   18) = (   0.1666667   0.0000000   0.3333333), wk =   0.0370370
        k(   19) = (   0.1666667   0.0000000  -0.5000000), wk =   0.0185185
        k(   20) = (   0.1666667   0.1575061   0.1666667), wk =   0.0740741
        k(   21) = (   0.1666667   0.1575061   0.3333333), wk =   0.0740741
        k(   22) = (   0.1666667   0.1575061  -0.5000000), wk =   0.0370370
        k(   23) = (   0.1666667   0.3150122   0.1666667), wk =   0.0740741
        k(   24) = (   0.1666667   0.3150122   0.3333333), wk =   0.0740741
        k(   25) = (   0.1666667   0.3150122  -0.5000000), wk =   0.0370370
        k(   26) = (   0.1666667  -0.4725183   0.1666667), wk =   0.0370370
        k(   27) = (   0.1666667  -0.4725183   0.3333333), wk =   0.0370370
        k(   28) = (   0.1666667  -0.4725183  -0.5000000), wk =   0.0185185
        k(   29) = (   0.3333333   0.0000000   0.3333333), wk =   0.0370370
        k(   30) = (   0.3333333   0.0000000  -0.5000000), wk =   0.0185185
        k(   31) = (   0.3333333   0.1575061   0.3333333), wk =   0.0740741
        k(   32) = (   0.3333333   0.1575061  -0.5000000), wk =   0.0370370
        k(   33) = (   0.3333333   0.3150122   0.3333333), wk =   0.0740741
        k(   34) = (   0.3333333   0.3150122  -0.5000000), wk =   0.0370370
        k(   35) = (   0.3333333  -0.4725183   0.3333333), wk =   0.0370370
        k(   36) = (   0.3333333  -0.4725183  -0.5000000), wk =   0.0185185
        k(   37) = (  -0.5000000   0.0000000  -0.5000000), wk =   0.0092593
        k(   38) = (  -0.5000000   0.1575061  -0.5000000), wk =   0.0185185
        k(   39) = (  -0.5000000   0.3150122  -0.5000000), wk =   0.0185185
        k(   40) = (  -0.5000000  -0.4725183  -0.5000000), wk =   0.0092593
        k(   41) = (   0.1666667   0.0000000   0.0000000), wk =   0.0185185
        k(   42) = (   0.3333333   0.0000000   0.0000000), wk =   0.0185185
        k(   43) = (  -0.5000000   0.0000000   0.0000000), wk =   0.0092593
        k(   44) = (   0.1666667  -0.1575061   0.0000000), wk =   0.0370370
        k(   45) = (   0.3333333  -0.1575061   0.0000000), wk =   0.0370370
        k(   46) = (  -0.5000000  -0.1575061   0.0000000), wk =   0.0185185
        k(   47) = (   0.1666667  -0.3150122   0.0000000), wk =   0.0370370
        k(   48) = (   0.3333333  -0.3150122   0.0000000), wk =   0.0370370
        k(   49) = (  -0.5000000  -0.3150122   0.0000000), wk =   0.0185185
        k(   50) = (   0.1666667   0.4725183   0.0000000), wk =   0.0185185
        k(   51) = (   0.3333333   0.4725183   0.0000000), wk =   0.0185185
        k(   52) = (  -0.5000000   0.4725183   0.0000000), wk =   0.0092593
        k(   53) = (   0.3333333   0.0000000   0.1666667), wk =   0.0370370
        k(   54) = (  -0.5000000   0.0000000   0.1666667), wk =   0.0185185
        k(   55) = (   0.3333333  -0.1575061   0.1666667), wk =   0.0740741
        k(   56) = (  -0.5000000  -0.1575061   0.1666667), wk =   0.0370370
        k(   57) = (   0.3333333  -0.3150122   0.1666667), wk =   0.0740741
        k(   58) = (  -0.5000000  -0.3150122   0.1666667), wk =   0.0370370
        k(   59) = (   0.3333333   0.4725183   0.1666667), wk =   0.0370370
        k(   60) = (  -0.5000000   0.4725183   0.1666667), wk =   0.0185185
        k(   61) = (  -0.5000000   0.0000000   0.3333333), wk =   0.0185185
        k(   62) = (  -0.5000000  -0.1575061   0.3333333), wk =   0.0370370
        k(   63) = (  -0.5000000  -0.3150122   0.3333333), wk =   0.0370370
        k(   64) = (  -0.5000000   0.4725183   0.3333333), wk =   0.0185185

     Initial potential from superposition of free atoms

     starting charge  367.99656, renormalised to  368.00000
     Starting wfc are  232 randomized atomic wfcs

     Self-consistent Calculation

     iteration #  1     ecut=   120.00 Ry     beta= 0.70
     Davidson diagonalization with overlap
     ethr =  1.00E-02,  avg # of iterations =  5.1

     total energy              =   -6254.02968214 Ry
     Harris-Foulkes estimate   =   -6264.58665063 Ry
     estimated scf accuracy    <      13.38028408 Ry

[...]

     End of self-consistent calculation

[...]
End final coordinates

     A final scf calculation at the relaxed structure.
     The G-vectors are recalculated for the final unit cell
     Results may differ from those at the preceding step.

     bravais-lattice index     =            0
     lattice parameter (alat)  =      13.8397  a.u.
     unit-cell volume          =    2829.9552 (a.u.)^3
     number of atoms/cell      =           32
     number of atomic types    =            2
     number of electrons       =       368.00
     number of Kohn-Sham states=          221
     kinetic-energy cutoff     =     120.0000  Ry
     charge density cutoff     =     480.0000  Ry
     convergence threshold     =      1.0E-10
     mixing beta               =       0.7000
     number of iterations used =            8  plain     mixing
     Exchange-correlation      = SLA PW NOGX NOGC ( 1  4  0  0 0 0)

     celldm(1)=  13.839685  celldm(2)=   0.000000  celldm(3)=   0.000000
     celldm(4)=   0.000000  celldm(5)=   0.000000  celldm(6)=   0.000000

     crystal axes: (cart. coord. in units of alat)
               a(1) = (   1.006976   0.000000   0.000000 )
               a(2) = (   0.000000   1.052773   0.000000 )
               a(3) = (   0.000000   0.000000   1.007040 )

     reciprocal axes: (cart. coord. in units 2 pi/alat)
               b(1) = (  0.993072  0.000000  0.000000 )
               b(2) = (  0.000000  0.949872  0.000000 )
               b(3) = (  0.000000  0.000000  0.993009 )

     PseudoPot. # 1 for W  read from file:
     /cluster/scratch/mnoe/QE/pps/W_ONCV_LDA-4.0.upf
     MD5 check sum: ba0307d5d4cd419d6f1d13dc49d7c13a
     Pseudo is Norm-conserving + core correction, Zval = 28.0
     Generated using ONCVPSP code by D. R. Hamann
     Using radial grid of 1380 points,  8 beta functions with:
                l(1) =   0
                l(2) =   0
                l(3) =   1
                l(4) =   1
                l(5) =   2
                l(6) =   2
                l(7) =   3
                l(8) =   3

     PseudoPot. # 2 for O  read from file:
     /cluster/scratch/mnoe/QE/pps/O_ONCV_LDA-3.0.upf
     MD5 check sum: a1bd6164e7280c17a38c229939bfbd54
     Pseudo is Norm-conserving + core correction, Zval =  6.0
     Generated using ONCVPSP code by D. R. Hamann
     Using radial grid of  926 points,  5 beta functions with:
                l(1) =   0
                l(2) =   0
                l(3) =   1
                l(4) =   1
                l(5) =   2

     atomic species   valence    mass     pseudopotential
        W             28.00   183.84000     W ( 1.00)
        O              6.00    15.99940     O ( 1.00)

      4 Sym. Ops. (no inversion) found ( 3 have fractional translation)

   Cartesian axes

     site n.     atom                  positions (alat units)
         1           W   tau(   1) = (   0.2492968   0.2934711   0.0011373  )
         2           W   tau(   2) = (   0.7565075   0.7593024  -0.0023782  )
         3           W   tau(   3) = (   0.2541912   0.2329156   0.5046574  )
         4           W   tau(   4) = (   0.7539566   0.8198579   0.5011419  )
         5           W   tau(   5) = (   0.7576792   0.2934711   0.5023828  )
         6           W   tau(   6) = (   0.2504686   0.7593024   0.5058984  )
         7           W   tau(   7) = (   0.7527849   0.2329156  -0.0011373  )
         8           W   tau(   8) = (   0.2530194   0.8198579   0.0023782  )
         9           O   tau(   9) = (   0.2481281   0.0078700  -0.0005983  )
        10           O   tau(  10) = (   0.7584838  -0.0078700  -0.0016910  )
        11           O   tau(  11) = (   0.2553600   0.5185168   0.5029218  )
        12           O   tau(  12) = (   0.7519803   0.5342567   0.5018291  )
        13           O   tau(  13) = (   0.7588480   0.0078700   0.5041184  )
        14           O   tau(  14) = (   0.2484923  -0.0078700   0.5052111  )
        15           O   tau(  15) = (   0.7516161   0.5185168   0.0005983  )
        16           O   tau(  16) = (   0.2549957   0.5342567   0.0016910  )
        17           O   tau(  17) = (   0.5042544   0.2592429   0.4603384  )
        18           O   tau(  18) = (   0.5032362   0.7929948   0.5467018  )
        19           O   tau(  19) = (  -0.0007663   0.2671438   0.9638585  )
        20           O   tau(  20) = (   0.0002519   0.7861654   0.0431817  )
        21           O   tau(  21) = (   0.5027217   0.2592429   0.0431817  )
        22           O   tau(  22) = (   0.5037399   0.7929948   0.9638585  )
        23           O   tau(  23) = (   0.0007663   0.2671438   0.5467018  )
        24           O   tau(  24) = (  -0.0002519   0.7861654   0.4603384  )
        25           O   tau(  25) = (   0.7120531   0.2636173   0.7546781  )
        26           O   tau(  26) = (   0.2949230   0.7916113   0.2527015  )
        27           O   tau(  27) = (   0.7984111   0.2627695   0.2511580  )
        28           O   tau(  28) = (   0.2085650   0.7875490   0.7562216  )
        29           O   tau(  29) = (   0.2949230   0.2636173   0.7558822  )
        30           O   tau(  30) = (   0.7120531   0.7916113   0.2508186  )
        31           O   tau(  31) = (   0.2085650   0.2627695   0.2523621  )
        32           O   tau(  32) = (   0.7984111   0.7875490   0.7543387  )

     number of k points=    64  gaussian smearing, width (Ry)=  0.0007
                       cart. coord. in units 2pi/alat
        k(    1) = (   0.0000000   0.0000000   0.0000000), wk =   0.0092593
        k(    2) = (   0.0000000   0.0000000   0.1655015), wk =   0.0185185
        k(    3) = (   0.0000000   0.0000000   0.3310030), wk =   0.0185185
        k(    4) = (   0.0000000   0.0000000  -0.4965045), wk =   0.0092593
        k(    5) = (   0.0000000   0.1583120   0.0000000), wk =   0.0185185
        k(    6) = (   0.0000000   0.1583120   0.1655015), wk =   0.0370370
        k(    7) = (   0.0000000   0.1583120   0.3310030), wk =   0.0370370
        k(    8) = (   0.0000000   0.1583120  -0.4965045), wk =   0.0185185
        k(    9) = (   0.0000000   0.3166240   0.0000000), wk =   0.0185185
        k(   10) = (   0.0000000   0.3166240   0.1655015), wk =   0.0370370
        k(   11) = (   0.0000000   0.3166240   0.3310030), wk =   0.0370370
        k(   12) = (   0.0000000   0.3166240  -0.4965045), wk =   0.0185185
        k(   13) = (   0.0000000  -0.4749360   0.0000000), wk =   0.0092593
        k(   14) = (   0.0000000  -0.4749360   0.1655015), wk =   0.0185185
        k(   15) = (   0.0000000  -0.4749360   0.3310030), wk =   0.0185185
        k(   16) = (   0.0000000  -0.4749360  -0.4965045), wk =   0.0092593
        k(   17) = (   0.1655120   0.0000000   0.1655015), wk =   0.0370370
        k(   18) = (   0.1655120   0.0000000   0.3310030), wk =   0.0370370
        k(   19) = (   0.1655120   0.0000000  -0.4965045), wk =   0.0185185
        k(   20) = (   0.1655120   0.1583120   0.1655015), wk =   0.0740741
        k(   21) = (   0.1655120   0.1583120   0.3310030), wk =   0.0740741
        k(   22) = (   0.1655120   0.1583120  -0.4965045), wk =   0.0370370
        k(   23) = (   0.1655120   0.3166240   0.1655015), wk =   0.0740741
        k(   24) = (   0.1655120   0.3166240   0.3310030), wk =   0.0740741
        k(   25) = (   0.1655120   0.3166240  -0.4965045), wk =   0.0370370
        k(   26) = (   0.1655120  -0.4749360   0.1655015), wk =   0.0370370
        k(   27) = (   0.1655120  -0.4749360   0.3310030), wk =   0.0370370
        k(   28) = (   0.1655120  -0.4749360  -0.4965045), wk =   0.0185185
        k(   29) = (   0.3310241   0.0000000   0.3310030), wk =   0.0370370
        k(   30) = (   0.3310241   0.0000000  -0.4965045), wk =   0.0185185
        k(   31) = (   0.3310241   0.1583120   0.3310030), wk =   0.0740741
        k(   32) = (   0.3310241   0.1583120  -0.4965045), wk =   0.0370370
        k(   33) = (   0.3310241   0.3166240   0.3310030), wk =   0.0740741
        k(   34) = (   0.3310241   0.3166240  -0.4965045), wk =   0.0370370
        k(   35) = (   0.3310241  -0.4749360   0.3310030), wk =   0.0370370
        k(   36) = (   0.3310241  -0.4749360  -0.4965045), wk =   0.0185185
        k(   37) = (  -0.4965361   0.0000000  -0.4965045), wk =   0.0092593
        k(   38) = (  -0.4965361   0.1583120  -0.4965045), wk =   0.0185185
        k(   39) = (  -0.4965361   0.3166240  -0.4965045), wk =   0.0185185
        k(   40) = (  -0.4965361  -0.4749360  -0.4965045), wk =   0.0092593
        k(   41) = (   0.1655120   0.0000000   0.0000000), wk =   0.0185185
        k(   42) = (   0.3310241   0.0000000   0.0000000), wk =   0.0185185
        k(   43) = (  -0.4965361   0.0000000   0.0000000), wk =   0.0092593
        k(   44) = (   0.1655120  -0.1583120   0.0000000), wk =   0.0370370
        k(   45) = (   0.3310241  -0.1583120   0.0000000), wk =   0.0370370
        k(   46) = (  -0.4965361  -0.1583120   0.0000000), wk =   0.0185185
        k(   47) = (   0.1655120  -0.3166240   0.0000000), wk =   0.0370370
        k(   48) = (   0.3310241  -0.3166240   0.0000000), wk =   0.0370370
        k(   49) = (  -0.4965361  -0.3166240   0.0000000), wk =   0.0185185
        k(   50) = (   0.1655120   0.4749360   0.0000000), wk =   0.0185185
        k(   51) = (   0.3310241   0.4749360   0.0000000), wk =   0.0185185
        k(   52) = (  -0.4965361   0.4749360   0.0000000), wk =   0.0092593
        k(   53) = (   0.3310241   0.0000000   0.1655015), wk =   0.0370370
        k(   54) = (  -0.4965361   0.0000000   0.1655015), wk =   0.0185185
        k(   55) = (   0.3310241  -0.1583120   0.1655015), wk =   0.0740741
        k(   56) = (  -0.4965361  -0.1583120   0.1655015), wk =   0.0370370
        k(   57) = (   0.3310241  -0.3166240   0.1655015), wk =   0.0740741
        k(   58) = (  -0.4965361  -0.3166240   0.1655015), wk =   0.0370370
        k(   59) = (   0.3310241   0.4749360   0.1655015), wk =   0.0370370
        k(   60) = (  -0.4965361   0.4749360   0.1655015), wk =   0.0185185
        k(   61) = (  -0.4965361   0.0000000   0.3310030), wk =   0.0185185
        k(   62) = (  -0.4965361  -0.1583120   0.3310030), wk =   0.0370370
        k(   63) = (  -0.4965361  -0.3166240   0.3310030), wk =   0.0370370
        k(   64) = (  -0.4965361   0.4749360   0.3310030), wk =   0.0185185

     Initial potential from superposition of free atoms

     starting charge  367.99656, renormalised to  368.00000
     Starting wfc are  232 randomized atomic wfcs

     Writing output data file Landau_4.save

     Self-consistent Calculation

[...]

     total energy              =   -6261.10742246 Ry
     Harris-Foulkes estimate   =   -6261.10742246 Ry
     estimated scf accuracy    <          4.5E-10 Ry

     iteration # 16     ecut=   120.00 Ry     beta= 0.70
     Davidson diagonalization with overlap
     ethr =  1.23E-13,  avg # of iterations =  2.2

     End of self-consistent calculation

[...]

          k = 0.3310 0.4749 0.1655 ( 62820 PWs)   bands (ev):

[...]

          k =-0.4965 0.4749 0.3310 ( 62784 PWs)   bands (ev):

   -66.3374 -66.3374 -66.3374 -66.3374 -66.3370 -66.3370 -66.3370 -66.3370
   -30.6886 -30.6886 -30.6884 -30.6884 -30.6865 -30.6865 -30.6863 -30.6863
   -30.6513 -30.6513 -30.6505 -30.6505 -30.6287 -30.6287 -30.6278 -30.6278
   -30.6264 -30.6264 -30.6255 -30.6255 -30.6040 -30.6040 -30.6031 -30.6031
   -20.5021 -20.5021 -20.5021 -20.5021 -20.5021 -20.5021 -20.5021 -20.5021
   -20.4789 -20.4789 -20.4789 -20.4789 -20.4787 -20.4787 -20.4787 -20.4787
   -20.4772 -20.4772 -20.4770 -20.4770 -20.4767 -20.4767 -20.4766 -20.4766
   -20.4766 -20.4766 -20.4764 -20.4764 -20.4764 -20.4764 -20.4762 -20.4762
   -20.4691 -20.4691 -20.4691 -20.4691 -20.4685 -20.4685 -20.4685 -20.4685
   -20.4668 -20.4668 -20.4666 -20.4666 -20.4650 -20.4650 -20.4649 -20.4649
   -20.4647 -20.4647 -20.4645 -20.4645 -20.4630 -20.4630 -20.4629 -20.4629
    -9.3171  -9.3171  -9.3152  -9.3152  -8.9244  -8.9244  -8.9201  -8.9201
    -8.6925  -8.6925  -8.6878  -8.6878  -8.5369  -8.5369  -8.5296  -8.5296
    -8.4980  -8.4980  -8.4917  -8.4917  -8.2470  -8.2470  -8.2448  -8.2448
     2.1039   2.1039   2.1073   2.1073   2.8773   2.8773   2.8929   2.8929
     2.9836   2.9836   2.9911   2.9911   3.1378   3.1378   3.1587   3.1587
     3.2291   3.2291   3.2521   3.2521   3.5034   3.5034   3.5215   3.5215
     3.6258   3.6258   3.6673   3.6673   4.1016   4.1016   4.1221   4.1221
     4.1630   4.1630   4.2203   4.2203   4.2889   4.2889   4.3753   4.3753
     4.5060   4.5060   4.6368   4.6368   4.9045   4.9045   4.9193   4.9193
     6.9042   6.9042   6.9344   6.9344   7.0443   7.0443   7.0458   7.0458
     7.1591   7.1591   7.1930   7.1930   7.2103   7.2103   7.2789   7.2789
     7.3499   7.3499   7.4078   7.4078   7.4920   7.4920   7.5156   7.5156
    11.2590  11.2590  11.2967  11.2967  11.5400  11.5400  11.6113  11.6113
    12.0193  12.0193  12.0780  12.0780  12.1093  12.1093  12.1231  12.1231
    12.2970  12.2970  12.4133  12.4133  12.7500  12.7500  12.8291  12.8291
    16.3868  16.3868  16.4288  16.4288  16.9369  16.9369  16.9466  16.9466
    17.2547  17.2547  17.3227  17.3230  17.3573

     the Fermi energy is     8.9187 ev

!    total energy              =   -6261.10742246 Ry
     Harris-Foulkes estimate   =   -6261.10742246 Ry
     estimated scf accuracy    <          2.4E-11 Ry

     The total energy is the sum of the following terms:

     one-electron contribution =   -4759.20765011 Ry
     hartree contribution      =    2614.24532807 Ry
     xc contribution           =    -965.66926630 Ry
     ewald contribution        =   -3150.47583411 Ry
     smearing contrib. (-TS)   =      -0.00000000 Ry

     convergence has been achieved in  16 iterations

     Forces acting on atoms (cartesian axes, Ry/au):

     atom    1 type  1   force =    -0.00159345    0.00746936    0.00058908
     atom    2 type  1   force =     0.00095722   -0.00746291   -0.00140229
     atom    3 type  1   force =     0.00159345   -0.00746936    0.00058908
     atom    4 type  1   force =    -0.00095722    0.00746291   -0.00140229
     atom    5 type  1   force =     0.00159345    0.00746936   -0.00058908
     atom    6 type  1   force =    -0.00095722   -0.00746291    0.00140229
     atom    7 type  1   force =    -0.00159345   -0.00746936   -0.00058908
     atom    8 type  1   force =     0.00095722    0.00746291    0.00140229
     atom    9 type  2   force =    -0.00009455   -0.00380043   -0.00002979
     atom   10 type  2   force =     0.00008922    0.00380051   -0.00003080
     atom   11 type  2   force =     0.00009455    0.00380043   -0.00002979
     atom   12 type  2   force =    -0.00008922   -0.00380051   -0.00003080
     atom   13 type  2   force =     0.00009455   -0.00380043    0.00002979
     atom   14 type  2   force =    -0.00008922    0.00380051    0.00003080
     atom   15 type  2   force =    -0.00009455    0.00380043    0.00002979
     atom   16 type  2   force =     0.00008922   -0.00380051    0.00003080
     atom   17 type  2   force =    -0.00087710   -0.00012281   -0.00110424
     atom   18 type  2   force =     0.00043454    0.00001811    0.00110174
     atom   19 type  2   force =     0.00087710    0.00012281   -0.00110424
     atom   20 type  2   force =    -0.00043454   -0.00001811    0.00110174
     atom   21 type  2   force =     0.00087710   -0.00012281    0.00110424
     atom   22 type  2   force =    -0.00043454    0.00001811   -0.00110174
     atom   23 type  2   force =    -0.00087710    0.00012281    0.00110424
     atom   24 type  2   force =     0.00043454   -0.00001811   -0.00110174
     atom   25 type  2   force =    -0.00114820   -0.00012818    0.00049034
     atom   26 type  2   force =     0.00115026    0.00017255   -0.00090377
     atom   27 type  2   force =     0.00114820    0.00012818    0.00049034
     atom   28 type  2   force =    -0.00115026   -0.00017255   -0.00090377
     atom   29 type  2   force =     0.00114820   -0.00012818   -0.00049034
     atom   30 type  2   force =    -0.00115026    0.00017255    0.00090377
     atom   31 type  2   force =    -0.00114820    0.00012818   -0.00049034
     atom   32 type  2   force =     0.00115026   -0.00017255    0.00090377

     Total force =     0.000000     Total SCF correction =     0.000000

     Computing stress (Cartesian axis) and pressure

          total   stress  (Ry/bohr**3)                   (kbar)     P=    0.26
   0.00000265   0.00000000   0.00000000          0.39      0.00      0.00
   0.00000000   0.00000005   0.00000000          0.00      0.01      0.00
   0.00000000   0.00000000   0.00000267          0.00      0.00      0.39

     Writing output data file Landau_4.save

     General routines

     Parallel routines

   This run was terminated on:   3:39:13  24Mar2020

   JOB DONE.