     Program PWSCF v.6.2 (svn rev. 14038) starts on 24Mar2020 at 15:48:16

     K-points division:     npool     =      40
     Reading input from rscf.in

     Current dimensions of program PWSCF are:
     Max number of different atomic species (ntypx) = 10
     Max number of k-points (npk) =  40000
     Max angular momentum in pseudopotentials (lmaxx) =  3

     Subspace diagonalization in iterative solution of the eigenvalue problem:
     a serial algorithm will be used

     bravais-lattice index     =            0
     lattice parameter (alat)  =      13.8397  a.u.
     unit-cell volume          =    2804.9816 (a.u.)^3
     number of atoms/cell      =           32
     number of atomic types    =            2
     number of electrons       =       368.00
     number of Kohn-Sham states=          221
     kinetic-energy cutoff     =     120.0000  Ry
     charge density cutoff     =     480.0000  Ry
     convergence threshold     =      1.0E-08
     mixing beta               =       0.7000
     number of iterations used =            8  plain     mixing
     Exchange-correlation      = SLA PW NOGX NOGC ( 1  4  0  0 0 0)
     nstep                     =           50

     celldm(1)=  13.839685  celldm(2)=   0.000000  celldm(3)=   0.000000
     celldm(4)=   0.000000  celldm(5)=   0.000000  celldm(6)=   0.000000

     crystal axes: (cart. coord. in units of alat)
               a(1) = (   1.000000   0.000000   0.000000 )
               a(2) = (   0.000000   1.058160   0.000000 )
               a(3) = (   0.000000   0.000000   1.000000 )

     reciprocal axes: (cart. coord. in units 2 pi/alat)
               b(1) = (  1.000000  0.000000  0.000000 )
               b(2) = (  0.000000  0.945037  0.000000 )
               b(3) = (  0.000000  0.000000  1.000000 )

     PseudoPot. # 1 for W  read from file:
     /cluster/scratch/mnoe/QE/pps/W_ONCV_LDA-4.0.upf
     MD5 check sum: ba0307d5d4cd419d6f1d13dc49d7c13a
     Pseudo is Norm-conserving + core correction, Zval = 28.0
     Generated using ONCVPSP code by D. R. Hamann
     Using radial grid of 1380 points,  8 beta functions with:
                l(1) =   0
                l(2) =   0
                l(3) =   1
                l(4) =   1
                l(5) =   2
                l(6) =   2
                l(7) =   3
                l(8) =   3

     PseudoPot. # 2 for O  read from file:
     /cluster/scratch/mnoe/QE/pps/O_ONCV_LDA-3.0.upf
     MD5 check sum: a1bd6164e7280c17a38c229939bfbd54
     Pseudo is Norm-conserving + core correction, Zval =  6.0
     Generated using ONCVPSP code by D. R. Hamann
     Using radial grid of  926 points,  5 beta functions with:
                l(1) =   0
                l(2) =   0
                l(3) =   1
                l(4) =   1
                l(5) =   2

     atomic species   valence    mass     pseudopotential
        W             28.00   183.84000     W ( 1.00)
        O              6.00    15.99940     O ( 1.00)

      4 Sym. Ops. (no inversion) found ( 3 have fractional translation)

   Cartesian axes

     site n.     atom                  positions (alat units)
         1           W   tau(   1) = (   0.2397205   0.2884121   0.0057742  )
         2           W   tau(   2) = (   0.7563529   0.7697480  -0.0099323  )
         3           W   tau(   3) = (   0.2602795   0.2406680   0.5057742  )
         4           W   tau(   4) = (   0.7436470   0.8174922   0.4900677  )
         5           W   tau(   5) = (   0.7602795   0.2884121   0.4942258  )
         6           W   tau(   6) = (   0.2436471   0.7697480   0.5099323  )
         7           W   tau(   7) = (   0.7397204   0.2406680  -0.0057741  )
         8           W   tau(   8) = (   0.2563529   0.8174922   0.0099323  )
         9           O   tau(   9) = (   0.2340475   0.0061229  -0.0013946  )
        10           O   tau(  10) = (   0.7647320  -0.0061230  -0.0062765  )
        11           O   tau(  11) = (   0.2659525   0.5229571   0.4986053  )
        12           O   tau(  12) = (   0.7352679   0.5352030   0.4937235  )
        13           O   tau(  13) = (   0.7659525   0.0061229   0.5013947  )
        14           O   tau(  14) = (   0.2352679  -0.0061230   0.5062765  )
        15           O   tau(  15) = (   0.7340474   0.5229571   0.0013946  )
        16           O   tau(  16) = (   0.2647321   0.5352030   0.0062765  )
        17           O   tau(  17) = (   0.5031366   0.2469783   0.4722804  )
        18           O   tau(  18) = (   0.4985874   0.8093648   0.5277196  )
        19           O   tau(  19) = (  -0.0031366   0.2821017   0.9722805  )
        20           O   tau(  20) = (   0.0014126   0.7778754   0.0277195  )
        21           O   tau(  21) = (   0.4968634   0.2469783   0.0277195  )
        22           O   tau(  22) = (   0.5014126   0.8093648   0.9722805  )
        23           O   tau(  23) = (   0.0031365   0.2821017   0.5277196  )
        24           O   tau(  24) = (  -0.0014127   0.7778754   0.4722804  )
        25           O   tau(  25) = (   0.7222804   0.2650692   0.7471208  )
        26           O   tau(  26) = (   0.2777195   0.8014175   0.2540165  )
        27           O   tau(  27) = (   0.7777197   0.2640108   0.2471208  )
        28           O   tau(  28) = (   0.2222804   0.7858227   0.7540165  )
        29           O   tau(  29) = (   0.2777195   0.2650692   0.7528792  )
        30           O   tau(  30) = (   0.7222804   0.8014175   0.2459835  )
        31           O   tau(  31) = (   0.2222804   0.2640108   0.2528792  )
        32           O   tau(  32) = (   0.7777197   0.7858227   0.7459835  )

     number of k points=    64  gaussian smearing, width (Ry)=  0.0007
                       cart. coord. in units 2pi/alat
        k(    1) = (   0.0000000   0.0000000   0.0000000), wk =   0.0092593
        k(    2) = (   0.0000000   0.0000000   0.1666667), wk =   0.0185185
        k(    3) = (   0.0000000   0.0000000   0.3333333), wk =   0.0185185
        k(    4) = (   0.0000000   0.0000000  -0.5000000), wk =   0.0092593
        k(    5) = (   0.0000000   0.1575061   0.0000000), wk =   0.0185185
        k(    6) = (   0.0000000   0.1575061   0.1666667), wk =   0.0370370
        k(    7) = (   0.0000000   0.1575061   0.3333333), wk =   0.0370370
        k(    8) = (   0.0000000   0.1575061  -0.5000000), wk =   0.0185185
        k(    9) = (   0.0000000   0.3150122   0.0000000), wk =   0.0185185
        k(   10) = (   0.0000000   0.3150122   0.1666667), wk =   0.0370370
        k(   11) = (   0.0000000   0.3150122   0.3333333), wk =   0.0370370
        k(   12) = (   0.0000000   0.3150122  -0.5000000), wk =   0.0185185
        k(   13) = (   0.0000000  -0.4725183   0.0000000), wk =   0.0092593
        k(   14) = (   0.0000000  -0.4725183   0.1666667), wk =   0.0185185
        k(   15) = (   0.0000000  -0.4725183   0.3333333), wk =   0.0185185
        k(   16) = (   0.0000000  -0.4725183  -0.5000000), wk =   0.0092593
        k(   17) = (   0.1666667   0.0000000   0.1666667), wk =   0.0370370
        k(   18) = (   0.1666667   0.0000000   0.3333333), wk =   0.0370370
        k(   19) = (   0.1666667   0.0000000  -0.5000000), wk =   0.0185185
        k(   20) = (   0.1666667   0.1575061   0.1666667), wk =   0.0740741
        k(   21) = (   0.1666667   0.1575061   0.3333333), wk =   0.0740741
        k(   22) = (   0.1666667   0.1575061  -0.5000000), wk =   0.0370370
        k(   23) = (   0.1666667   0.3150122   0.1666667), wk =   0.0740741
        k(   24) = (   0.1666667   0.3150122   0.3333333), wk =   0.0740741
        k(   25) = (   0.1666667   0.3150122  -0.5000000), wk =   0.0370370
        k(   26) = (   0.1666667  -0.4725183   0.1666667), wk =   0.0370370
        k(   27) = (   0.1666667  -0.4725183   0.3333333), wk =   0.0370370
        k(   28) = (   0.1666667  -0.4725183  -0.5000000), wk =   0.0185185
        k(   29) = (   0.3333333   0.0000000   0.3333333), wk =   0.0370370
        k(   30) = (   0.3333333   0.0000000  -0.5000000), wk =   0.0185185
        k(   31) = (   0.3333333   0.1575061   0.3333333), wk =   0.0740741
        k(   32) = (   0.3333333   0.1575061  -0.5000000), wk =   0.0370370
        k(   33) = (   0.3333333   0.3150122   0.3333333), wk =   0.0740741
        k(   34) = (   0.3333333   0.3150122  -0.5000000), wk =   0.0370370
        k(   35) = (   0.3333333  -0.4725183   0.3333333), wk =   0.0370370
        k(   36) = (   0.3333333  -0.4725183  -0.5000000), wk =   0.0185185
        k(   37) = (  -0.5000000   0.0000000  -0.5000000), wk =   0.0092593
        k(   38) = (  -0.5000000   0.1575061  -0.5000000), wk =   0.0185185
        k(   39) = (  -0.5000000   0.3150122  -0.5000000), wk =   0.0185185
        k(   40) = (  -0.5000000  -0.4725183  -0.5000000), wk =   0.0092593
        k(   41) = (   0.1666667   0.0000000   0.0000000), wk =   0.0185185
        k(   42) = (   0.3333333   0.0000000   0.0000000), wk =   0.0185185
        k(   43) = (  -0.5000000   0.0000000   0.0000000), wk =   0.0092593
        k(   44) = (   0.1666667  -0.1575061   0.0000000), wk =   0.0370370
        k(   45) = (   0.3333333  -0.1575061   0.0000000), wk =   0.0370370
        k(   46) = (  -0.5000000  -0.1575061   0.0000000), wk =   0.0185185
        k(   47) = (   0.1666667  -0.3150122   0.0000000), wk =   0.0370370
        k(   48) = (   0.3333333  -0.3150122   0.0000000), wk =   0.0370370
        k(   49) = (  -0.5000000  -0.3150122   0.0000000), wk =   0.0185185
        k(   50) = (   0.1666667   0.4725183   0.0000000), wk =   0.0185185
        k(   51) = (   0.3333333   0.4725183   0.0000000), wk =   0.0185185
        k(   52) = (  -0.5000000   0.4725183   0.0000000), wk =   0.0092593
        k(   53) = (   0.3333333   0.0000000   0.1666667), wk =   0.0370370
        k(   54) = (  -0.5000000   0.0000000   0.1666667), wk =   0.0185185
        k(   55) = (   0.3333333  -0.1575061   0.1666667), wk =   0.0740741
        k(   56) = (  -0.5000000  -0.1575061   0.1666667), wk =   0.0370370
        k(   57) = (   0.3333333  -0.3150122   0.1666667), wk =   0.0740741
        k(   58) = (  -0.5000000  -0.3150122   0.1666667), wk =   0.0370370
        k(   59) = (   0.3333333   0.4725183   0.1666667), wk =   0.0370370
        k(   60) = (  -0.5000000   0.4725183   0.1666667), wk =   0.0185185
        k(   61) = (  -0.5000000   0.0000000   0.3333333), wk =   0.0185185
        k(   62) = (  -0.5000000  -0.1575061   0.3333333), wk =   0.0370370
        k(   63) = (  -0.5000000  -0.3150122   0.3333333), wk =   0.0370370
        k(   64) = (  -0.5000000   0.4725183   0.3333333), wk =   0.0185185

     Initial potential from superposition of free atoms

     starting charge  367.99656, renormalised to  368.00000
     Starting wfc are  232 randomized atomic wfcs

     Self-consistent Calculation

     iteration #  1     ecut=   120.00 Ry     beta= 0.70
     Davidson diagonalization with overlap
     ethr =  1.00E-02,  avg # of iterations =  5.2

     total energy              =   -6254.03951919 Ry
     Harris-Foulkes estimate   =   -6264.54278000 Ry
     estimated scf accuracy    <      13.33009061 Ry

[...]

     End of self-consistent calculation

[...]
End final coordinates

     A final scf calculation at the relaxed structure.
     The G-vectors are recalculated for the final unit cell
     Results may differ from those at the preceding step.

     bravais-lattice index     =            0
     lattice parameter (alat)  =      13.8397  a.u.
     unit-cell volume          =    2860.4343 (a.u.)^3
     number of atoms/cell      =           32
     number of atomic types    =            2
     number of electrons       =       368.00
     number of Kohn-Sham states=          221
     kinetic-energy cutoff     =     120.0000  Ry
     charge density cutoff     =     480.0000  Ry
     convergence threshold     =      1.0E-10
     mixing beta               =       0.7000
     number of iterations used =            8  plain     mixing
     Exchange-correlation      = SLA PW NOGX NOGC ( 1  4  0  0 0 0)

     celldm(1)=  13.839685  celldm(2)=   0.000000  celldm(3)=   0.000000
     celldm(4)=   0.000000  celldm(5)=   0.000000  celldm(6)=   0.000000

     crystal axes: (cart. coord. in units of alat)
               a(1) = (   1.017961   0.000000   0.000000 )
               a(2) = (   0.000000   1.040242   0.000000 )
               a(3) = (   0.000000   0.000000   1.019032 )

     reciprocal axes: (cart. coord. in units 2 pi/alat)
               b(1) = (  0.982356  0.000000  0.000000 )
               b(2) = (  0.000000  0.961315  0.000000 )
               b(3) = (  0.000000  0.000000  0.981323 )

     PseudoPot. # 1 for W  read from file:
     /cluster/scratch/mnoe/QE/pps/W_ONCV_LDA-4.0.upf
     MD5 check sum: ba0307d5d4cd419d6f1d13dc49d7c13a
     Pseudo is Norm-conserving + core correction, Zval = 28.0
     Generated using ONCVPSP code by D. R. Hamann
     Using radial grid of 1380 points,  8 beta functions with:
                l(1) =   0
                l(2) =   0
                l(3) =   1
                l(4) =   1
                l(5) =   2
                l(6) =   2
                l(7) =   3
                l(8) =   3

     PseudoPot. # 2 for O  read from file:
     /cluster/scratch/mnoe/QE/pps/O_ONCV_LDA-3.0.upf
     MD5 check sum: a1bd6164e7280c17a38c229939bfbd54
     Pseudo is Norm-conserving + core correction, Zval =  6.0
     Generated using ONCVPSP code by D. R. Hamann
     Using radial grid of  926 points,  5 beta functions with:
                l(1) =   0
                l(2) =   0
                l(3) =   1
                l(4) =   1
                l(5) =   2

     atomic species   valence    mass     pseudopotential
        W             28.00   183.84000     W ( 1.00)
        O              6.00    15.99940     O ( 1.00)

      4 Sym. Ops. (no inversion) found ( 3 have fractional translation)

   Cartesian axes

     site n.     atom                  positions (alat units)
         1           W   tau(   1) = (   0.2440260   0.2835284   0.0058841  )
         2           W   tau(   2) = (   0.7699375   0.7567139  -0.0101213  )
         3           W   tau(   3) = (   0.2649543   0.2365928   0.5154001  )
         4           W   tau(   4) = (   0.7570035   0.8036496   0.4993947  )
         5           W   tau(   5) = (   0.7739346   0.2835284   0.5036320  )
         6           W   tau(   6) = (   0.2480232   0.7567139   0.5196373  )
         7           W   tau(   7) = (   0.7530063   0.2365928  -0.0058840  )
         8           W   tau(   8) = (   0.2609572   0.8036496   0.0101213  )
         9           O   tau(   9) = (   0.2382511   0.0060193  -0.0014212  )
        10           O   tau(  10) = (   0.7784671  -0.0060193  -0.0063960  )
        11           O   tau(  11) = (   0.2707292   0.5141019   0.5080948  )
        12           O   tau(  12) = (   0.7484738   0.5261404   0.5031201  )
        13           O   tau(  13) = (   0.7797095   0.0060193   0.5109372  )
        14           O   tau(  14) = (   0.2394935  -0.0060193   0.5159120  )
        15           O   tau(  15) = (   0.7472314   0.5141019   0.0014212  )
        16           O   tau(  16) = (   0.2694868   0.5261404   0.0063960  )
        17           O   tau(  17) = (   0.5121732   0.2427962   0.4812689  )
        18           O   tau(  18) = (   0.5075423   0.7956598   0.5377632  )
        19           O   tau(  19) = (  -0.0031929   0.2773249   0.9907849  )
        20           O   tau(  20) = (   0.0014380   0.7647037   0.0282471  )
        21           O   tau(  21) = (   0.5057874   0.2427962   0.0282471  )
        22           O   tau(  22) = (   0.5104184   0.7956598   0.9907849  )
        23           O   tau(  23) = (   0.0031929   0.2773249   0.5377632  )
        24           O   tau(  24) = (  -0.0014380   0.7647037   0.4812689  )
        25           O   tau(  25) = (   0.7352531   0.2605808   0.7613400  )
        26           O   tau(  26) = (   0.2827076   0.7878471   0.2588510  )
        27           O   tau(  27) = (   0.7916881   0.2595403   0.2518240  )
        28           O   tau(  28) = (   0.2262727   0.7725164   0.7683669  )
        29           O   tau(  29) = (   0.2827076   0.2605808   0.7672080  )
        30           O   tau(  30) = (   0.7352531   0.7878471   0.2506651  )
        31           O   tau(  31) = (   0.2262727   0.2595403   0.2576920  )
        32           O   tau(  32) = (   0.7916881   0.7725164   0.7601810  )

     number of k points=    64  gaussian smearing, width (Ry)=  0.0007
                       cart. coord. in units 2pi/alat
        k(    1) = (   0.0000000   0.0000000   0.0000000), wk =   0.0092593
        k(    2) = (   0.0000000   0.0000000   0.1635539), wk =   0.0185185
        k(    3) = (   0.0000000   0.0000000   0.3271078), wk =   0.0185185
        k(    4) = (   0.0000000   0.0000000  -0.4906617), wk =   0.0092593
        k(    5) = (   0.0000000   0.1602191   0.0000000), wk =   0.0185185
        k(    6) = (   0.0000000   0.1602191   0.1635539), wk =   0.0370370
        k(    7) = (   0.0000000   0.1602191   0.3271078), wk =   0.0370370
        k(    8) = (   0.0000000   0.1602191  -0.4906617), wk =   0.0185185
        k(    9) = (   0.0000000   0.3204382   0.0000000), wk =   0.0185185
        k(   10) = (   0.0000000   0.3204382   0.1635539), wk =   0.0370370
        k(   11) = (   0.0000000   0.3204382   0.3271078), wk =   0.0370370
        k(   12) = (   0.0000000   0.3204382  -0.4906617), wk =   0.0185185
        k(   13) = (   0.0000000  -0.4806573   0.0000000), wk =   0.0092593
        k(   14) = (   0.0000000  -0.4806573   0.1635539), wk =   0.0185185
        k(   15) = (   0.0000000  -0.4806573   0.3271078), wk =   0.0185185
        k(   16) = (   0.0000000  -0.4806573  -0.4906617), wk =   0.0092593
        k(   17) = (   0.1637260   0.0000000   0.1635539), wk =   0.0370370
        k(   18) = (   0.1637260   0.0000000   0.3271078), wk =   0.0370370
        k(   19) = (   0.1637260   0.0000000  -0.4906617), wk =   0.0185185
        k(   20) = (   0.1637260   0.1602191   0.1635539), wk =   0.0740741
        k(   21) = (   0.1637260   0.1602191   0.3271078), wk =   0.0740741
        k(   22) = (   0.1637260   0.1602191  -0.4906617), wk =   0.0370370
        k(   23) = (   0.1637260   0.3204382   0.1635539), wk =   0.0740741
        k(   24) = (   0.1637260   0.3204382   0.3271078), wk =   0.0740741
        k(   25) = (   0.1637260   0.3204382  -0.4906617), wk =   0.0370370
        k(   26) = (   0.1637260  -0.4806573   0.1635539), wk =   0.0370370
        k(   27) = (   0.1637260  -0.4806573   0.3271078), wk =   0.0370370
        k(   28) = (   0.1637260  -0.4806573  -0.4906617), wk =   0.0185185
        k(   29) = (   0.3274521   0.0000000   0.3271078), wk =   0.0370370
        k(   30) = (   0.3274521   0.0000000  -0.4906617), wk =   0.0185185
        k(   31) = (   0.3274521   0.1602191   0.3271078), wk =   0.0740741
        k(   32) = (   0.3274521   0.1602191  -0.4906617), wk =   0.0370370
        k(   33) = (   0.3274521   0.3204382   0.3271078), wk =   0.0740741
        k(   34) = (   0.3274521   0.3204382  -0.4906617), wk =   0.0370370
        k(   35) = (   0.3274521  -0.4806573   0.3271078), wk =   0.0370370
        k(   36) = (   0.3274521  -0.4806573  -0.4906617), wk =   0.0185185
        k(   37) = (  -0.4911781   0.0000000  -0.4906617), wk =   0.0092593
        k(   38) = (  -0.4911781   0.1602191  -0.4906617), wk =   0.0185185
        k(   39) = (  -0.4911781   0.3204382  -0.4906617), wk =   0.0185185
        k(   40) = (  -0.4911781  -0.4806573  -0.4906617), wk =   0.0092593
        k(   41) = (   0.1637260   0.0000000   0.0000000), wk =   0.0185185
        k(   42) = (   0.3274521   0.0000000   0.0000000), wk =   0.0185185
        k(   43) = (  -0.4911781   0.0000000   0.0000000), wk =   0.0092593
        k(   44) = (   0.1637260  -0.1602191   0.0000000), wk =   0.0370370
        k(   45) = (   0.3274521  -0.1602191   0.0000000), wk =   0.0370370
        k(   46) = (  -0.4911781  -0.1602191   0.0000000), wk =   0.0185185
        k(   47) = (   0.1637260  -0.3204382   0.0000000), wk =   0.0370370
        k(   48) = (   0.3274521  -0.3204382   0.0000000), wk =   0.0370370
        k(   49) = (  -0.4911781  -0.3204382   0.0000000), wk =   0.0185185
        k(   50) = (   0.1637260   0.4806573   0.0000000), wk =   0.0185185
        k(   51) = (   0.3274521   0.4806573   0.0000000), wk =   0.0185185
        k(   52) = (  -0.4911781   0.4806573   0.0000000), wk =   0.0092593
        k(   53) = (   0.3274521   0.0000000   0.1635539), wk =   0.0370370
        k(   54) = (  -0.4911781   0.0000000   0.1635539), wk =   0.0185185
        k(   55) = (   0.3274521  -0.1602191   0.1635539), wk =   0.0740741
        k(   56) = (  -0.4911781  -0.1602191   0.1635539), wk =   0.0370370
        k(   57) = (   0.3274521  -0.3204382   0.1635539), wk =   0.0740741
        k(   58) = (  -0.4911781  -0.3204382   0.1635539), wk =   0.0370370
        k(   59) = (   0.3274521   0.4806573   0.1635539), wk =   0.0370370
        k(   60) = (  -0.4911781   0.4806573   0.1635539), wk =   0.0185185
        k(   61) = (  -0.4911781   0.0000000   0.3271078), wk =   0.0185185
        k(   62) = (  -0.4911781  -0.1602191   0.3271078), wk =   0.0370370
        k(   63) = (  -0.4911781  -0.3204382   0.3271078), wk =   0.0370370
        k(   64) = (  -0.4911781   0.4806573   0.3271078), wk =   0.0185185

     Initial potential from superposition of free atoms

     starting charge  367.99656, renormalised to  368.00000
     Starting wfc are  232 randomized atomic wfcs

     Writing output data file Landau_12.save

     Self-consistent Calculation

[...]

     total energy              =   -6261.10064482 Ry
     Harris-Foulkes estimate   =   -6261.10064482 Ry
     estimated scf accuracy    <          3.0E-10 Ry

     iteration # 16     ecut=   120.00 Ry     beta= 0.70
     Davidson diagonalization with overlap
     ethr =  1.00E-13,  avg # of iterations =  2.3

     End of self-consistent calculation

[...]

          k = 0.3275 0.4807 0.1636 ( 63502 PWs)   bands (ev):

[...]

          k =-0.4912 0.4807 0.3271 ( 63488 PWs)   bands (ev):

   -66.5287 -66.5287 -66.5284 -66.5284 -66.5283 -66.5283 -66.5279 -66.5279
   -30.8608 -30.8608 -30.8561 -30.8561 -30.8539 -30.8539 -30.8517 -30.8517
   -30.8440 -30.8440 -30.8400 -30.8400 -30.8267 -30.8267 -30.8242 -30.8242
   -30.8165 -30.8165 -30.8137 -30.8137 -30.8048 -30.8048 -30.7930 -30.7930
   -20.6988 -20.6987 -20.6986 -20.6986 -20.6983 -20.6983 -20.6982 -20.6982
   -20.6747 -20.6747 -20.6743 -20.6743 -20.6734 -20.6734 -20.6729 -20.6729
   -20.6709 -20.6709 -20.6707 -20.6707 -20.6697 -20.6697 -20.6696 -20.6696
   -20.6685 -20.6685 -20.6682 -20.6682 -20.6676 -20.6676 -20.6673 -20.6673
   -20.6638 -20.6638 -20.6634 -20.6634 -20.6633 -20.6633 -20.6620 -20.6620
   -20.6619 -20.6619 -20.6616 -20.6616 -20.6597 -20.6597 -20.6596 -20.6596
   -20.6586 -20.6586 -20.6577 -20.6577 -20.6571 -20.6570 -20.6569 -20.6569
    -9.4807  -9.4807  -9.4621  -9.4620  -9.1005  -9.1005  -9.0806  -9.0806
    -8.8623  -8.8622  -8.8494  -8.8494  -8.7174  -8.7174  -8.6986  -8.6986
    -8.6880  -8.6879  -8.6685  -8.6685  -8.4276  -8.4276  -8.3993  -8.3993
     1.9043   1.9043   1.9278   1.9278   2.7109   2.7109   2.7518   2.7518
     2.8224   2.8224   2.8498   2.8498   2.9124   2.9124   2.9594   2.9594
     3.1080   3.1080   3.1324   3.1324   3.3266   3.3266   3.3953   3.3953
     3.4680   3.4680   3.5806   3.5806   3.8816   3.8816   3.9059   3.9059
     3.9635   3.9635   3.9974   3.9974   4.0863   4.0863   4.1278   4.1279
     4.3533   4.3533   4.4283   4.4283   4.7160   4.7160   4.7263   4.7263
     6.7310   6.7310   6.8113   6.8114   6.8380   6.8381   6.8531   6.8532
     6.9989   6.9989   7.0652   7.0652   7.1196   7.1196   7.1229   7.1229
     7.1981   7.1981   7.2649   7.2650   7.3502   7.3503   7.3914   7.3914
    11.1108  11.1108  11.1595  11.1595  11.2813  11.2813  11.3638  11.3638
    11.7647  11.7647  11.8150  11.8150  11.8629  11.8629  11.9026  11.9026
    12.1432  12.1432  12.2744  12.2744  12.4197  12.4197  12.5074  12.5074
    16.2849  16.2849  16.3333  16.3333  16.7245  16.7245  16.7600  16.7600
    17.1803  17.1804  17.2836  17.2837  17.3776

     the Fermi energy is     8.5958 ev

!    total energy              =   -6261.10064482 Ry
     Harris-Foulkes estimate   =   -6261.10064482 Ry
     estimated scf accuracy    <          4.5E-11 Ry

     The total energy is the sum of the following terms:

     one-electron contribution =   -4804.54556497 Ry
     hartree contribution      =    2634.49678358 Ry
     xc contribution           =    -965.67476006 Ry
     ewald contribution        =   -3125.37710337 Ry
     smearing contrib. (-TS)   =      -0.00000000 Ry

     convergence has been achieved in  16 iterations

     Forces acting on atoms (cartesian axes, Ry/au):

     atom    1 type  1   force =    -0.00751147    0.01555732    0.00564531
     atom    2 type  1   force =     0.00652247   -0.01573359   -0.00698141
     atom    3 type  1   force =     0.00751147   -0.01555732    0.00564531
     atom    4 type  1   force =    -0.00652247    0.01573359   -0.00698141
     atom    5 type  1   force =     0.00751147    0.01555732   -0.00564531
     atom    6 type  1   force =    -0.00652247   -0.01573359    0.00698141
     atom    7 type  1   force =    -0.00751147   -0.01555732   -0.00564531
     atom    8 type  1   force =     0.00652247    0.01573359    0.00698141
     atom    9 type  2   force =    -0.00005982   -0.00827267   -0.00061794
     atom   10 type  2   force =    -0.00004565    0.00823720    0.00063531
     atom   11 type  2   force =     0.00005982    0.00827267   -0.00061794
     atom   12 type  2   force =     0.00004565   -0.00823720    0.00063531
     atom   13 type  2   force =     0.00005982   -0.00827267    0.00061794
     atom   14 type  2   force =     0.00004565    0.00823720   -0.00063531
     atom   15 type  2   force =    -0.00005982    0.00827267    0.00061794
     atom   16 type  2   force =    -0.00004565   -0.00823720   -0.00063531
     atom   17 type  2   force =    -0.00438167   -0.00059619   -0.00073892
     atom   18 type  2   force =     0.00341819    0.00102179    0.00092061
     atom   19 type  2   force =     0.00438167    0.00059619   -0.00073892
     atom   20 type  2   force =    -0.00341819   -0.00102179    0.00092061
     atom   21 type  2   force =     0.00438167   -0.00059619    0.00073892
     atom   22 type  2   force =    -0.00341819    0.00102179   -0.00092061
     atom   23 type  2   force =    -0.00438167    0.00059619    0.00073892
     atom   24 type  2   force =     0.00341819   -0.00102179   -0.00092061
     atom   25 type  2   force =    -0.00203420    0.00165455    0.00490617
     atom   26 type  2   force =     0.00171415   -0.00132330   -0.00541557
     atom   27 type  2   force =     0.00203420   -0.00165455    0.00490617
     atom   28 type  2   force =    -0.00171415    0.00132330   -0.00541557
     atom   29 type  2   force =     0.00203420    0.00165455   -0.00490617
     atom   30 type  2   force =    -0.00171415   -0.00132330    0.00541557
     atom   31 type  2   force =    -0.00203420   -0.00165455   -0.00490617
     atom   32 type  2   force =     0.00171415    0.00132330    0.00541557

     Total force =     0.000000     Total SCF correction =     0.000000

     Computing stress (Cartesian axis) and pressure

          total   stress  (Ry/bohr**3)                   (kbar)     P=    1.07
   0.00001033   0.00000000   0.00000000          1.52      0.00      0.00
   0.00000000   0.00000056   0.00000000          0.00      0.08      0.00
   0.00000000   0.00000000   0.00001093          0.00      0.00      1.61

     Writing output data file Landau_12.save

     General routines

     Parallel routines

   This run was terminated on:  20:22: 4  24Mar2020

   JOB DONE.