     Program PWSCF v.6.2 (svn rev. 14038) starts on 23Mar2020 at  1: 0:30

     K-points division:     npool     =      40
     Reading input from rscf.in

     Current dimensions of program PWSCF are:
     Max number of different atomic species (ntypx) = 10
     Max number of k-points (npk) =  40000
     Max angular momentum in pseudopotentials (lmaxx) =  3

     Subspace diagonalization in iterative solution of the eigenvalue problem:
     a serial algorithm will be used

     bravais-lattice index     =            0
     lattice parameter (alat)  =      13.8397  a.u.
     unit-cell volume          =    2804.9816 (a.u.)^3
     number of atoms/cell      =           32
     number of atomic types    =            2
     number of electrons       =       368.00
     number of Kohn-Sham states=          221
     kinetic-energy cutoff     =     120.0000  Ry
     charge density cutoff     =     480.0000  Ry
     convergence threshold     =      1.0E-08
     mixing beta               =       0.7000
     number of iterations used =            8  plain     mixing
     Exchange-correlation      = SLA PW NOGX NOGC ( 1  4  0  0 0 0)
     nstep                     =           50

     celldm(1)=  13.839685  celldm(2)=   0.000000  celldm(3)=   0.000000
     celldm(4)=   0.000000  celldm(5)=   0.000000  celldm(6)=   0.000000

     crystal axes: (cart. coord. in units of alat)
               a(1) = (   1.000000   0.000000   0.000000 )
               a(2) = (   0.000000   1.058160   0.000000 )
               a(3) = (   0.000000   0.000000   1.000000 )

     reciprocal axes: (cart. coord. in units 2 pi/alat)
               b(1) = (  1.000000  0.000000  0.000000 )
               b(2) = (  0.000000  0.945037  0.000000 )
               b(3) = (  0.000000  0.000000  1.000000 )

     PseudoPot. # 1 for W  read from file:
     /cluster/scratch/mnoe/QE/pps/W_ONCV_LDA-4.0.upf
     MD5 check sum: ba0307d5d4cd419d6f1d13dc49d7c13a
     Pseudo is Norm-conserving + core correction, Zval = 28.0
     Generated using ONCVPSP code by D. R. Hamann
     Using radial grid of 1380 points,  8 beta functions with:
                l(1) =   0
                l(2) =   0
                l(3) =   1
                l(4) =   1
                l(5) =   2
                l(6) =   2
                l(7) =   3
                l(8) =   3

     PseudoPot. # 2 for O  read from file:
     /cluster/scratch/mnoe/QE/pps/O_ONCV_LDA-3.0.upf
     MD5 check sum: a1bd6164e7280c17a38c229939bfbd54
     Pseudo is Norm-conserving + core correction, Zval =  6.0
     Generated using ONCVPSP code by D. R. Hamann
     Using radial grid of  926 points,  5 beta functions with:
                l(1) =   0
                l(2) =   0
                l(3) =   1
                l(4) =   1
                l(5) =   2

     atomic species   valence    mass     pseudopotential
        W             28.00   183.84000     W ( 1.00)
        O              6.00    15.99940     O ( 1.00)

      4 Sym. Ops. (no inversion) found ( 3 have fractional translation)

   Cartesian axes

     site n.     atom                  positions (alat units)
         1           W   tau(   1) = (   0.2213732   0.2923280   0.0048931  )
         2           W   tau(   2) = (   0.7565232   0.7658321  -0.0282999  )
         3           W   tau(   3) = (   0.2786268   0.2367520   0.5048931  )
         4           W   tau(   4) = (   0.7434768   0.8214081   0.4717001  )
         5           W   tau(   5) = (   0.7786268   0.2923280   0.4951069  )
         6           W   tau(   6) = (   0.2434768   0.7658321   0.5282999  )
         7           W   tau(   7) = (   0.7213732   0.2367520  -0.0048931  )
         8           W   tau(   8) = (   0.2565232   0.8214081   0.0282999  )
         9           O   tau(   9) = (   0.2141414   0.0071898  -0.0164327  )
        10           O   tau(  10) = (   0.7789883  -0.0071898  -0.0267497  )
        11           O   tau(  11) = (   0.2858586   0.5218903   0.4835673  )
        12           O   tau(  12) = (   0.7210116   0.5362698   0.4732503  )
        13           O   tau(  13) = (   0.7858585   0.0071898   0.5164327  )
        14           O   tau(  14) = (   0.2210116  -0.0071898   0.5267497  )
        15           O   tau(  15) = (   0.7141414   0.5218903   0.0164327  )
        16           O   tau(  16) = (   0.2789884   0.5362698   0.0267497  )
        17           O   tau(  17) = (   0.5096592   0.2242319   0.4632315  )
        18           O   tau(  18) = (   0.5000452   0.8236997   0.5367686  )
        19           O   tau(  19) = (  -0.0096592   0.3048482   0.9632315  )
        20           O   tau(  20) = (  -0.0000452   0.7635406   0.0367685  )
        21           O   tau(  21) = (   0.4903408   0.2242319   0.0367685  )
        22           O   tau(  22) = (   0.4999548   0.8236997   0.9632315  )
        23           O   tau(  23) = (   0.0096591   0.3048482   0.5367686  )
        24           O   tau(  24) = (   0.0000451   0.7635406   0.4632315  )
        25           O   tau(  25) = (   0.7132315   0.2802959   0.7459145  )
        26           O   tau(  26) = (   0.2867685   0.8247363   0.2604875  )
        27           O   tau(  27) = (   0.7867686   0.2487841   0.2459146  )
        28           O   tau(  28) = (   0.2132315   0.7625040   0.7604875  )
        29           O   tau(  29) = (   0.2867685   0.2802959   0.7540854  )
        30           O   tau(  30) = (   0.7132315   0.8247363   0.2395125  )
        31           O   tau(  31) = (   0.2132315   0.2487841   0.2540854  )
        32           O   tau(  32) = (   0.7867686   0.7625040   0.7395125  )

     number of k points=    64  gaussian smearing, width (Ry)=  0.0007
                       cart. coord. in units 2pi/alat
        k(    1) = (   0.0000000   0.0000000   0.0000000), wk =   0.0092593
        k(    2) = (   0.0000000   0.0000000   0.1666667), wk =   0.0185185
        k(    3) = (   0.0000000   0.0000000   0.3333333), wk =   0.0185185
        k(    4) = (   0.0000000   0.0000000  -0.5000000), wk =   0.0092593
        k(    5) = (   0.0000000   0.1575061   0.0000000), wk =   0.0185185
        k(    6) = (   0.0000000   0.1575061   0.1666667), wk =   0.0370370
        k(    7) = (   0.0000000   0.1575061   0.3333333), wk =   0.0370370
        k(    8) = (   0.0000000   0.1575061  -0.5000000), wk =   0.0185185
        k(    9) = (   0.0000000   0.3150122   0.0000000), wk =   0.0185185
        k(   10) = (   0.0000000   0.3150122   0.1666667), wk =   0.0370370
        k(   11) = (   0.0000000   0.3150122   0.3333333), wk =   0.0370370
        k(   12) = (   0.0000000   0.3150122  -0.5000000), wk =   0.0185185
        k(   13) = (   0.0000000  -0.4725183   0.0000000), wk =   0.0092593
        k(   14) = (   0.0000000  -0.4725183   0.1666667), wk =   0.0185185
        k(   15) = (   0.0000000  -0.4725183   0.3333333), wk =   0.0185185
        k(   16) = (   0.0000000  -0.4725183  -0.5000000), wk =   0.0092593
        k(   17) = (   0.1666667   0.0000000   0.1666667), wk =   0.0370370
        k(   18) = (   0.1666667   0.0000000   0.3333333), wk =   0.0370370
        k(   19) = (   0.1666667   0.0000000  -0.5000000), wk =   0.0185185
        k(   20) = (   0.1666667   0.1575061   0.1666667), wk =   0.0740741
        k(   21) = (   0.1666667   0.1575061   0.3333333), wk =   0.0740741
        k(   22) = (   0.1666667   0.1575061  -0.5000000), wk =   0.0370370
        k(   23) = (   0.1666667   0.3150122   0.1666667), wk =   0.0740741
        k(   24) = (   0.1666667   0.3150122   0.3333333), wk =   0.0740741
        k(   25) = (   0.1666667   0.3150122  -0.5000000), wk =   0.0370370
        k(   26) = (   0.1666667  -0.4725183   0.1666667), wk =   0.0370370
        k(   27) = (   0.1666667  -0.4725183   0.3333333), wk =   0.0370370
        k(   28) = (   0.1666667  -0.4725183  -0.5000000), wk =   0.0185185
        k(   29) = (   0.3333333   0.0000000   0.3333333), wk =   0.0370370
        k(   30) = (   0.3333333   0.0000000  -0.5000000), wk =   0.0185185
        k(   31) = (   0.3333333   0.1575061   0.3333333), wk =   0.0740741
        k(   32) = (   0.3333333   0.1575061  -0.5000000), wk =   0.0370370
        k(   33) = (   0.3333333   0.3150122   0.3333333), wk =   0.0740741
        k(   34) = (   0.3333333   0.3150122  -0.5000000), wk =   0.0370370
        k(   35) = (   0.3333333  -0.4725183   0.3333333), wk =   0.0370370
        k(   36) = (   0.3333333  -0.4725183  -0.5000000), wk =   0.0185185
        k(   37) = (  -0.5000000   0.0000000  -0.5000000), wk =   0.0092593
        k(   38) = (  -0.5000000   0.1575061  -0.5000000), wk =   0.0185185
        k(   39) = (  -0.5000000   0.3150122  -0.5000000), wk =   0.0185185
        k(   40) = (  -0.5000000  -0.4725183  -0.5000000), wk =   0.0092593
        k(   41) = (   0.1666667   0.0000000   0.0000000), wk =   0.0185185
        k(   42) = (   0.3333333   0.0000000   0.0000000), wk =   0.0185185
        k(   43) = (  -0.5000000   0.0000000   0.0000000), wk =   0.0092593
        k(   44) = (   0.1666667  -0.1575061   0.0000000), wk =   0.0370370
        k(   45) = (   0.3333333  -0.1575061   0.0000000), wk =   0.0370370
        k(   46) = (  -0.5000000  -0.1575061   0.0000000), wk =   0.0185185
        k(   47) = (   0.1666667  -0.3150122   0.0000000), wk =   0.0370370
        k(   48) = (   0.3333333  -0.3150122   0.0000000), wk =   0.0370370
        k(   49) = (  -0.5000000  -0.3150122   0.0000000), wk =   0.0185185
        k(   50) = (   0.1666667   0.4725183   0.0000000), wk =   0.0185185
        k(   51) = (   0.3333333   0.4725183   0.0000000), wk =   0.0185185
        k(   52) = (  -0.5000000   0.4725183   0.0000000), wk =   0.0092593
        k(   53) = (   0.3333333   0.0000000   0.1666667), wk =   0.0370370
        k(   54) = (  -0.5000000   0.0000000   0.1666667), wk =   0.0185185
        k(   55) = (   0.3333333  -0.1575061   0.1666667), wk =   0.0740741
        k(   56) = (  -0.5000000  -0.1575061   0.1666667), wk =   0.0370370
        k(   57) = (   0.3333333  -0.3150122   0.1666667), wk =   0.0740741
        k(   58) = (  -0.5000000  -0.3150122   0.1666667), wk =   0.0370370
        k(   59) = (   0.3333333   0.4725183   0.1666667), wk =   0.0370370
        k(   60) = (  -0.5000000   0.4725183   0.1666667), wk =   0.0185185
        k(   61) = (  -0.5000000   0.0000000   0.3333333), wk =   0.0185185
        k(   62) = (  -0.5000000  -0.1575061   0.3333333), wk =   0.0370370
        k(   63) = (  -0.5000000  -0.3150122   0.3333333), wk =   0.0370370
        k(   64) = (  -0.5000000   0.4725183   0.3333333), wk =   0.0185185

     Initial potential from superposition of free atoms

     starting charge  367.99656, renormalised to  368.00000
     Starting wfc are  232 randomized atomic wfcs

     Self-consistent Calculation

     iteration #  1     ecut=   120.00 Ry     beta= 0.70
     Davidson diagonalization with overlap
     ethr =  1.00E-02,  avg # of iterations =  5.1

     total energy              =   -6253.88607500 Ry
     Harris-Foulkes estimate   =   -6264.46819493 Ry
     estimated scf accuracy    <      13.40206179 Ry

[...]

     End of self-consistent calculation

[...]
End final coordinates

     A final scf calculation at the relaxed structure.
     The G-vectors are recalculated for the final unit cell
     Results may differ from those at the preceding step.

     bravais-lattice index     =            0
     lattice parameter (alat)  =      13.8397  a.u.
     unit-cell volume          =    2793.8286 (a.u.)^3
     number of atoms/cell      =           32
     number of atomic types    =            2
     number of electrons       =       368.00
     number of Kohn-Sham states=          221
     kinetic-energy cutoff     =     120.0000  Ry
     charge density cutoff     =     480.0000  Ry
     convergence threshold     =      1.0E-10
     mixing beta               =       0.7000
     number of iterations used =            8  plain     mixing
     Exchange-correlation      = SLA PW NOGX NOGC ( 1  4  0  0 0 0)

     celldm(1)=  13.839685  celldm(2)=   0.000000  celldm(3)=   0.000000
     celldm(4)=   0.000000  celldm(5)=   0.000000  celldm(6)=   0.000000

     crystal axes: (cart. coord. in units of alat)
               a(1) = (   1.012513   0.000000   0.000000 )
               a(2) = (   0.000000   1.024405   0.000000 )
               a(3) = (   0.000000   0.000000   1.016129 )

     reciprocal axes: (cart. coord. in units 2 pi/alat)
               b(1) = (  0.987642  0.000000  0.000000 )
               b(2) = (  0.000000  0.976176  0.000000 )
               b(3) = (  0.000000  0.000000  0.984127 )

     PseudoPot. # 1 for W  read from file:
     /cluster/scratch/mnoe/QE/pps/W_ONCV_LDA-4.0.upf
     MD5 check sum: ba0307d5d4cd419d6f1d13dc49d7c13a
     Pseudo is Norm-conserving + core correction, Zval = 28.0
     Generated using ONCVPSP code by D. R. Hamann
     Using radial grid of 1380 points,  8 beta functions with:
                l(1) =   0
                l(2) =   0
                l(3) =   1
                l(4) =   1
                l(5) =   2
                l(6) =   2
                l(7) =   3
                l(8) =   3

     PseudoPot. # 2 for O  read from file:
     /cluster/scratch/mnoe/QE/pps/O_ONCV_LDA-3.0.upf
     MD5 check sum: a1bd6164e7280c17a38c229939bfbd54
     Pseudo is Norm-conserving + core correction, Zval =  6.0
     Generated using ONCVPSP code by D. R. Hamann
     Using radial grid of  926 points,  5 beta functions with:
                l(1) =   0
                l(2) =   0
                l(3) =   1
                l(4) =   1
                l(5) =   2

     atomic species   valence    mass     pseudopotential
        W             28.00   183.84000     W ( 1.00)
        O              6.00    15.99940     O ( 1.00)

      4 Sym. Ops. (no inversion) found ( 3 have fractional translation)

   Cartesian axes

     site n.     atom                  positions (alat units)
         1           W   tau(   1) = (   0.2241432   0.2830029   0.0049720  )
         2           W   tau(   2) = (   0.7659893   0.7414024  -0.0287563  )
         3           W   tau(   3) = (   0.2821132   0.2291998   0.5130365  )
         4           W   tau(   4) = (   0.7527797   0.7952055   0.4793081  )
         5           W   tau(   5) = (   0.7883695   0.2830029   0.5030925  )
         6           W   tau(   6) = (   0.2465234   0.7414024   0.5368209  )
         7           W   tau(   7) = (   0.7303995   0.2291998  -0.0049720  )
         8           W   tau(   8) = (   0.2597330   0.7952055   0.0287563  )
         9           O   tau(   9) = (   0.2168209   0.0069604  -0.0166977  )
        10           O   tau(  10) = (   0.7887355  -0.0069604  -0.0271811  )
        11           O   tau(  11) = (   0.2894354   0.5052422   0.4913667  )
        12           O   tau(  12) = (   0.7300334   0.5191630   0.4808834  )
        13           O   tau(  13) = (   0.7956917   0.0069604   0.5247622  )
        14           O   tau(  14) = (   0.2237770  -0.0069604   0.5352456  )
        15           O   tau(  15) = (   0.7230772   0.5052422   0.0166977  )
        16           O   tau(  16) = (   0.2824793   0.5191630   0.0271811  )
        17           O   tau(  17) = (   0.5160364   0.2170790   0.4707029  )
        18           O   tau(  18) = (   0.5063020   0.7974240   0.5454261  )
        19           O   tau(  19) = (  -0.0097800   0.2951236   0.9787675  )
        20           O   tau(  20) = (  -0.0000457   0.7391840   0.0373616  )
        21           O   tau(  21) = (   0.4964763   0.2170790   0.0373616  )
        22           O   tau(  22) = (   0.5062106   0.7974240   0.9787675  )
        23           O   tau(  23) = (   0.0097800   0.2951236   0.5454261  )
        24           O   tau(  24) = (   0.0000457   0.7391840   0.4707029  )
        25           O   tau(  25) = (   0.7221559   0.2713546   0.7579454  )
        26           O   tau(  26) = (   0.2903568   0.7984276   0.2646889  )
        27           O   tau(  27) = (   0.7966132   0.2408480   0.2498810  )
        28           O   tau(  28) = (   0.2158996   0.7381804   0.7727534  )
        29           O   tau(  29) = (   0.2903568   0.2713546   0.7662481  )
        30           O   tau(  30) = (   0.7221559   0.7984276   0.2433756  )
        31           O   tau(  31) = (   0.2158996   0.2408480   0.2581836  )
        32           O   tau(  32) = (   0.7966132   0.7381804   0.7514401  )

     number of k points=    64  gaussian smearing, width (Ry)=  0.0007
                       cart. coord. in units 2pi/alat
        k(    1) = (   0.0000000   0.0000000   0.0000000), wk =   0.0092593
        k(    2) = (   0.0000000   0.0000000   0.1640212), wk =   0.0185185
        k(    3) = (   0.0000000   0.0000000   0.3280423), wk =   0.0185185
        k(    4) = (   0.0000000   0.0000000  -0.4920635), wk =   0.0092593
        k(    5) = (   0.0000000   0.1626960   0.0000000), wk =   0.0185185
        k(    6) = (   0.0000000   0.1626960   0.1640212), wk =   0.0370370
        k(    7) = (   0.0000000   0.1626960   0.3280423), wk =   0.0370370
        k(    8) = (   0.0000000   0.1626960  -0.4920635), wk =   0.0185185
        k(    9) = (   0.0000000   0.3253921   0.0000000), wk =   0.0185185
        k(   10) = (   0.0000000   0.3253921   0.1640212), wk =   0.0370370
        k(   11) = (   0.0000000   0.3253921   0.3280423), wk =   0.0370370
        k(   12) = (   0.0000000   0.3253921  -0.4920635), wk =   0.0185185
        k(   13) = (   0.0000000  -0.4880881   0.0000000), wk =   0.0092593
        k(   14) = (   0.0000000  -0.4880881   0.1640212), wk =   0.0185185
        k(   15) = (   0.0000000  -0.4880881   0.3280423), wk =   0.0185185
        k(   16) = (   0.0000000  -0.4880881  -0.4920635), wk =   0.0092593
        k(   17) = (   0.1646070   0.0000000   0.1640212), wk =   0.0370370
        k(   18) = (   0.1646070   0.0000000   0.3280423), wk =   0.0370370
        k(   19) = (   0.1646070   0.0000000  -0.4920635), wk =   0.0185185
        k(   20) = (   0.1646070   0.1626960   0.1640212), wk =   0.0740741
        k(   21) = (   0.1646070   0.1626960   0.3280423), wk =   0.0740741
        k(   22) = (   0.1646070   0.1626960  -0.4920635), wk =   0.0370370
        k(   23) = (   0.1646070   0.3253921   0.1640212), wk =   0.0740741
        k(   24) = (   0.1646070   0.3253921   0.3280423), wk =   0.0740741
        k(   25) = (   0.1646070   0.3253921  -0.4920635), wk =   0.0370370
        k(   26) = (   0.1646070  -0.4880881   0.1640212), wk =   0.0370370
        k(   27) = (   0.1646070  -0.4880881   0.3280423), wk =   0.0370370
        k(   28) = (   0.1646070  -0.4880881  -0.4920635), wk =   0.0185185
        k(   29) = (   0.3292140   0.0000000   0.3280423), wk =   0.0370370
        k(   30) = (   0.3292140   0.0000000  -0.4920635), wk =   0.0185185
        k(   31) = (   0.3292140   0.1626960   0.3280423), wk =   0.0740741
        k(   32) = (   0.3292140   0.1626960  -0.4920635), wk =   0.0370370
        k(   33) = (   0.3292140   0.3253921   0.3280423), wk =   0.0740741
        k(   34) = (   0.3292140   0.3253921  -0.4920635), wk =   0.0370370
        k(   35) = (   0.3292140  -0.4880881   0.3280423), wk =   0.0370370
        k(   36) = (   0.3292140  -0.4880881  -0.4920635), wk =   0.0185185
        k(   37) = (  -0.4938210   0.0000000  -0.4920635), wk =   0.0092593
        k(   38) = (  -0.4938210   0.1626960  -0.4920635), wk =   0.0185185
        k(   39) = (  -0.4938210   0.3253921  -0.4920635), wk =   0.0185185
        k(   40) = (  -0.4938210  -0.4880881  -0.4920635), wk =   0.0092593
        k(   41) = (   0.1646070   0.0000000   0.0000000), wk =   0.0185185
        k(   42) = (   0.3292140   0.0000000   0.0000000), wk =   0.0185185
        k(   43) = (  -0.4938210   0.0000000   0.0000000), wk =   0.0092593
        k(   44) = (   0.1646070  -0.1626960   0.0000000), wk =   0.0370370
        k(   45) = (   0.3292140  -0.1626960   0.0000000), wk =   0.0370370
        k(   46) = (  -0.4938210  -0.1626960   0.0000000), wk =   0.0185185
        k(   47) = (   0.1646070  -0.3253921   0.0000000), wk =   0.0370370
        k(   48) = (   0.3292140  -0.3253921   0.0000000), wk =   0.0370370
        k(   49) = (  -0.4938210  -0.3253921   0.0000000), wk =   0.0185185
        k(   50) = (   0.1646070   0.4880881   0.0000000), wk =   0.0185185
        k(   51) = (   0.3292140   0.4880881   0.0000000), wk =   0.0185185
        k(   52) = (  -0.4938210   0.4880881   0.0000000), wk =   0.0092593
        k(   53) = (   0.3292140   0.0000000   0.1640212), wk =   0.0370370
        k(   54) = (  -0.4938210   0.0000000   0.1640212), wk =   0.0185185
        k(   55) = (   0.3292140  -0.1626960   0.1640212), wk =   0.0740741
        k(   56) = (  -0.4938210  -0.1626960   0.1640212), wk =   0.0370370
        k(   57) = (   0.3292140  -0.3253921   0.1640212), wk =   0.0740741
        k(   58) = (  -0.4938210  -0.3253921   0.1640212), wk =   0.0370370
        k(   59) = (   0.3292140   0.4880881   0.1640212), wk =   0.0370370
        k(   60) = (  -0.4938210   0.4880881   0.1640212), wk =   0.0185185
        k(   61) = (  -0.4938210   0.0000000   0.3280423), wk =   0.0185185
        k(   62) = (  -0.4938210  -0.1626960   0.3280423), wk =   0.0370370
        k(   63) = (  -0.4938210  -0.3253921   0.3280423), wk =   0.0370370
        k(   64) = (  -0.4938210   0.4880881   0.3280423), wk =   0.0185185

     Initial potential from superposition of free atoms

     starting charge  367.99656, renormalised to  368.00000
     Starting wfc are  232 randomized atomic wfcs

     Writing output data file Landau_19.save

     Self-consistent Calculation

[...]

     total energy              =   -6261.08667678 Ry
     Harris-Foulkes estimate   =   -6261.08667678 Ry
     estimated scf accuracy    <          1.4E-09 Ry

     iteration # 16     ecut=   120.00 Ry     beta= 0.70
     Davidson diagonalization with overlap
     ethr =  3.81E-13,  avg # of iterations =  2.0

     End of self-consistent calculation

[...]

          k = 0.3292 0.4881 0.1640 ( 62016 PWs)   bands (ev):

[...]

          k =-0.4938 0.4881 0.3280 ( 62036 PWs)   bands (ev):

   -66.0935 -66.0935 -66.0931 -66.0931 -66.0867 -66.0867 -66.0863 -66.0863
   -30.5340 -30.5340 -30.5163 -30.5163 -30.5140 -30.5140 -30.4932 -30.4932
   -30.4047 -30.4047 -30.4026 -30.4025 -30.3964 -30.3964 -30.3927 -30.3927
   -30.3592 -30.3592 -30.3359 -30.3358 -30.3337 -30.3337 -30.3209 -30.3209
   -20.2554 -20.2554 -20.2551 -20.2551 -20.2477 -20.2477 -20.2472 -20.2472
   -20.2410 -20.2410 -20.2409 -20.2409 -20.2305 -20.2305 -20.2298 -20.2298
   -20.2280 -20.2279 -20.2278 -20.2278 -20.2222 -20.2221 -20.2212 -20.2212
   -20.2196 -20.2196 -20.2195 -20.2195 -20.2166 -20.2166 -20.2160 -20.2160
   -20.2155 -20.2155 -20.2135 -20.2135 -20.2112 -20.2112 -20.2092 -20.2092
   -20.2086 -20.2086 -20.2084 -20.2084 -20.2031 -20.2031 -20.2030 -20.2030
   -20.2026 -20.2026 -20.2018 -20.2018 -20.1940 -20.1940 -20.1935 -20.1935
    -9.1993  -9.1993  -9.0508  -9.0507  -8.8148  -8.8148  -8.6803  -8.6803
    -8.4735  -8.4735  -8.4163  -8.4163  -8.3312  -8.3311  -8.3175  -8.3174
    -8.2181  -8.2181  -8.1980  -8.1980  -8.1328  -8.1327  -7.9120  -7.9120
     2.2538   2.2538   2.4744   2.4744   2.9244   2.9244   3.0226   3.0226
     3.1133   3.1133   3.1805   3.1805   3.2172   3.2172   3.2643   3.2643
     3.4954   3.4955   3.5333   3.5333   3.6479   3.6479   3.8943   3.8943
     3.9464   3.9464   4.0875   4.0875   4.2069   4.2069   4.3302   4.3302
     4.4282   4.4282   4.4578   4.4578   4.5571   4.5571   4.6188   4.6188
     4.7550   4.7551   4.8832   4.8832   5.0970   5.0970   5.1209   5.1209
     6.9468   6.9468   7.1080   7.1080   7.1694   7.1694   7.2029   7.2029
     7.2837   7.2837   7.4213   7.4214   7.4361   7.4361   7.5214   7.5214
     7.5778   7.5778   7.6811   7.6812   7.6928   7.6928   7.7808   7.7808
    11.5228  11.5228  11.7609  11.7609  11.8617  11.8617  11.9692  11.9692
    12.1392  12.1392  12.2884  12.2884  12.4046  12.4046  12.4931  12.4932
    12.5781  12.5781  12.7165  12.7165  12.9319  12.9319  13.0164  13.0164
    16.2161  16.2161  16.5216  16.5216  16.9999  16.9999  17.1759  17.1759
    17.3121  17.3121  17.4778  17.4778  17.5644

     the Fermi energy is     8.9921 ev

!    total energy              =   -6261.08667678 Ry
     Harris-Foulkes estimate   =   -6261.08667678 Ry
     estimated scf accuracy    <          5.1E-11 Ry

     The total energy is the sum of the following terms:

     one-electron contribution =   -4690.33660226 Ry
     hartree contribution      =    2582.86162382 Ry
     xc contribution           =    -965.64513069 Ry
     ewald contribution        =   -3187.96656765 Ry
     smearing contrib. (-TS)   =      -0.00000000 Ry

     convergence has been achieved in  16 iterations

     Forces acting on atoms (cartesian axes, Ry/au):

     atom    1 type  1   force =     0.04482587   -0.00824592    0.01046426
     atom    2 type  1   force =     0.00122985    0.00459460    0.04756023
     atom    3 type  1   force =    -0.04482587    0.00824592    0.01046426
     atom    4 type  1   force =    -0.00122985   -0.00459460    0.04756023
     atom    5 type  1   force =    -0.04482587   -0.00824592   -0.01046426
     atom    6 type  1   force =    -0.00122985    0.00459460   -0.04756023
     atom    7 type  1   force =     0.04482587    0.00824592   -0.01046426
     atom    8 type  1   force =     0.00122985   -0.00459460   -0.04756023
     atom    9 type  2   force =    -0.00157083   -0.00106177    0.00294024
     atom   10 type  2   force =    -0.00462651    0.00027583   -0.00069594
     atom   11 type  2   force =     0.00157083    0.00106177    0.00294024
     atom   12 type  2   force =     0.00462651   -0.00027583   -0.00069594
     atom   13 type  2   force =     0.00157083   -0.00106177   -0.00294024
     atom   14 type  2   force =     0.00462651    0.00027583    0.00069594
     atom   15 type  2   force =    -0.00157083    0.00106177   -0.00294024
     atom   16 type  2   force =    -0.00462651   -0.00027583    0.00069594
     atom   17 type  2   force =     0.02903055   -0.00393461   -0.00143131
     atom   18 type  2   force =     0.00451912   -0.00268518   -0.00251917
     atom   19 type  2   force =    -0.02903055    0.00393461   -0.00143131
     atom   20 type  2   force =    -0.00451912    0.00268518   -0.00251917
     atom   21 type  2   force =    -0.02903055   -0.00393461    0.00143131
     atom   22 type  2   force =    -0.00451912   -0.00268518    0.00251917
     atom   23 type  2   force =     0.02903055    0.00393461    0.00143131
     atom   24 type  2   force =     0.00451912    0.00268518    0.00251917
     atom   25 type  2   force =    -0.00135641   -0.00092202    0.00472741
     atom   26 type  2   force =     0.00211505    0.00111368    0.03041521
     atom   27 type  2   force =     0.00135641    0.00092202    0.00472741
     atom   28 type  2   force =    -0.00211505   -0.00111368    0.03041521
     atom   29 type  2   force =     0.00135641   -0.00092202   -0.00472741
     atom   30 type  2   force =    -0.00211505    0.00111368   -0.03041521
     atom   31 type  2   force =    -0.00135641    0.00092202   -0.00472741
     atom   32 type  2   force =     0.00211505   -0.00111368   -0.03041521

     Total force =     0.000000     Total SCF correction =     0.000000

     Computing stress (Cartesian axis) and pressure

          total   stress  (Ry/bohr**3)                   (kbar)     P=    0.44
   0.00000466   0.00000000   0.00000000          0.69      0.00      0.00
   0.00000000  -0.00000183   0.00000000          0.00     -0.27      0.00
   0.00000000   0.00000000   0.00000609          0.00      0.00      0.90

     Writing output data file Landau_19.save

     General routines

     Parallel routines

   This run was terminated on:   3:50: 4  23Mar2020

   JOB DONE.