     Program PWSCF v.6.2 (svn rev. 14038) starts on  5Mar2020 at 18:16:23

     K-points division:     npool     =      64
     Reading input from rscf.in

     Current dimensions of program PWSCF are:
     Max number of different atomic species (ntypx) = 10
     Max number of k-points (npk) =  40000
     Max angular momentum in pseudopotentials (lmaxx) =  3

     Subspace diagonalization in iterative solution of the eigenvalue problem:
     a serial algorithm will be used

     bravais-lattice index     =            0
     lattice parameter (alat)  =      13.8397  a.u.
     unit-cell volume          =    2804.9816 (a.u.)^3
     number of atoms/cell      =           32
     number of atomic types    =            2
     number of electrons       =       368.00
     number of Kohn-Sham states=          221
     kinetic-energy cutoff     =     120.0000  Ry
     charge density cutoff     =     480.0000  Ry
     convergence threshold     =      1.0E-08
     mixing beta               =       0.7000
     number of iterations used =            8  plain     mixing
     Exchange-correlation      = SLA PW NOGX NOGC ( 1  4  0  0 0 0)
     nstep                     =           50

     celldm(1)=  13.839685  celldm(2)=   0.000000  celldm(3)=   0.000000
     celldm(4)=   0.000000  celldm(5)=   0.000000  celldm(6)=   0.000000

     crystal axes: (cart. coord. in units of alat)
               a(1) = (   1.000000   0.000000   0.000000 )
               a(2) = (   0.000000   1.058160   0.000000 )
               a(3) = (   0.000000   0.000000   1.000000 )

     reciprocal axes: (cart. coord. in units 2 pi/alat)
               b(1) = (  1.000000  0.000000  0.000000 )
               b(2) = (  0.000000  0.945037  0.000000 )
               b(3) = (  0.000000  0.000000  1.000000 )

     PseudoPot. # 1 for W  read from file:
     /cluster/scratch/mnoe/QE/pps/W_ONCV_LDA-4.0.upf
     MD5 check sum: ba0307d5d4cd419d6f1d13dc49d7c13a
     Pseudo is Norm-conserving + core correction, Zval = 28.0
     Generated using ONCVPSP code by D. R. Hamann
     Using radial grid of 1380 points,  8 beta functions with:
                l(1) =   0
                l(2) =   0
                l(3) =   1
                l(4) =   1
                l(5) =   2
                l(6) =   2
                l(7) =   3
                l(8) =   3

     PseudoPot. # 2 for O  read from file:
     /cluster/scratch/mnoe/QE/pps/O_ONCV_LDA-3.0.upf
     MD5 check sum: a1bd6164e7280c17a38c229939bfbd54
     Pseudo is Norm-conserving + core correction, Zval =  6.0
     Generated using ONCVPSP code by D. R. Hamann
     Using radial grid of  926 points,  5 beta functions with:
                l(1) =   0
                l(2) =   0
                l(3) =   1
                l(4) =   1
                l(5) =   2

     atomic species   valence    mass     pseudopotential
        W             28.00   183.84000     W ( 1.00)
        O              6.00    15.99940     O ( 1.00)

      8 Sym. Ops., with inversion, found ( 6 have fractional translation)

   Cartesian axes

     site n.     atom                  positions (alat units)
         1           W   tau(   1) = (   0.2370500   0.3034923   0.0122300  )
         2           W   tau(   2) = (   0.7629500   0.7546678   0.9877700  )
         3           W   tau(   3) = (   0.2629500   0.2255878   0.5122300  )
         4           W   tau(   4) = (   0.7370500   0.8325723   0.4877700  )
         5           W   tau(   5) = (   0.7629500   0.3034923   0.4877700  )
         6           W   tau(   6) = (   0.2370500   0.7546678   0.5122300  )
         7           W   tau(   7) = (   0.7370500   0.2255878   0.9877700  )
         8           W   tau(   8) = (   0.2629500   0.8325723   0.0122300  )
         9           O   tau(   9) = (   0.2261100   0.0187178   0.0038000  )
        10           O   tau(  10) = (   0.7738900   1.0394423   0.9962000  )
        11           O   tau(  11) = (   0.2738900   0.5103622   0.5038000  )
        12           O   tau(  12) = (   0.7261100   0.5477978   0.4962000  )
        13           O   tau(  13) = (   0.7738900   0.0187178   0.4962000  )
        14           O   tau(  14) = (   0.2261100   1.0394423   0.5038000  )
        15           O   tau(  15) = (   0.7261100   0.5103622   0.9962000  )
        16           O   tau(  16) = (   0.2738900   0.5477978   0.0038000  )
        17           O   tau(  17) = (   0.5035400   0.2386045   0.4751320  )
        18           O   tau(  18) = (   0.4964600   0.8195556   0.5248680  )
        19           O   tau(  19) = (   0.9964600   0.2904755   0.9751320  )
        20           O   tau(  20) = (   0.0035400   0.7676845   0.0248680  )
        21           O   tau(  21) = (   0.4964600   0.2386045   0.0248680  )
        22           O   tau(  22) = (   0.5035400   0.8195556   0.9751320  )
        23           O   tau(  23) = (   0.0035400   0.2904755   0.5248680  )
        24           O   tau(  24) = (   0.9964600   0.7676845   0.4751320  )
        25           O   tau(  25) = (   0.7251321   0.2588789   0.7446300  )
        26           O   tau(  26) = (   0.2748680   0.7992812   0.2553700  )
        27           O   tau(  27) = (   0.7748680   0.2702012   0.2446300  )
        28           O   tau(  28) = (   0.2251320   0.7879589   0.7553700  )
        29           O   tau(  29) = (   0.2748680   0.2588789   0.7553700  )
        30           O   tau(  30) = (   0.7251321   0.7992812   0.2446300  )
        31           O   tau(  31) = (   0.2251320   0.2702012   0.2553700  )
        32           O   tau(  32) = (   0.7748680   0.7879589   0.7446300  )

     number of k points=    64  gaussian smearing, width (Ry)=  0.0007
                       cart. coord. in units 2pi/alat
        k(    1) = (   0.0000000   0.0000000   0.0000000), wk =   0.0092593
        k(    2) = (   0.0000000   0.0000000   0.1666667), wk =   0.0185185
        k(    3) = (   0.0000000   0.0000000   0.3333333), wk =   0.0185185
        k(    4) = (   0.0000000   0.0000000  -0.5000000), wk =   0.0092593
        k(    5) = (   0.0000000   0.1575061   0.0000000), wk =   0.0185185
        k(    6) = (   0.0000000   0.1575061   0.1666667), wk =   0.0370370
        k(    7) = (   0.0000000   0.1575061   0.3333333), wk =   0.0370370
        k(    8) = (   0.0000000   0.1575061  -0.5000000), wk =   0.0185185
        k(    9) = (   0.0000000   0.3150122   0.0000000), wk =   0.0185185
        k(   10) = (   0.0000000   0.3150122   0.1666667), wk =   0.0370370
        k(   11) = (   0.0000000   0.3150122   0.3333333), wk =   0.0370370
        k(   12) = (   0.0000000   0.3150122  -0.5000000), wk =   0.0185185
        k(   13) = (   0.0000000  -0.4725183   0.0000000), wk =   0.0092593
        k(   14) = (   0.0000000  -0.4725183   0.1666667), wk =   0.0185185
        k(   15) = (   0.0000000  -0.4725183   0.3333333), wk =   0.0185185
        k(   16) = (   0.0000000  -0.4725183  -0.5000000), wk =   0.0092593
        k(   17) = (   0.1666667   0.0000000   0.1666667), wk =   0.0370370
        k(   18) = (   0.1666667   0.0000000   0.3333333), wk =   0.0370370
        k(   19) = (   0.1666667   0.0000000  -0.5000000), wk =   0.0185185
        k(   20) = (   0.1666667   0.1575061   0.1666667), wk =   0.0740741
        k(   21) = (   0.1666667   0.1575061   0.3333333), wk =   0.0740741
        k(   22) = (   0.1666667   0.1575061  -0.5000000), wk =   0.0370370
        k(   23) = (   0.1666667   0.3150122   0.1666667), wk =   0.0740741
        k(   24) = (   0.1666667   0.3150122   0.3333333), wk =   0.0740741
        k(   25) = (   0.1666667   0.3150122  -0.5000000), wk =   0.0370370
        k(   26) = (   0.1666667  -0.4725183   0.1666667), wk =   0.0370370
        k(   27) = (   0.1666667  -0.4725183   0.3333333), wk =   0.0370370
        k(   28) = (   0.1666667  -0.4725183  -0.5000000), wk =   0.0185185
        k(   29) = (   0.3333333   0.0000000   0.3333333), wk =   0.0370370
        k(   30) = (   0.3333333   0.0000000  -0.5000000), wk =   0.0185185
        k(   31) = (   0.3333333   0.1575061   0.3333333), wk =   0.0740741
        k(   32) = (   0.3333333   0.1575061  -0.5000000), wk =   0.0370370
        k(   33) = (   0.3333333   0.3150122   0.3333333), wk =   0.0740741
        k(   34) = (   0.3333333   0.3150122  -0.5000000), wk =   0.0370370
        k(   35) = (   0.3333333  -0.4725183   0.3333333), wk =   0.0370370
        k(   36) = (   0.3333333  -0.4725183  -0.5000000), wk =   0.0185185
        k(   37) = (  -0.5000000   0.0000000  -0.5000000), wk =   0.0092593
        k(   38) = (  -0.5000000   0.1575061  -0.5000000), wk =   0.0185185
        k(   39) = (  -0.5000000   0.3150122  -0.5000000), wk =   0.0185185
        k(   40) = (  -0.5000000  -0.4725183  -0.5000000), wk =   0.0092593
        k(   41) = (   0.1666667   0.0000000   0.0000000), wk =   0.0185185
        k(   42) = (   0.3333333   0.0000000   0.0000000), wk =   0.0185185
        k(   43) = (  -0.5000000   0.0000000   0.0000000), wk =   0.0092593
        k(   44) = (   0.1666667  -0.1575061   0.0000000), wk =   0.0370370
        k(   45) = (   0.3333333  -0.1575061   0.0000000), wk =   0.0370370
        k(   46) = (  -0.5000000  -0.1575061   0.0000000), wk =   0.0185185
        k(   47) = (   0.1666667  -0.3150122   0.0000000), wk =   0.0370370
        k(   48) = (   0.3333333  -0.3150122   0.0000000), wk =   0.0370370
        k(   49) = (  -0.5000000  -0.3150122   0.0000000), wk =   0.0185185
        k(   50) = (   0.1666667   0.4725183   0.0000000), wk =   0.0185185
        k(   51) = (   0.3333333   0.4725183   0.0000000), wk =   0.0185185
        k(   52) = (  -0.5000000   0.4725183   0.0000000), wk =   0.0092593
        k(   53) = (   0.3333333   0.0000000   0.1666667), wk =   0.0370370
        k(   54) = (  -0.5000000   0.0000000   0.1666667), wk =   0.0185185
        k(   55) = (   0.3333333  -0.1575061   0.1666667), wk =   0.0740741
        k(   56) = (  -0.5000000  -0.1575061   0.1666667), wk =   0.0370370
        k(   57) = (   0.3333333  -0.3150122   0.1666667), wk =   0.0740741
        k(   58) = (  -0.5000000  -0.3150122   0.1666667), wk =   0.0370370
        k(   59) = (   0.3333333   0.4725183   0.1666667), wk =   0.0370370
        k(   60) = (  -0.5000000   0.4725183   0.1666667), wk =   0.0185185
        k(   61) = (  -0.5000000   0.0000000   0.3333333), wk =   0.0185185
        k(   62) = (  -0.5000000  -0.1575061   0.3333333), wk =   0.0370370
        k(   63) = (  -0.5000000  -0.3150122   0.3333333), wk =   0.0370370
        k(   64) = (  -0.5000000   0.4725183   0.3333333), wk =   0.0185185

     Initial potential from superposition of free atoms

     starting charge  367.99656, renormalised to  368.00000
     Starting wfc are  232 randomized atomic wfcs

     Self-consistent Calculation

     iteration #  1     ecut=   120.00 Ry     beta= 0.70
     Davidson diagonalization with overlap
     ethr =  1.00E-02,  avg # of iterations =  5.2

     total energy              =   -6253.96274015 Ry
     Harris-Foulkes estimate   =   -6264.53085381 Ry
     estimated scf accuracy    <      13.39649784 Ry

[...]

     End of self-consistent calculation

[...]
End final coordinates

     A final scf calculation at the relaxed structure.
     The G-vectors are recalculated for the final unit cell
     Results may differ from those at the preceding step.

     bravais-lattice index     =            0
     lattice parameter (alat)  =      13.8397  a.u.
     unit-cell volume          =    2831.2592 (a.u.)^3
     number of atoms/cell      =           32
     number of atomic types    =            2
     number of electrons       =       368.00
     number of Kohn-Sham states=          221
     kinetic-energy cutoff     =     120.0000  Ry
     charge density cutoff     =     480.0000  Ry
     convergence threshold     =      1.0E-10
     mixing beta               =       0.7000
     number of iterations used =            8  plain     mixing
     Exchange-correlation      = SLA PW NOGX NOGC ( 1  4  0  0 0 0)

     celldm(1)=  13.839685  celldm(2)=   0.000000  celldm(3)=   0.000000
     celldm(4)=   0.000000  celldm(5)=   0.000000  celldm(6)=   0.000000

     crystal axes: (cart. coord. in units of alat)
               a(1) = (   1.012811   0.000000   0.000000 )
               a(2) = (   0.000000   1.040134   0.000000 )
               a(3) = (   0.000000   0.000000   1.013871 )

     reciprocal axes: (cart. coord. in units 2 pi/alat)
               b(1) = (  0.987351  0.000000  0.000000 )
               b(2) = (  0.000000  0.961414  0.000000 )
               b(3) = (  0.000000  0.000000  0.986318 )

     PseudoPot. # 1 for W  read from file:
     /cluster/scratch/mnoe/QE/pps/W_ONCV_LDA-4.0.upf
     MD5 check sum: ba0307d5d4cd419d6f1d13dc49d7c13a
     Pseudo is Norm-conserving + core correction, Zval = 28.0
     Generated using ONCVPSP code by D. R. Hamann
     Using radial grid of 1380 points,  8 beta functions with:
                l(1) =   0
                l(2) =   0
                l(3) =   1
                l(4) =   1
                l(5) =   2
                l(6) =   2
                l(7) =   3
                l(8) =   3

     PseudoPot. # 2 for O  read from file:
     /cluster/scratch/mnoe/QE/pps/O_ONCV_LDA-3.0.upf
     MD5 check sum: a1bd6164e7280c17a38c229939bfbd54
     Pseudo is Norm-conserving + core correction, Zval =  6.0
     Generated using ONCVPSP code by D. R. Hamann
     Using radial grid of  926 points,  5 beta functions with:
                l(1) =   0
                l(2) =   0
                l(3) =   1
                l(4) =   1
                l(5) =   2

     atomic species   valence    mass     pseudopotential
        W             28.00   183.84000     W ( 1.00)
        O              6.00    15.99940     O ( 1.00)

      8 Sym. Ops., with inversion, found ( 6 have fractional translation)

   Cartesian axes

     site n.     atom                  positions (alat units)
         1           W   tau(   1) = (   0.2400870   0.2983223   0.0123996  )
         2           W   tau(   2) = (   0.7727245   0.7418121   1.0014719  )
         3           W   tau(   3) = (   0.2663188   0.2217449   0.5193354  )
         4           W   tau(   4) = (   0.7464927   0.8183895   0.4945361  )
         5           W   tau(   5) = (   0.7727245   0.2983223   0.4945361  )
         6           W   tau(   6) = (   0.2400870   0.7418121   0.5193354  )
         7           W   tau(   7) = (   0.7464927   0.2217449   1.0014719  )
         8           W   tau(   8) = (   0.2663188   0.8183895   0.0123996  )
         9           O   tau(   9) = (   0.2290068   0.0183989   0.0038527  )
        10           O   tau(  10) = (   0.7838047   1.0217355   1.0100188  )
        11           O   tau(  11) = (   0.2773989   0.5016682   0.5107884  )
        12           O   tau(  12) = (   0.7354125   0.5384661   0.5030830  )
        13           O   tau(  13) = (   0.7838047   0.0183989   0.5030830  )
        14           O   tau(  14) = (   0.2290068   1.0217355   0.5107884  )
        15           O   tau(  15) = (   0.7354125   0.5016682   1.0100188  )
        16           O   tau(  16) = (   0.2773989   0.5384661   0.0038527  )
        17           O   tau(  17) = (   0.5099911   0.2345399   0.4817228  )
        18           O   tau(  18) = (   0.5028204   0.8055945   0.5321487  )
        19           O   tau(  19) = (   1.0092261   0.2855273   0.9886586  )
        20           O   tau(  20) = (   0.0035854   0.7546071   0.0252130  )
        21           O   tau(  21) = (   0.5028204   0.2345399   0.0252130  )
        22           O   tau(  22) = (   0.5099911   0.8055945   0.9886586  )
        23           O   tau(  23) = (   0.0035854   0.2855273   0.5321487  )
        24           O   tau(  24) = (   1.0092261   0.7546071   0.4817228  )
        25           O   tau(  25) = (   0.7344221   0.2544689   0.7549591  )
        26           O   tau(  26) = (   0.2783895   0.7856655   0.2589124  )
        27           O   tau(  27) = (   0.7847952   0.2655983   0.2480234  )
        28           O   tau(  28) = (   0.2280163   0.7745361   0.7658481  )
        29           O   tau(  29) = (   0.2783895   0.2544689   0.7658481  )
        30           O   tau(  30) = (   0.7344221   0.7856655   0.2480234  )
        31           O   tau(  31) = (   0.2280163   0.2655983   0.2589124  )
        32           O   tau(  32) = (   0.7847952   0.7745361   0.7549591  )

     number of k points=    64  gaussian smearing, width (Ry)=  0.0007
                       cart. coord. in units 2pi/alat
        k(    1) = (   0.0000000   0.0000000   0.0000000), wk =   0.0092593
        k(    2) = (   0.0000000   0.0000000   0.1643864), wk =   0.0185185
        k(    3) = (   0.0000000   0.0000000   0.3287728), wk =   0.0185185
        k(    4) = (   0.0000000   0.0000000  -0.4931591), wk =   0.0092593
        k(    5) = (   0.0000000   0.1602357   0.0000000), wk =   0.0185185
        k(    6) = (   0.0000000   0.1602357   0.1643864), wk =   0.0370370
        k(    7) = (   0.0000000   0.1602357   0.3287728), wk =   0.0370370
        k(    8) = (   0.0000000   0.1602357  -0.4931591), wk =   0.0185185
        k(    9) = (   0.0000000   0.3204714   0.0000000), wk =   0.0185185
        k(   10) = (   0.0000000   0.3204714   0.1643864), wk =   0.0370370
        k(   11) = (   0.0000000   0.3204714   0.3287728), wk =   0.0370370
        k(   12) = (   0.0000000   0.3204714  -0.4931591), wk =   0.0185185
        k(   13) = (   0.0000000  -0.4807071   0.0000000), wk =   0.0092593
        k(   14) = (   0.0000000  -0.4807071   0.1643864), wk =   0.0185185
        k(   15) = (   0.0000000  -0.4807071   0.3287728), wk =   0.0185185
        k(   16) = (   0.0000000  -0.4807071  -0.4931591), wk =   0.0092593
        k(   17) = (   0.1645584   0.0000000   0.1643864), wk =   0.0370370
        k(   18) = (   0.1645584   0.0000000   0.3287728), wk =   0.0370370
        k(   19) = (   0.1645584   0.0000000  -0.4931591), wk =   0.0185185
        k(   20) = (   0.1645584   0.1602357   0.1643864), wk =   0.0740741
        k(   21) = (   0.1645584   0.1602357   0.3287728), wk =   0.0740741
        k(   22) = (   0.1645584   0.1602357  -0.4931591), wk =   0.0370370
        k(   23) = (   0.1645584   0.3204714   0.1643864), wk =   0.0740741
        k(   24) = (   0.1645584   0.3204714   0.3287728), wk =   0.0740741
        k(   25) = (   0.1645584   0.3204714  -0.4931591), wk =   0.0370370
        k(   26) = (   0.1645584  -0.4807071   0.1643864), wk =   0.0370370
        k(   27) = (   0.1645584  -0.4807071   0.3287728), wk =   0.0370370
        k(   28) = (   0.1645584  -0.4807071  -0.4931591), wk =   0.0185185
        k(   29) = (   0.3291169   0.0000000   0.3287728), wk =   0.0370370
        k(   30) = (   0.3291169   0.0000000  -0.4931591), wk =   0.0185185
        k(   31) = (   0.3291169   0.1602357   0.3287728), wk =   0.0740741
        k(   32) = (   0.3291169   0.1602357  -0.4931591), wk =   0.0370370
        k(   33) = (   0.3291169   0.3204714   0.3287728), wk =   0.0740741
        k(   34) = (   0.3291169   0.3204714  -0.4931591), wk =   0.0370370
        k(   35) = (   0.3291169  -0.4807071   0.3287728), wk =   0.0370370
        k(   36) = (   0.3291169  -0.4807071  -0.4931591), wk =   0.0185185
        k(   37) = (  -0.4936753   0.0000000  -0.4931591), wk =   0.0092593
        k(   38) = (  -0.4936753   0.1602357  -0.4931591), wk =   0.0185185
        k(   39) = (  -0.4936753   0.3204714  -0.4931591), wk =   0.0185185
        k(   40) = (  -0.4936753  -0.4807071  -0.4931591), wk =   0.0092593
        k(   41) = (   0.1645584   0.0000000   0.0000000), wk =   0.0185185
        k(   42) = (   0.3291169   0.0000000   0.0000000), wk =   0.0185185
        k(   43) = (  -0.4936753   0.0000000   0.0000000), wk =   0.0092593
        k(   44) = (   0.1645584  -0.1602357   0.0000000), wk =   0.0370370
        k(   45) = (   0.3291169  -0.1602357   0.0000000), wk =   0.0370370
        k(   46) = (  -0.4936753  -0.1602357   0.0000000), wk =   0.0185185
        k(   47) = (   0.1645584  -0.3204714   0.0000000), wk =   0.0370370
        k(   48) = (   0.3291169  -0.3204714   0.0000000), wk =   0.0370370
        k(   49) = (  -0.4936753  -0.3204714   0.0000000), wk =   0.0185185
        k(   50) = (   0.1645584   0.4807071   0.0000000), wk =   0.0185185
        k(   51) = (   0.3291169   0.4807071   0.0000000), wk =   0.0185185
        k(   52) = (  -0.4936753   0.4807071   0.0000000), wk =   0.0092593
        k(   53) = (   0.3291169   0.0000000   0.1643864), wk =   0.0370370
        k(   54) = (  -0.4936753   0.0000000   0.1643864), wk =   0.0185185
        k(   55) = (   0.3291169  -0.1602357   0.1643864), wk =   0.0740741
        k(   56) = (  -0.4936753  -0.1602357   0.1643864), wk =   0.0370370
        k(   57) = (   0.3291169  -0.3204714   0.1643864), wk =   0.0740741
        k(   58) = (  -0.4936753  -0.3204714   0.1643864), wk =   0.0370370
        k(   59) = (   0.3291169   0.4807071   0.1643864), wk =   0.0370370
        k(   60) = (  -0.4936753   0.4807071   0.1643864), wk =   0.0185185
        k(   61) = (  -0.4936753   0.0000000   0.3287728), wk =   0.0185185
        k(   62) = (  -0.4936753  -0.1602357   0.3287728), wk =   0.0370370
        k(   63) = (  -0.4936753  -0.3204714   0.3287728), wk =   0.0370370
        k(   64) = (  -0.4936753   0.4807071   0.3287728), wk =   0.0185185

     Initial potential from superposition of free atoms

     starting charge  367.99656, renormalised to  368.00000
     Starting wfc are  232 randomized atomic wfcs

     Writing output data file Landau_28.save

     Self-consistent Calculation

[...]

     total energy              =   -6261.08682929 Ry
     Harris-Foulkes estimate   =   -6261.08682929 Ry
     estimated scf accuracy    <          5.0E-10 Ry

     iteration # 15     ecut=   120.00 Ry     beta= 0.70
     Davidson diagonalization with overlap
     ethr =  1.36E-13,  avg # of iterations =  2.0

     End of self-consistent calculation

[...]

          k = 0.3291 0.4807 0.1644 ( 62854 PWs)   bands (ev):

[...]

          k =-0.4937 0.4807 0.3288 ( 62832 PWs)   bands (ev):

   -66.3026 -66.3026 -66.3026 -66.3026 -66.3023 -66.3023 -66.3023 -66.3022
   -30.6453 -30.6453 -30.6445 -30.6445 -30.6402 -30.6402 -30.6378 -30.6378
   -30.6371 -30.6371 -30.6365 -30.6365 -30.6154 -30.6154 -30.6139 -30.6139
   -30.5975 -30.5975 -30.5955 -30.5955 -30.5815 -30.5815 -30.5807 -30.5807
   -20.4696 -20.4696 -20.4696 -20.4696 -20.4691 -20.4691 -20.4690 -20.4690
   -20.4540 -20.4540 -20.4540 -20.4540 -20.4537 -20.4537 -20.4536 -20.4536
   -20.4442 -20.4442 -20.4442 -20.4442 -20.4435 -20.4435 -20.4435 -20.4435
   -20.4343 -20.4343 -20.4342 -20.4341 -20.4339 -20.4339 -20.4337 -20.4337
   -20.4298 -20.4298 -20.4296 -20.4296 -20.4294 -20.4294 -20.4293 -20.4293
   -20.4276 -20.4276 -20.4274 -20.4274 -20.4261 -20.4261 -20.4260 -20.4260
   -20.4150 -20.4150 -20.4150 -20.4150 -20.4144 -20.4143 -20.4143 -20.4143
    -9.3338  -9.3338  -9.3181  -9.3181  -8.9689  -8.9689  -8.9291  -8.9291
    -8.6693  -8.6693  -8.6367  -8.6367  -8.5005  -8.5005  -8.4838  -8.4838
    -8.4367  -8.4367  -8.4285  -8.4285  -8.2533  -8.2533  -8.2515  -8.2515
     2.0741   2.0741   2.0889   2.0889   2.7866   2.7866   2.8240   2.8240
     2.8580   2.8580   2.8959   2.8959   3.0323   3.0323   3.0790   3.0790
     3.2690   3.2690   3.3151   3.3151   3.4245   3.4245   3.4576   3.4577
     3.6590   3.6590   3.7997   3.7997   4.1826   4.1826   4.1884   4.1884
     4.2417   4.2417   4.2722   4.2722   4.3926   4.3926   4.4731   4.4731
     4.5908   4.5908   4.7159   4.7159   4.8855   4.8855   4.8969   4.8969
     6.8771   6.8771   6.9720   6.9720   7.0040   7.0040   7.0344   7.0344
     7.1170   7.1170   7.1946   7.1946   7.2745   7.2745   7.3529   7.3529
     7.3865   7.3865   7.4708   7.4708   7.5098   7.5098   7.5690   7.5690
    11.3541  11.3541  11.3979  11.3979  11.5611  11.5611  11.6622  11.6622
    12.0620  12.0620  12.1597  12.1597  12.2180  12.2180  12.3080  12.3080
    12.3945  12.3945  12.5503  12.5503  12.7780  12.7780  12.8501  12.8501
    16.1605  16.1605  16.2200  16.2200  16.7321  16.7321  16.8826  16.8826
    17.1391  17.1391  17.2343  17.2344  17.2896

     the Fermi energy is     8.7777 ev

!    total energy              =   -6261.08682929 Ry
     Harris-Foulkes estimate   =   -6261.08682929 Ry
     estimated scf accuracy    <          1.1E-11 Ry

     The total energy is the sum of the following terms:

     one-electron contribution =   -4754.57024723 Ry
     hartree contribution      =    2612.23206658 Ry
     xc contribution           =    -965.69240054 Ry
     ewald contribution        =   -3153.05624810 Ry
     smearing contrib. (-TS)   =      -0.00000000 Ry

     convergence has been achieved in  15 iterations

     Forces acting on atoms (cartesian axes, Ry/au):

     atom    1 type  1   force =     0.00181780    0.00276185    0.00241381
     atom    2 type  1   force =    -0.00181780   -0.00276185   -0.00241381
     atom    3 type  1   force =    -0.00181780   -0.00276185    0.00241381
     atom    4 type  1   force =     0.00181780    0.00276185   -0.00241381
     atom    5 type  1   force =    -0.00181780    0.00276185   -0.00241381
     atom    6 type  1   force =     0.00181780   -0.00276185    0.00241381
     atom    7 type  1   force =     0.00181780   -0.00276185   -0.00241381
     atom    8 type  1   force =    -0.00181780    0.00276185    0.00241381
     atom    9 type  2   force =     0.00290544   -0.04029151    0.00110925
     atom   10 type  2   force =    -0.00290544    0.04029151   -0.00110925
     atom   11 type  2   force =    -0.00290544    0.04029151    0.00110925
     atom   12 type  2   force =     0.00290544   -0.04029151   -0.00110925
     atom   13 type  2   force =    -0.00290544   -0.04029151   -0.00110925
     atom   14 type  2   force =     0.00290544    0.04029151    0.00110925
     atom   15 type  2   force =     0.00290544    0.04029151   -0.00110925
     atom   16 type  2   force =    -0.00290544   -0.04029151    0.00110925
     atom   17 type  2   force =     0.00252987   -0.00363893   -0.00098665
     atom   18 type  2   force =    -0.00252987    0.00363893    0.00098665
     atom   19 type  2   force =    -0.00252987    0.00363893   -0.00098665
     atom   20 type  2   force =     0.00252987   -0.00363893    0.00098665
     atom   21 type  2   force =    -0.00252987   -0.00363893    0.00098665
     atom   22 type  2   force =     0.00252987    0.00363893   -0.00098665
     atom   23 type  2   force =     0.00252987    0.00363893    0.00098665
     atom   24 type  2   force =    -0.00252987   -0.00363893   -0.00098665
     atom   25 type  2   force =    -0.00249619    0.00037853    0.00300942
     atom   26 type  2   force =     0.00249619   -0.00037853   -0.00300942
     atom   27 type  2   force =     0.00249619   -0.00037853    0.00300942
     atom   28 type  2   force =    -0.00249619    0.00037853   -0.00300942
     atom   29 type  2   force =     0.00249619    0.00037853   -0.00300942
     atom   30 type  2   force =    -0.00249619   -0.00037853    0.00300942
     atom   31 type  2   force =    -0.00249619   -0.00037853   -0.00300942
     atom   32 type  2   force =     0.00249619    0.00037853    0.00300942

     Total force =     0.000000     Total SCF correction =     0.000000

     Computing stress (Cartesian axis) and pressure

          total   stress  (Ry/bohr**3)                   (kbar)     P=    0.52
   0.00000549   0.00000000   0.00000000          0.81      0.00      0.00
   0.00000000  -0.00000078   0.00000000          0.00     -0.11      0.00
   0.00000000   0.00000000   0.00000593          0.00      0.00      0.87

     Writing output data file Landau_28.save

     General routines

     Parallel routines

   This run was terminated on:  20: 4: 8   5Mar2020

   JOB DONE.