     Program PWSCF v.6.4.1 starts on  2Dec2019 at 20:22:47

     K-points division:     npool     =      40
     Reading input from scf.in

     Current dimensions of program PWSCF are:
     Max number of different atomic species (ntypx) = 10
     Max number of k-points (npk) =  40000
     Max angular momentum in pseudopotentials (lmaxx) =  3

     Subspace diagonalization in iterative solution of the eigenvalue problem:
     a serial algorithm will be used

     Message from routine setup:
     using ibrav=0 with symmetry is DISCOURAGED, use correct ibrav instead

     bravais-lattice index     =            0
     lattice parameter (alat)  =      13.8931  a.u.
     unit-cell volume          =    2823.3496 (a.u.)^3
     number of atoms/cell      =           32
     number of atomic types    =            2
     number of electrons       =       368.36
     number of Kohn-Sham states=          221
     kinetic-energy cutoff     =     120.0000  Ry
     charge density cutoff     =     480.0000  Ry
     convergence threshold     =      1.0E-08
     mixing beta               =       0.7000
     number of iterations used =            8  plain     mixing
     Exchange-correlation      = SLA PW NOGX NOGC ( 1  4  0  0 0 0)

     celldm(1)=  13.893086  celldm(2)=   0.000000  celldm(3)=   0.000000
     celldm(4)=   0.000000  celldm(5)=   0.000000  celldm(6)=   0.000000

     crystal axes: (cart. coord. in units of alat)
               a(1) = (   1.000000   0.000000   0.000000 )
               a(2) = (   0.000000   1.053107   0.000000 )
               a(3) = (   0.000000   0.000000   0.999760 )

     reciprocal axes: (cart. coord. in units 2 pi/alat)
               b(1) = (  1.000000  0.000000  0.000000 )
               b(2) = (  0.000000  0.949571  0.000000 )
               b(3) = (  0.000000  0.000000  1.000240 )

     PseudoPot. # 1 for W  read from file:
     /cluster/scratch/mnoe/QE/pps/W_ONCV_LDA-4.0.upf
     MD5 check sum: ba0307d5d4cd419d6f1d13dc49d7c13a
     Pseudo is Norm-conserving + core correction, Zval = 28.0
     Generated using ONCVPSP code by D. R. Hamann
     Using radial grid of 1380 points,  8 beta functions with:
                l(1) =   0
                l(2) =   0
                l(3) =   1
                l(4) =   1
                l(5) =   2
                l(6) =   2
                l(7) =   3
                l(8) =   3

     PseudoPot. # 2 for O  read from file:
     /cluster/scratch/mnoe/QE/pps/O_ONCV_LDA-3.0.upf
     MD5 check sum: b55cdb4f45ae2203d24ad12cf8d61a31
     Pseudo is Norm-conserving + core correction, Zval =  6.0
     Generated using ONCVPSP code by D. R. Hamann
     Using radial grid of  926 points,  5 beta functions with:
                l(1) =   0
                l(2) =   0
                l(3) =   1
                l(4) =   1
                l(5) =   2

     atomic species   valence    mass     pseudopotential
        W             28.00   183.84000     W ( 1.00)
        O              6.00    15.99940     O ( 1.00)

      8 Sym. Ops., with inversion, found ( 6 have fractional translation)

   Cartesian axes

     site n.     atom                  positions (alat units)
         1           W   tau(   1) = (   0.2476900   0.2968288   0.0021795  )
         2           W   tau(   2) = (   0.7523100   0.7562784   0.9975808  )
         3           W   tau(   3) = (   0.2523100   0.2297248   0.5020596  )
         4           W   tau(   4) = (   0.7476900   0.8233823   0.4977007  )
         5           W   tau(   5) = (   0.7523100   0.2968288   0.4977007  )
         6           W   tau(   6) = (   0.2476900   0.7562784   0.5020596  )
         7           W   tau(   7) = (   0.7476900   0.2297248   0.9975808  )
         8           W   tau(   8) = (   0.2523100   0.8233823   0.0021795  )
         9           O   tau(   9) = (   0.2457300   0.0087619   0.0006798  )
        10           O   tau(  10) = (   0.7542700   1.0443453   0.9990804  )
        11           O   tau(  11) = (   0.2542700   0.5177917   0.5005600  )
        12           O   tau(  12) = (   0.7457300   0.5353154   0.4992003  )
        13           O   tau(  13) = (   0.7542700   0.0087619   0.4992003  )
        14           O   tau(  14) = (   0.2457300   1.0443453   0.5005600  )
        15           O   tau(  15) = (   0.7457300   0.5177917   0.9990804  )
        16           O   tau(  16) = (   0.2542700   0.5353154   0.0006798  )
        17           O   tau(  17) = (   0.5006300   0.2586642   0.4494322  )
        18           O   tau(  18) = (   0.4993700   0.7944430   0.5503280  )
        19           O   tau(  19) = (   0.9993700   0.2678894   0.9493124  )
        20           O   tau(  20) = (   0.0006300   0.7852177   0.0504479  )
        21           O   tau(  21) = (   0.4993700   0.2586642   0.0504479  )
        22           O   tau(  22) = (   0.5006300   0.7944430   0.9493124  )
        23           O   tau(  23) = (   0.0006300   0.2678894   0.5503280  )
        24           O   tau(  24) = (   0.9993700   0.7852177   0.4494322  )
        25           O   tau(  25) = (   0.6995400   0.2622658   0.7488604  )
        26           O   tau(  26) = (   0.3004600   0.7908414   0.2508998  )
        27           O   tau(  27) = (   0.8004600   0.2642878   0.2489803  )
        28           O   tau(  28) = (   0.1995400   0.7888194   0.7507800  )
        29           O   tau(  29) = (   0.3004600   0.2622658   0.7507800  )
        30           O   tau(  30) = (   0.6995400   0.7908414   0.2489803  )
        31           O   tau(  31) = (   0.1995400   0.2642878   0.2508998  )
        32           O   tau(  32) = (   0.8004600   0.7888194   0.7488604  )

     number of k points=    64  gaussian smearing, width (Ry)=  0.0007
                       cart. coord. in units 2pi/alat
        k(    1) = (   0.0000000   0.0000000   0.0000000), wk =   0.0092593
        k(    2) = (   0.0000000   0.0000000   0.1667066), wk =   0.0185185
        k(    3) = (   0.0000000   0.0000000   0.3334133), wk =   0.0185185
        k(    4) = (   0.0000000   0.0000000  -0.5001199), wk =   0.0092593
        k(    5) = (   0.0000000   0.1582618   0.0000000), wk =   0.0185185
        k(    6) = (   0.0000000   0.1582618   0.1667066), wk =   0.0370370
        k(    7) = (   0.0000000   0.1582618   0.3334133), wk =   0.0370370
        k(    8) = (   0.0000000   0.1582618  -0.5001199), wk =   0.0185185
        k(    9) = (   0.0000000   0.3165237   0.0000000), wk =   0.0185185
        k(   10) = (   0.0000000   0.3165237   0.1667066), wk =   0.0370370
        k(   11) = (   0.0000000   0.3165237   0.3334133), wk =   0.0370370
        k(   12) = (   0.0000000   0.3165237  -0.5001199), wk =   0.0185185
        k(   13) = (   0.0000000  -0.4747855   0.0000000), wk =   0.0092593
        k(   14) = (   0.0000000  -0.4747855   0.1667066), wk =   0.0185185
        k(   15) = (   0.0000000  -0.4747855   0.3334133), wk =   0.0185185
        k(   16) = (   0.0000000  -0.4747855  -0.5001199), wk =   0.0092593
        k(   17) = (   0.1666667   0.0000000   0.0000000), wk =   0.0185185
        k(   18) = (   0.1666667   0.0000000   0.1667066), wk =   0.0370370
        k(   19) = (   0.1666667   0.0000000   0.3334133), wk =   0.0370370
        k(   20) = (   0.1666667   0.0000000  -0.5001199), wk =   0.0185185
        k(   21) = (   0.1666667   0.1582618   0.0000000), wk =   0.0370370
        k(   22) = (   0.1666667   0.1582618   0.1667066), wk =   0.0740741
        k(   23) = (   0.1666667   0.1582618   0.3334133), wk =   0.0740741
        k(   24) = (   0.1666667   0.1582618  -0.5001199), wk =   0.0370370
        k(   25) = (   0.1666667   0.3165237   0.0000000), wk =   0.0370370
        k(   26) = (   0.1666667   0.3165237   0.1667066), wk =   0.0740741
        k(   27) = (   0.1666667   0.3165237   0.3334133), wk =   0.0740741
        k(   28) = (   0.1666667   0.3165237  -0.5001199), wk =   0.0370370
        k(   29) = (   0.1666667  -0.4747855   0.0000000), wk =   0.0185185
        k(   30) = (   0.1666667  -0.4747855   0.1667066), wk =   0.0370370
        k(   31) = (   0.1666667  -0.4747855   0.3334133), wk =   0.0370370
        k(   32) = (   0.1666667  -0.4747855  -0.5001199), wk =   0.0185185
        k(   33) = (   0.3333333   0.0000000   0.0000000), wk =   0.0185185
        k(   34) = (   0.3333333   0.0000000   0.1667066), wk =   0.0370370
        k(   35) = (   0.3333333   0.0000000   0.3334133), wk =   0.0370370
        k(   36) = (   0.3333333   0.0000000  -0.5001199), wk =   0.0185185
        k(   37) = (   0.3333333   0.1582618   0.0000000), wk =   0.0370370
        k(   38) = (   0.3333333   0.1582618   0.1667066), wk =   0.0740741
        k(   39) = (   0.3333333   0.1582618   0.3334133), wk =   0.0740741
        k(   40) = (   0.3333333   0.1582618  -0.5001199), wk =   0.0370370
        k(   41) = (   0.3333333   0.3165237   0.0000000), wk =   0.0370370
        k(   42) = (   0.3333333   0.3165237   0.1667066), wk =   0.0740741
        k(   43) = (   0.3333333   0.3165237   0.3334133), wk =   0.0740741
        k(   44) = (   0.3333333   0.3165237  -0.5001199), wk =   0.0370370
        k(   45) = (   0.3333333  -0.4747855   0.0000000), wk =   0.0185185
        k(   46) = (   0.3333333  -0.4747855   0.1667066), wk =   0.0370370
        k(   47) = (   0.3333333  -0.4747855   0.3334133), wk =   0.0370370
        k(   48) = (   0.3333333  -0.4747855  -0.5001199), wk =   0.0185185
        k(   49) = (  -0.5000000   0.0000000   0.0000000), wk =   0.0092593
        k(   50) = (  -0.5000000   0.0000000   0.1667066), wk =   0.0185185
        k(   51) = (  -0.5000000   0.0000000   0.3334133), wk =   0.0185185
        k(   52) = (  -0.5000000   0.0000000  -0.5001199), wk =   0.0092593
        k(   53) = (  -0.5000000   0.1582618   0.0000000), wk =   0.0185185
        k(   54) = (  -0.5000000   0.1582618   0.1667066), wk =   0.0370370
        k(   55) = (  -0.5000000   0.1582618   0.3334133), wk =   0.0370370
        k(   56) = (  -0.5000000   0.1582618  -0.5001199), wk =   0.0185185
        k(   57) = (  -0.5000000   0.3165237   0.0000000), wk =   0.0185185
        k(   58) = (  -0.5000000   0.3165237   0.1667066), wk =   0.0370370
        k(   59) = (  -0.5000000   0.3165237   0.3334133), wk =   0.0370370
        k(   60) = (  -0.5000000   0.3165237  -0.5001199), wk =   0.0185185
        k(   61) = (  -0.5000000  -0.4747855   0.0000000), wk =   0.0092593
        k(   62) = (  -0.5000000  -0.4747855   0.1667066), wk =   0.0185185
        k(   63) = (  -0.5000000  -0.4747855   0.3334133), wk =   0.0185185
        k(   64) = (  -0.5000000  -0.4747855  -0.5001199), wk =   0.0092593

     Initial potential from superposition of free atoms

     starting charge  367.99656, renormalised to  368.36000
     Starting wfcs are  232 randomized atomic wfcs

     Self-consistent Calculation

     iteration #  1     ecut=   120.00 Ry     beta= 0.70
     Davidson diagonalization with overlap
     ethr =  1.00E-02,  avg # of iterations =  5.1

     total energy              =   -6253.59533045 Ry
     Harris-Foulkes estimate   =   -6264.40486776 Ry
     estimated scf accuracy    <      13.63423462 Ry

[...]

     iteration #  7     ecut=   120.00 Ry     beta= 0.70
     Davidson diagonalization with overlap
     c_bands:  1 eigenvalues not converged
     ethr =  2.07E-06,  avg # of iterations =  5.7

[...]

     total energy              =   -6260.85891066 Ry
     Harris-Foulkes estimate   =   -6260.85891070 Ry
     estimated scf accuracy    <       0.00000007 Ry

     iteration # 13     ecut=   120.00 Ry     beta= 0.70
     Davidson diagonalization with overlap
     ethr =  1.84E-11,  avg # of iterations =  2.8

     End of self-consistent calculation

          k = 0.0000 0.0000 0.0000 ( 62687 PWs)   bands (ev):

   -66.2166 -66.2162 -66.2157 -66.2157 -66.2153 -66.2153 -66.2147 -66.2143
   -30.6408 -30.6377 -30.6376 -30.6346 -30.5811 -30.5784 -30.5782 -30.5756
   -30.5398 -30.5382 -30.5366 -30.5348 -30.5345 -30.5331 -30.5316 -30.5296
   -30.4432 -30.4419 -30.4405 -30.4391 -30.4391 -30.4377 -30.4364 -30.4350
   -20.3758 -20.3757 -20.3757 -20.3756 -20.3756 -20.3756 -20.3756 -20.3755
   -20.3709 -20.3707 -20.3707 -20.3704 -20.3654 -20.3652 -20.3652 -20.3649
   -20.3595 -20.3593 -20.3592 -20.3590 -20.3585 -20.3584 -20.3583 -20.3581
   -20.3573 -20.3571 -20.3571 -20.3569 -20.3565 -20.3562 -20.3561 -20.3559
   -20.3487 -20.3485 -20.3483 -20.3482 -20.3481 -20.3480 -20.3478 -20.3477
   -20.3341 -20.3340 -20.3338 -20.3338 -20.3327 -20.3327 -20.3325 -20.3325
   -20.3275 -20.3275 -20.3274 -20.3274 -20.3263 -20.3263 -20.3261 -20.3261
    -9.9927  -9.6869  -9.5733  -9.5694  -9.2609  -9.2530  -9.2008  -9.0655
    -9.0531  -8.9718  -8.9301  -8.9266  -7.9735  -7.9154  -7.9148  -7.8647
    -7.8412  -7.8384  -7.8146  -7.8124  -7.6898  -7.6863  -7.6681  -7.6648
     1.2064   1.2066   1.2564   1.2632   1.2865   1.2944   1.2951   1.5195
     1.5280   1.5305   1.6210   1.8023   2.3993   2.4748   2.5149   2.5175
     2.6620   2.6647   4.0821   4.0886   4.3272   4.3368   4.7111   4.7174
     4.8262   4.8311   4.8510   4.8588   4.9347   4.9352   5.0004   5.3395
     5.3426   5.4204   5.4277   5.4402   5.4408   5.4883   5.4974   5.7145
     5.7171   5.7713   5.7720   5.8457   5.8762   5.9954   5.9996   6.0341
     6.0350   6.1872   6.1872   6.5114   6.5163   6.7025   6.7074   6.7352
     6.7385   6.8235   6.9347   6.9637   7.0133   7.0185   7.3302   7.3363
     7.3744   7.3808   7.7194   7.7333   7.9832   7.9856   8.0492   8.0521
     9.1942   9.1998   9.9039   9.9057   9.9432   9.9452  12.1262  12.1319
    12.1852  12.1977  12.2104  12.2123  12.4226  12.4255  12.7256  12.7400
    13.1006  13.1026  13.2741  13.2817  13.6643  14.0106  14.0375  14.0418
    14.0479  14.2390  14.2621  14.7820  15.2525  15.2638  15.3682  15.8721
    15.8783  16.6430  16.8852  16.8857  17.3544

[...]

          k = 0.3333-0.4748-0.5001 ( 62652 PWs)   bands (ev):

[...]

          k =-0.5000 0.0000 0.0000 ( 62684 PWs)   bands (ev):

[...]

          k =-0.5000-0.4748-0.5001 ( 62592 PWs)   bands (ev):

   -66.2155 -66.2155 -66.2155 -66.2155 -66.2155 -66.2155 -66.2155 -66.2155
   -30.6089 -30.6089 -30.6089 -30.6089 -30.6088 -30.6088 -30.6088 -30.6088
   -30.4885 -30.4885 -30.4885 -30.4885 -30.4878 -30.4878 -30.4878 -30.4878
   -30.4860 -30.4860 -30.4860 -30.4860 -30.4853 -30.4853 -30.4853 -30.4853
   -20.3756 -20.3756 -20.3756 -20.3756 -20.3756 -20.3756 -20.3756 -20.3756
   -20.3681 -20.3681 -20.3681 -20.3681 -20.3681 -20.3681 -20.3681 -20.3681
   -20.3580 -20.3580 -20.3580 -20.3580 -20.3578 -20.3578 -20.3578 -20.3578
   -20.3575 -20.3575 -20.3575 -20.3575 -20.3573 -20.3573 -20.3573 -20.3573
   -20.3482 -20.3482 -20.3482 -20.3481 -20.3481 -20.3481 -20.3481 -20.3481
   -20.3303 -20.3303 -20.3303 -20.3303 -20.3303 -20.3303 -20.3303 -20.3303
   -20.3300 -20.3300 -20.3300 -20.3300 -20.3300 -20.3300 -20.3300 -20.3300
    -8.9968  -8.9968  -8.9968  -8.9968  -8.9928  -8.9928  -8.9928  -8.9928
    -8.4794  -8.4794  -8.4794  -8.4794  -8.4706  -8.4706  -8.4706  -8.4706
    -8.4092  -8.4092  -8.4092  -8.4092  -8.4046  -8.4046  -8.4046  -8.4046
     2.9418   2.9418   2.9418   2.9418   2.9536   2.9537   2.9537   2.9537
     3.0851   3.0851   3.0851   3.0851   3.0998   3.0998   3.0998   3.0998
     3.3696   3.3696   3.3696   3.3696   3.4067   3.4067   3.4067   3.4067
     4.1066   4.1066   4.1066   4.1066   4.1111   4.1111   4.1111   4.1111
     4.3112   4.3112   4.3112   4.3112   4.3159   4.3159   4.3159   4.3159
     4.3855   4.3855   4.3855   4.3855   4.3960   4.3961   4.3961   4.3961
     7.0937   7.0937   7.0938   7.0938   7.1382   7.1382   7.1382   7.1382
     7.2541   7.2541   7.2542   7.2542   7.2604   7.2604   7.2604   7.2604
     7.5344   7.5344   7.5344   7.5344   7.5457   7.5457   7.5457   7.5457
    11.7085  11.7085  11.7085  11.7085  11.7116  11.7116  11.7116  11.7116
    12.1655  12.1655  12.1655  12.1655  12.2060  12.2060  12.2060  12.2060
    12.4247  12.4247  12.4247  12.4247  12.4418  12.4418  12.4418  12.4418
    17.0022  17.0022  17.0022  17.0023  17.0238  17.0238  17.0238  17.0238
    17.2477  17.2477  17.2479  17.2480  17.2555

     the Fermi energy is     9.5611 ev

!    total energy              =   -6260.85891068 Ry
     Harris-Foulkes estimate   =   -6260.85891068 Ry
     estimated scf accuracy    <          6.7E-10 Ry

     The total energy is the sum of the following terms:

     one-electron contribution =   -4731.89370843 Ry
     hartree contribution      =    2602.18994184 Ry
     xc contribution           =    -965.85955804 Ry
     ewald contribution        =   -3165.29553971 Ry
     smearing contrib. (-TS)   =      -0.00004635 Ry

     convergence has been achieved in  13 iterations

     Writing output data file Landau_5.save/

     General routines

     Parallel routines

   This run was terminated on:  20:52:34   2Dec2019

   JOB DONE.