     Program PWSCF v.6.2 (svn rev. 14038) starts on 20Mar2020 at  0: 0:19

     K-points division:     npool     =      40
     Reading input from rscf.in

     Current dimensions of program PWSCF are:
     Max number of different atomic species (ntypx) = 10
     Max number of k-points (npk) =  40000
     Max angular momentum in pseudopotentials (lmaxx) =  3

     Subspace diagonalization in iterative solution of the eigenvalue problem:
     a serial algorithm will be used

     bravais-lattice index     =            0
     lattice parameter (alat)  =      13.8397  a.u.
     unit-cell volume          =    2804.9816 (a.u.)^3
     number of atoms/cell      =           32
     number of atomic types    =            2
     number of electrons       =       368.00
     number of Kohn-Sham states=          221
     kinetic-energy cutoff     =     120.0000  Ry
     charge density cutoff     =     480.0000  Ry
     convergence threshold     =      1.0E-08
     mixing beta               =       0.7000
     number of iterations used =            8  plain     mixing
     Exchange-correlation      = SLA PW NOGX NOGC ( 1  4  0  0 0 0)
     nstep                     =           50

     celldm(1)=  13.839685  celldm(2)=   0.000000  celldm(3)=   0.000000
     celldm(4)=   0.000000  celldm(5)=   0.000000  celldm(6)=   0.000000

     crystal axes: (cart. coord. in units of alat)
               a(1) = (   1.000000   0.000000   0.000000 )
               a(2) = (   0.000000   1.058160   0.000000 )
               a(3) = (   0.000000   0.000000   1.000000 )

     reciprocal axes: (cart. coord. in units 2 pi/alat)
               b(1) = (  1.000000  0.000000  0.000000 )
               b(2) = (  0.000000  0.945037  0.000000 )
               b(3) = (  0.000000  0.000000  1.000000 )

     PseudoPot. # 1 for W  read from file:
     /cluster/scratch/mnoe/QE/pps/W_ONCV_LDA-4.0.upf
     MD5 check sum: ba0307d5d4cd419d6f1d13dc49d7c13a
     Pseudo is Norm-conserving + core correction, Zval = 28.0
     Generated using ONCVPSP code by D. R. Hamann
     Using radial grid of 1380 points,  8 beta functions with:
                l(1) =   0
                l(2) =   0
                l(3) =   1
                l(4) =   1
                l(5) =   2
                l(6) =   2
                l(7) =   3
                l(8) =   3

     PseudoPot. # 2 for O  read from file:
     /cluster/scratch/mnoe/QE/pps/O_ONCV_LDA-3.0.upf
     MD5 check sum: a1bd6164e7280c17a38c229939bfbd54
     Pseudo is Norm-conserving + core correction, Zval =  6.0
     Generated using ONCVPSP code by D. R. Hamann
     Using radial grid of  926 points,  5 beta functions with:
                l(1) =   0
                l(2) =   0
                l(3) =   1
                l(4) =   1
                l(5) =   2

     atomic species   valence    mass     pseudopotential
        W             28.00   183.84000     W ( 1.00)
        O              6.00    15.99940     O ( 1.00)

      8 Sym. Ops., with inversion, found ( 6 have fractional translation)

   Cartesian axes

     site n.     atom                  positions (alat units)
         1           W   tau(   1) = (   0.2490760   0.2965908   0.0008725  )
         2           W   tau(   2) = (   0.7509239   0.7615693  -0.0008725  )
         3           W   tau(   3) = (   0.2509240   0.2324892   0.5008725  )
         4           W   tau(   4) = (   0.7490760   0.8256708   0.4991275  )
         5           W   tau(   5) = (   0.7509239   0.2965908   0.4991275  )
         6           W   tau(   6) = (   0.2490760   0.7615693   0.5008725  )
         7           W   tau(   7) = (   0.7490760   0.2324892  -0.0008725  )
         8           W   tau(   8) = (   0.2509240   0.8256708   0.0008725  )
         9           O   tau(   9) = (   0.2482954   0.0083511   0.0002712  )
        10           O   tau(  10) = (   0.7517046  -0.0083510  -0.0002712  )
        11           O   tau(  11) = (   0.2517046   0.5207290   0.5002712  )
        12           O   tau(  12) = (   0.7482954   0.5374311   0.4997288  )
        13           O   tau(  13) = (   0.7517046   0.0083511   0.4997288  )
        14           O   tau(  14) = (   0.2482954  -0.0083510   0.5002712  )
        15           O   tau(  15) = (   0.7482954   0.5207290  -0.0002712  )
        16           O   tau(  16) = (   0.2517046   0.5374311   0.0002712  )
        17           O   tau(  17) = (   0.5002527   0.2626898   0.4533810  )
        18           O   tau(  18) = (   0.4997473   0.7954703   0.5466190  )
        19           O   tau(  19) = (  -0.0002527   0.2663902   0.9533810  )
        20           O   tau(  20) = (   0.0002527   0.7917698   0.0466190  )
        21           O   tau(  21) = (   0.4997473   0.2626898   0.0466190  )
        22           O   tau(  22) = (   0.5002527   0.7954703   0.9533810  )
        23           O   tau(  23) = (   0.0002527   0.2663902   0.5466190  )
        24           O   tau(  24) = (  -0.0002527   0.7917698   0.4533810  )
        25           O   tau(  25) = (   0.7033810   0.2641363   0.7496169  )
        26           O   tau(  26) = (   0.2966190   0.7940238   0.2503831  )
        27           O   tau(  27) = (   0.7966190   0.2649438   0.2496169  )
        28           O   tau(  28) = (   0.2033810   0.7932163   0.7503831  )
        29           O   tau(  29) = (   0.2966190   0.2641363   0.7503831  )
        30           O   tau(  30) = (   0.7033810   0.7940238   0.2496169  )
        31           O   tau(  31) = (   0.2033810   0.2649438   0.2503831  )
        32           O   tau(  32) = (   0.7966190   0.7932163   0.7496169  )

     number of k points=    64  gaussian smearing, width (Ry)=  0.0007
                       cart. coord. in units 2pi/alat
        k(    1) = (   0.0000000   0.0000000   0.0000000), wk =   0.0092593
        k(    2) = (   0.0000000   0.0000000   0.1666667), wk =   0.0185185
        k(    3) = (   0.0000000   0.0000000   0.3333333), wk =   0.0185185
        k(    4) = (   0.0000000   0.0000000  -0.5000000), wk =   0.0092593
        k(    5) = (   0.0000000   0.1575061   0.0000000), wk =   0.0185185
        k(    6) = (   0.0000000   0.1575061   0.1666667), wk =   0.0370370
        k(    7) = (   0.0000000   0.1575061   0.3333333), wk =   0.0370370
        k(    8) = (   0.0000000   0.1575061  -0.5000000), wk =   0.0185185
        k(    9) = (   0.0000000   0.3150122   0.0000000), wk =   0.0185185
        k(   10) = (   0.0000000   0.3150122   0.1666667), wk =   0.0370370
        k(   11) = (   0.0000000   0.3150122   0.3333333), wk =   0.0370370
        k(   12) = (   0.0000000   0.3150122  -0.5000000), wk =   0.0185185
        k(   13) = (   0.0000000  -0.4725183   0.0000000), wk =   0.0092593
        k(   14) = (   0.0000000  -0.4725183   0.1666667), wk =   0.0185185
        k(   15) = (   0.0000000  -0.4725183   0.3333333), wk =   0.0185185
        k(   16) = (   0.0000000  -0.4725183  -0.5000000), wk =   0.0092593
        k(   17) = (   0.1666667   0.0000000   0.1666667), wk =   0.0370370
        k(   18) = (   0.1666667   0.0000000   0.3333333), wk =   0.0370370
        k(   19) = (   0.1666667   0.0000000  -0.5000000), wk =   0.0185185
        k(   20) = (   0.1666667   0.1575061   0.1666667), wk =   0.0740741
        k(   21) = (   0.1666667   0.1575061   0.3333333), wk =   0.0740741
        k(   22) = (   0.1666667   0.1575061  -0.5000000), wk =   0.0370370
        k(   23) = (   0.1666667   0.3150122   0.1666667), wk =   0.0740741
        k(   24) = (   0.1666667   0.3150122   0.3333333), wk =   0.0740741
        k(   25) = (   0.1666667   0.3150122  -0.5000000), wk =   0.0370370
        k(   26) = (   0.1666667  -0.4725183   0.1666667), wk =   0.0370370
        k(   27) = (   0.1666667  -0.4725183   0.3333333), wk =   0.0370370
        k(   28) = (   0.1666667  -0.4725183  -0.5000000), wk =   0.0185185
        k(   29) = (   0.3333333   0.0000000   0.3333333), wk =   0.0370370
        k(   30) = (   0.3333333   0.0000000  -0.5000000), wk =   0.0185185
        k(   31) = (   0.3333333   0.1575061   0.3333333), wk =   0.0740741
        k(   32) = (   0.3333333   0.1575061  -0.5000000), wk =   0.0370370
        k(   33) = (   0.3333333   0.3150122   0.3333333), wk =   0.0740741
        k(   34) = (   0.3333333   0.3150122  -0.5000000), wk =   0.0370370
        k(   35) = (   0.3333333  -0.4725183   0.3333333), wk =   0.0370370
        k(   36) = (   0.3333333  -0.4725183  -0.5000000), wk =   0.0185185
        k(   37) = (  -0.5000000   0.0000000  -0.5000000), wk =   0.0092593
        k(   38) = (  -0.5000000   0.1575061  -0.5000000), wk =   0.0185185
        k(   39) = (  -0.5000000   0.3150122  -0.5000000), wk =   0.0185185
        k(   40) = (  -0.5000000  -0.4725183  -0.5000000), wk =   0.0092593
        k(   41) = (   0.1666667   0.0000000   0.0000000), wk =   0.0185185
        k(   42) = (   0.3333333   0.0000000   0.0000000), wk =   0.0185185
        k(   43) = (  -0.5000000   0.0000000   0.0000000), wk =   0.0092593
        k(   44) = (   0.1666667  -0.1575061   0.0000000), wk =   0.0370370
        k(   45) = (   0.3333333  -0.1575061   0.0000000), wk =   0.0370370
        k(   46) = (  -0.5000000  -0.1575061   0.0000000), wk =   0.0185185
        k(   47) = (   0.1666667  -0.3150122   0.0000000), wk =   0.0370370
        k(   48) = (   0.3333333  -0.3150122   0.0000000), wk =   0.0370370
        k(   49) = (  -0.5000000  -0.3150122   0.0000000), wk =   0.0185185
        k(   50) = (   0.1666667   0.4725183   0.0000000), wk =   0.0185185
        k(   51) = (   0.3333333   0.4725183   0.0000000), wk =   0.0185185
        k(   52) = (  -0.5000000   0.4725183   0.0000000), wk =   0.0092593
        k(   53) = (   0.3333333   0.0000000   0.1666667), wk =   0.0370370
        k(   54) = (  -0.5000000   0.0000000   0.1666667), wk =   0.0185185
        k(   55) = (   0.3333333  -0.1575061   0.1666667), wk =   0.0740741
        k(   56) = (  -0.5000000  -0.1575061   0.1666667), wk =   0.0370370
        k(   57) = (   0.3333333  -0.3150122   0.1666667), wk =   0.0740741
        k(   58) = (  -0.5000000  -0.3150122   0.1666667), wk =   0.0370370
        k(   59) = (   0.3333333   0.4725183   0.1666667), wk =   0.0370370
        k(   60) = (  -0.5000000   0.4725183   0.1666667), wk =   0.0185185
        k(   61) = (  -0.5000000   0.0000000   0.3333333), wk =   0.0185185
        k(   62) = (  -0.5000000  -0.1575061   0.3333333), wk =   0.0370370
        k(   63) = (  -0.5000000  -0.3150122   0.3333333), wk =   0.0370370
        k(   64) = (  -0.5000000   0.4725183   0.3333333), wk =   0.0185185

     Initial potential from superposition of free atoms

     starting charge  367.99656, renormalised to  368.00000
     Starting wfc are  232 randomized atomic wfcs

     Self-consistent Calculation

     iteration #  1     ecut=   120.00 Ry     beta= 0.70
     Davidson diagonalization with overlap
     ethr =  1.00E-02,  avg # of iterations =  5.1

     total energy              =   -6254.00874784 Ry
     Harris-Foulkes estimate   =   -6264.58874015 Ry
     estimated scf accuracy    <      13.40325834 Ry

[...]

     End of self-consistent calculation

[...]
End final coordinates

     A final scf calculation at the relaxed structure.
     The G-vectors are recalculated for the final unit cell
     Results may differ from those at the preceding step.

     bravais-lattice index     =            0
     lattice parameter (alat)  =      13.8397  a.u.
     unit-cell volume          =    2818.0914 (a.u.)^3
     number of atoms/cell      =           32
     number of atomic types    =            2
     number of electrons       =       368.00
     number of Kohn-Sham states=          221
     kinetic-energy cutoff     =     120.0000  Ry
     charge density cutoff     =     480.0000  Ry
     convergence threshold     =      1.0E-10
     mixing beta               =       0.7000
     number of iterations used =            8  plain     mixing
     Exchange-correlation      = SLA PW NOGX NOGC ( 1  4  0  0 0 0)

     celldm(1)=  13.839685  celldm(2)=   0.000000  celldm(3)=   0.000000
     celldm(4)=   0.000000  celldm(5)=   0.000000  celldm(6)=   0.000000

     crystal axes: (cart. coord. in units of alat)
               a(1) = (   1.003630   0.000000   0.000000 )
               a(2) = (   0.000000   1.055409   0.000000 )
               a(3) = (   0.000000   0.000000   1.003649 )

     reciprocal axes: (cart. coord. in units 2 pi/alat)
               b(1) = (  0.996383  0.000000  0.000000 )
               b(2) = (  0.000000  0.947500  0.000000 )
               b(3) = (  0.000000  0.000000  0.996364 )

     PseudoPot. # 1 for W  read from file:
     /cluster/scratch/mnoe/QE/pps/W_ONCV_LDA-4.0.upf
     MD5 check sum: ba0307d5d4cd419d6f1d13dc49d7c13a
     Pseudo is Norm-conserving + core correction, Zval = 28.0
     Generated using ONCVPSP code by D. R. Hamann
     Using radial grid of 1380 points,  8 beta functions with:
                l(1) =   0
                l(2) =   0
                l(3) =   1
                l(4) =   1
                l(5) =   2
                l(6) =   2
                l(7) =   3
                l(8) =   3

     PseudoPot. # 2 for O  read from file:
     /cluster/scratch/mnoe/QE/pps/O_ONCV_LDA-3.0.upf
     MD5 check sum: a1bd6164e7280c17a38c229939bfbd54
     Pseudo is Norm-conserving + core correction, Zval =  6.0
     Generated using ONCVPSP code by D. R. Hamann
     Using radial grid of  926 points,  5 beta functions with:
                l(1) =   0
                l(2) =   0
                l(3) =   1
                l(4) =   1
                l(5) =   2

     atomic species   valence    mass     pseudopotential
        W             28.00   183.84000     W ( 1.00)
        O              6.00    15.99940     O ( 1.00)

      8 Sym. Ops., with inversion, found ( 6 have fractional translation)

   Cartesian axes

     site n.     atom                  positions (alat units)
         1           W   tau(   1) = (   0.2499802   0.2958197   0.0008757  )
         2           W   tau(   2) = (   0.7536499   0.7595893  -0.0008757  )
         3           W   tau(   3) = (   0.2518348   0.2318848   0.5027003  )
         4           W   tau(   4) = (   0.7517953   0.8235242   0.5009489  )
         5           W   tau(   5) = (   0.7536499   0.2958197   0.5009489  )
         6           W   tau(   6) = (   0.2499802   0.7595893   0.5027003  )
         7           W   tau(   7) = (   0.7517953   0.2318848  -0.0008757  )
         8           W   tau(   8) = (   0.2518348   0.8235242   0.0008757  )
         9           O   tau(   9) = (   0.2491968   0.0083293   0.0002722  )
        10           O   tau(  10) = (   0.7544334  -0.0083293  -0.0002722  )
        11           O   tau(  11) = (   0.2526183   0.5193752   0.5020968  )
        12           O   tau(  12) = (   0.7510119   0.5360339   0.5015524  )
        13           O   tau(  13) = (   0.7544334   0.0083293   0.5015524  )
        14           O   tau(  14) = (   0.2491968  -0.0083293   0.5020968  )
        15           O   tau(  15) = (   0.7510119   0.5193752  -0.0002722  )
        16           O   tau(  16) = (   0.2526183   0.5360339   0.0002722  )
        17           O   tau(  17) = (   0.5020687   0.2620069   0.4550354  )
        18           O   tau(  18) = (   0.5015614   0.7934022   0.5486137  )
        19           O   tau(  19) = (  -0.0002536   0.2656977   0.9568601  )
        20           O   tau(  20) = (   0.0002536   0.7897114   0.0467891  )
        21           O   tau(  21) = (   0.5015614   0.2620069   0.0467891  )
        22           O   tau(  22) = (   0.5020687   0.7934022   0.9568601  )
        23           O   tau(  23) = (   0.0002536   0.2656977   0.5486137  )
        24           O   tau(  24) = (  -0.0002536   0.7897114   0.4550354  )
        25           O   tau(  25) = (   0.7059344   0.2634495   0.7523524  )
        26           O   tau(  26) = (   0.2976958   0.7919595   0.2512967  )
        27           O   tau(  27) = (   0.7995108   0.2642550   0.2505278  )
        28           O   tau(  28) = (   0.2041193   0.7911541   0.7531213  )
        29           O   tau(  29) = (   0.2976958   0.2634495   0.7531213  )
        30           O   tau(  30) = (   0.7059344   0.7919595   0.2505278  )
        31           O   tau(  31) = (   0.2041193   0.2642550   0.2512967  )
        32           O   tau(  32) = (   0.7995108   0.7911541   0.7523524  )

     number of k points=    64  gaussian smearing, width (Ry)=  0.0007
                       cart. coord. in units 2pi/alat
        k(    1) = (   0.0000000   0.0000000   0.0000000), wk =   0.0092593
        k(    2) = (   0.0000000   0.0000000   0.1660607), wk =   0.0185185
        k(    3) = (   0.0000000   0.0000000   0.3321214), wk =   0.0185185
        k(    4) = (   0.0000000   0.0000000  -0.4981821), wk =   0.0092593
        k(    5) = (   0.0000000   0.1579167   0.0000000), wk =   0.0185185
        k(    6) = (   0.0000000   0.1579167   0.1660607), wk =   0.0370370
        k(    7) = (   0.0000000   0.1579167   0.3321214), wk =   0.0370370
        k(    8) = (   0.0000000   0.1579167  -0.4981821), wk =   0.0185185
        k(    9) = (   0.0000000   0.3158333   0.0000000), wk =   0.0185185
        k(   10) = (   0.0000000   0.3158333   0.1660607), wk =   0.0370370
        k(   11) = (   0.0000000   0.3158333   0.3321214), wk =   0.0370370
        k(   12) = (   0.0000000   0.3158333  -0.4981821), wk =   0.0185185
        k(   13) = (   0.0000000  -0.4737500   0.0000000), wk =   0.0092593
        k(   14) = (   0.0000000  -0.4737500   0.1660607), wk =   0.0185185
        k(   15) = (   0.0000000  -0.4737500   0.3321214), wk =   0.0185185
        k(   16) = (   0.0000000  -0.4737500  -0.4981821), wk =   0.0092593
        k(   17) = (   0.1660638   0.0000000   0.1660607), wk =   0.0370370
        k(   18) = (   0.1660638   0.0000000   0.3321214), wk =   0.0370370
        k(   19) = (   0.1660638   0.0000000  -0.4981821), wk =   0.0185185
        k(   20) = (   0.1660638   0.1579167   0.1660607), wk =   0.0740741
        k(   21) = (   0.1660638   0.1579167   0.3321214), wk =   0.0740741
        k(   22) = (   0.1660638   0.1579167  -0.4981821), wk =   0.0370370
        k(   23) = (   0.1660638   0.3158333   0.1660607), wk =   0.0740741
        k(   24) = (   0.1660638   0.3158333   0.3321214), wk =   0.0740741
        k(   25) = (   0.1660638   0.3158333  -0.4981821), wk =   0.0370370
        k(   26) = (   0.1660638  -0.4737500   0.1660607), wk =   0.0370370
        k(   27) = (   0.1660638  -0.4737500   0.3321214), wk =   0.0370370
        k(   28) = (   0.1660638  -0.4737500  -0.4981821), wk =   0.0185185
        k(   29) = (   0.3321277   0.0000000   0.3321214), wk =   0.0370370
        k(   30) = (   0.3321277   0.0000000  -0.4981821), wk =   0.0185185
        k(   31) = (   0.3321277   0.1579167   0.3321214), wk =   0.0740741
        k(   32) = (   0.3321277   0.1579167  -0.4981821), wk =   0.0370370
        k(   33) = (   0.3321277   0.3158333   0.3321214), wk =   0.0740741
        k(   34) = (   0.3321277   0.3158333  -0.4981821), wk =   0.0370370
        k(   35) = (   0.3321277  -0.4737500   0.3321214), wk =   0.0370370
        k(   36) = (   0.3321277  -0.4737500  -0.4981821), wk =   0.0185185
        k(   37) = (  -0.4981915   0.0000000  -0.4981821), wk =   0.0092593
        k(   38) = (  -0.4981915   0.1579167  -0.4981821), wk =   0.0185185
        k(   39) = (  -0.4981915   0.3158333  -0.4981821), wk =   0.0185185
        k(   40) = (  -0.4981915  -0.4737500  -0.4981821), wk =   0.0092593
        k(   41) = (   0.1660638   0.0000000   0.0000000), wk =   0.0185185
        k(   42) = (   0.3321277   0.0000000   0.0000000), wk =   0.0185185
        k(   43) = (  -0.4981915   0.0000000   0.0000000), wk =   0.0092593
        k(   44) = (   0.1660638  -0.1579167   0.0000000), wk =   0.0370370
        k(   45) = (   0.3321277  -0.1579167   0.0000000), wk =   0.0370370
        k(   46) = (  -0.4981915  -0.1579167   0.0000000), wk =   0.0185185
        k(   47) = (   0.1660638  -0.3158333   0.0000000), wk =   0.0370370
        k(   48) = (   0.3321277  -0.3158333   0.0000000), wk =   0.0370370
        k(   49) = (  -0.4981915  -0.3158333   0.0000000), wk =   0.0185185
        k(   50) = (   0.1660638   0.4737500   0.0000000), wk =   0.0185185
        k(   51) = (   0.3321277   0.4737500   0.0000000), wk =   0.0185185
        k(   52) = (  -0.4981915   0.4737500   0.0000000), wk =   0.0092593
        k(   53) = (   0.3321277   0.0000000   0.1660607), wk =   0.0370370
        k(   54) = (  -0.4981915   0.0000000   0.1660607), wk =   0.0185185
        k(   55) = (   0.3321277  -0.1579167   0.1660607), wk =   0.0740741
        k(   56) = (  -0.4981915  -0.1579167   0.1660607), wk =   0.0370370
        k(   57) = (   0.3321277  -0.3158333   0.1660607), wk =   0.0740741
        k(   58) = (  -0.4981915  -0.3158333   0.1660607), wk =   0.0370370
        k(   59) = (   0.3321277   0.4737500   0.1660607), wk =   0.0370370
        k(   60) = (  -0.4981915   0.4737500   0.1660607), wk =   0.0185185
        k(   61) = (  -0.4981915   0.0000000   0.3321214), wk =   0.0185185
        k(   62) = (  -0.4981915  -0.1579167   0.3321214), wk =   0.0370370
        k(   63) = (  -0.4981915  -0.3158333   0.3321214), wk =   0.0370370
        k(   64) = (  -0.4981915   0.4737500   0.3321214), wk =   0.0185185

     Initial potential from superposition of free atoms

     starting charge  367.99656, renormalised to  368.00000
     Starting wfc are  232 randomized atomic wfcs

     Writing output data file Landau_4.save

     Self-consistent Calculation

[...]

     total energy              =   -6261.10882681 Ry
     Harris-Foulkes estimate   =   -6261.10882681 Ry
     estimated scf accuracy    <          8.6E-10 Ry

     iteration # 14     ecut=   120.00 Ry     beta= 0.70
     Davidson diagonalization with overlap
     ethr =  2.33E-13,  avg # of iterations =  3.0

     End of self-consistent calculation

[...]

          k = 0.3321 0.4737 0.1661 ( 62540 PWs)   bands (ev):

[...]

          k =-0.4982 0.4737 0.3321 ( 62512 PWs)   bands (ev):

   -66.2607 -66.2607 -66.2607 -66.2607 -66.2602 -66.2602 -66.2602 -66.2602
   -30.6184 -30.6184 -30.6184 -30.6184 -30.6165 -30.6165 -30.6164 -30.6164
   -30.5752 -30.5752 -30.5752 -30.5752 -30.5521 -30.5521 -30.5520 -30.5520
   -30.5498 -30.5498 -30.5497 -30.5497 -30.5268 -30.5268 -30.5268 -30.5268
   -20.4236 -20.4236 -20.4236 -20.4236 -20.4235 -20.4235 -20.4235 -20.4235
   -20.4018 -20.4018 -20.4018 -20.4018 -20.4016 -20.4016 -20.4016 -20.4016
   -20.3991 -20.3991 -20.3991 -20.3991 -20.3988 -20.3988 -20.3988 -20.3988
   -20.3986 -20.3986 -20.3986 -20.3986 -20.3984 -20.3984 -20.3984 -20.3984
   -20.3909 -20.3909 -20.3909 -20.3909 -20.3904 -20.3904 -20.3904 -20.3904
   -20.3884 -20.3884 -20.3884 -20.3884 -20.3866 -20.3866 -20.3866 -20.3866
   -20.3863 -20.3863 -20.3862 -20.3862 -20.3846 -20.3846 -20.3846 -20.3846
    -9.2545  -9.2545  -9.2537  -9.2537  -8.8573  -8.8573  -8.8549  -8.8549
    -8.6251  -8.6251  -8.6214  -8.6214  -8.4660  -8.4660  -8.4600  -8.4600
    -8.4229  -8.4229  -8.4179  -8.4179  -8.1811  -8.1811  -8.1800  -8.1800
     2.1785   2.1785   2.1812   2.1812   2.9343   2.9343   2.9435   2.9435
     3.0490   3.0490   3.0573   3.0573   3.1988   3.1988   3.2234   3.2234
     3.2938   3.2938   3.3189   3.3189   3.5713   3.5713   3.5806   3.5806
     3.6953   3.6953   3.7322   3.7322   4.1733   4.1733   4.1992   4.1992
     4.2457   4.2457   4.3028   4.3028   4.3699   4.3699   4.4685   4.4685
     4.5740   4.5740   4.7183   4.7183   4.9809   4.9809   4.9951   4.9951
     6.9685   6.9685   6.9926   6.9926   7.1139   7.1139   7.1160   7.1160
     7.2129   7.2129   7.2528   7.2528   7.2640   7.2640   7.3370   7.3370
     7.4125   7.4125   7.4717   7.4717   7.5466   7.5466   7.5678   7.5678
    11.3282  11.3282  11.3617  11.3617  11.6393  11.6393  11.7078  11.7078
    12.0938  12.0938  12.1449  12.1449  12.2161  12.2161  12.2233  12.2233
    12.3862  12.3862  12.4928  12.4928  12.8595  12.8595  12.9367  12.9367
    16.4232  16.4232  16.4670  16.4670  17.0108  17.0108  17.0163  17.0163
    17.2852  17.2852  17.3392  17.3393  17.3665

     the Fermi energy is     8.5105 ev

!    total energy              =   -6261.10882681 Ry
     Harris-Foulkes estimate   =   -6261.10882681 Ry
     estimated scf accuracy    <          5.3E-11 Ry

     The total energy is the sum of the following terms:

     one-electron contribution =   -4741.47141358 Ry
     hartree contribution      =    2606.34624569 Ry
     xc contribution           =    -965.66922226 Ry
     ewald contribution        =   -3160.31443666 Ry
     smearing contrib. (-TS)   =      -0.00000000 Ry

     convergence has been achieved in  14 iterations

     Forces acting on atoms (cartesian axes, Ry/au):

     atom    1 type  1   force =    -0.00052558    0.00401067    0.00038773
     atom    2 type  1   force =     0.00052558   -0.00401067   -0.00038773
     atom    3 type  1   force =     0.00052558   -0.00401067    0.00038773
     atom    4 type  1   force =    -0.00052558    0.00401067   -0.00038773
     atom    5 type  1   force =     0.00052558    0.00401067   -0.00038773
     atom    6 type  1   force =    -0.00052558   -0.00401067    0.00038773
     atom    7 type  1   force =    -0.00052558   -0.00401067   -0.00038773
     atom    8 type  1   force =     0.00052558    0.00401067    0.00038773
     atom    9 type  2   force =    -0.00005638   -0.00199863    0.00002045
     atom   10 type  2   force =     0.00005638    0.00199863   -0.00002045
     atom   11 type  2   force =     0.00005638    0.00199863    0.00002045
     atom   12 type  2   force =    -0.00005638   -0.00199863   -0.00002045
     atom   13 type  2   force =     0.00005638   -0.00199863   -0.00002045
     atom   14 type  2   force =    -0.00005638    0.00199863    0.00002045
     atom   15 type  2   force =    -0.00005638    0.00199863   -0.00002045
     atom   16 type  2   force =     0.00005638   -0.00199863    0.00002045
     atom   17 type  2   force =    -0.00026297   -0.00001166   -0.00069916
     atom   18 type  2   force =     0.00026297    0.00001166    0.00069916
     atom   19 type  2   force =     0.00026297    0.00001166   -0.00069916
     atom   20 type  2   force =    -0.00026297   -0.00001166    0.00069916
     atom   21 type  2   force =     0.00026297   -0.00001166    0.00069916
     atom   22 type  2   force =    -0.00026297    0.00001166   -0.00069916
     atom   23 type  2   force =    -0.00026297    0.00001166    0.00069916
     atom   24 type  2   force =     0.00026297   -0.00001166   -0.00069916
     atom   25 type  2   force =    -0.00071168   -0.00012516    0.00024792
     atom   26 type  2   force =     0.00071168    0.00012516   -0.00024792
     atom   27 type  2   force =     0.00071168    0.00012516    0.00024792
     atom   28 type  2   force =    -0.00071168   -0.00012516   -0.00024792
     atom   29 type  2   force =     0.00071168   -0.00012516   -0.00024792
     atom   30 type  2   force =    -0.00071168    0.00012516    0.00024792
     atom   31 type  2   force =    -0.00071168    0.00012516   -0.00024792
     atom   32 type  2   force =     0.00071168   -0.00012516    0.00024792

     Total force =     0.000000     Total SCF correction =     0.000000

     Computing stress (Cartesian axis) and pressure

          total   stress  (Ry/bohr**3)                   (kbar)     P=    0.12
   0.00000122   0.00000000   0.00000000          0.18      0.00      0.00
   0.00000000   0.00000002   0.00000000          0.00      0.00      0.00
   0.00000000   0.00000000   0.00000121          0.00      0.00      0.18

     Writing output data file Landau_4.save

     General routines

     Parallel routines

   This run was terminated on:   4:17: 0  20Mar2020

   JOB DONE.