     Program PWSCF v.6.2 (svn rev. 14038) starts on 30Apr2019 at 23:34:43

     K-points division:     npool     =      32
     Reading input from rscf.in

     Current dimensions of program PWSCF are:
     Max number of different atomic species (ntypx) = 10
     Max number of k-points (npk) =  40000
     Max angular momentum in pseudopotentials (lmaxx) =  3

     Subspace diagonalization in iterative solution of the eigenvalue problem:
     a serial algorithm will be used

     bravais-lattice index     =            0
     lattice parameter (alat)  =      13.8397  a.u.
     unit-cell volume          =    2804.9816 (a.u.)^3
     number of atoms/cell      =           32
     number of atomic types    =            2
     number of electrons       =       368.00
     number of Kohn-Sham states=          221
     kinetic-energy cutoff     =     120.0000  Ry
     charge density cutoff     =     480.0000  Ry
     convergence threshold     =      1.0E-08
     mixing beta               =       0.7000
     number of iterations used =            8  plain     mixing
     Exchange-correlation      = SLA PW NOGX NOGC ( 1  4  0  0 0 0)
     nstep                     =           50

     celldm(1)=  13.839685  celldm(2)=   0.000000  celldm(3)=   0.000000
     celldm(4)=   0.000000  celldm(5)=   0.000000  celldm(6)=   0.000000

     crystal axes: (cart. coord. in units of alat)
               a(1) = (   1.000000   0.000000   0.000000 )
               a(2) = (   0.000000   1.058160   0.000000 )
               a(3) = (   0.000000   0.000000   1.000000 )

     reciprocal axes: (cart. coord. in units 2 pi/alat)
               b(1) = (  1.000000  0.000000  0.000000 )
               b(2) = (  0.000000  0.945037  0.000000 )
               b(3) = (  0.000000  0.000000  1.000000 )

     PseudoPot. # 1 for W  read from file:
     /cluster/scratch/mnoe/QE/pps/W_ONCV_LDA-4.0.upf
     MD5 check sum: ba0307d5d4cd419d6f1d13dc49d7c13a
     Pseudo is Norm-conserving + core correction, Zval = 28.0
     Generated using ONCVPSP code by D. R. Hamann
     Using radial grid of 1380 points,  8 beta functions with:
                l(1) =   0
                l(2) =   0
                l(3) =   1
                l(4) =   1
                l(5) =   2
                l(6) =   2
                l(7) =   3
                l(8) =   3

     PseudoPot. # 2 for O  read from file:
     /cluster/scratch/mnoe/QE/pps/O_ONCV_LDA-3.0.upf
     MD5 check sum: a1bd6164e7280c17a38c229939bfbd54
     Pseudo is Norm-conserving + core correction, Zval =  6.0
     Generated using ONCVPSP code by D. R. Hamann
     Using radial grid of  926 points,  5 beta functions with:
                l(1) =   0
                l(2) =   0
                l(3) =   1
                l(4) =   1
                l(5) =   2

     atomic species   valence    mass     pseudopotential
        W             28.00   183.84000     W ( 1.00)
        O              6.00    15.99940     O ( 1.00)

      8 Sym. Ops. (no inversion) found ( 4 have fractional translation)

   Cartesian axes

     site n.     atom                  positions (alat units)
         1           W   tau(   1) = (   0.2652900   0.2982530   0.2504300  )
         2           W   tau(   2) = (  -0.2504299   0.7599071  -0.7347100  )
         3           W   tau(   3) = (   0.2347100   0.2308271   0.7504300  )
         4           W   tau(   4) = (   0.7504300   0.8273330   0.7652900  )
         5           W   tau(   5) = (   0.7347100   0.2982530   0.7495700  )
         6           W   tau(   6) = (   0.2504300   0.7599071   0.7347100  )
         7           W   tau(   7) = (  -0.2347100   0.2308271  -0.7504299  )
         8           W   tau(   8) = (   0.2495700   0.8273330   0.2347100  )
         9           O   tau(   9) = (   0.2668100   0.0088039   0.2621900  )
        10           O   tau(  10) = (  -0.2621901   1.0493562  -0.7331900  )
        11           O   tau(  11) = (   0.2331900   0.5202761   0.7621901  )
        12           O   tau(  12) = (   0.7621900   0.5378839   0.7668100  )
        13           O   tau(  13) = (   0.7331900   0.0088039   0.7378100  )
        14           O   tau(  14) = (   0.2621900   1.0493562   0.7331900  )
        15           O   tau(  15) = (  -0.2331900   0.5202761  -0.7621901  )
        16           O   tau(  16) = (   0.2378100   0.5378839   0.2331900  )
        17           O   tau(  17) = (   0.4945900   0.2837245   0.6995400  )
        18           O   tau(  18) = (   0.4988900   0.7813137   0.8004600  )
        19           O   tau(  19) = (  -0.9945900   0.2453556   1.1995400  )
        20           O   tau(  20) = (   0.0011100   0.8059264   0.3004600  )
        21           O   tau(  21) = (   0.5054100   0.2837245   0.3004600  )
        22           O   tau(  22) = (   0.5011100   0.7813137   1.1995400  )
        23           O   tau(  23) = (  -0.0054101   0.2453556   0.8004600  )
        24           O   tau(  24) = (  -1.0011100   0.8059264   0.6995400  )
        25           O   tau(  25) = (   0.6995400   0.2522336   2.0011100  )
        26           O   tau(  26) = (   0.3004600   0.7744356   0.4945900  )
        27           O   tau(  27) = (   0.8004600   0.2768464   0.5011100  )
        28           O   tau(  28) = (   0.1995400   0.8128045   1.9945900  )
        29           O   tau(  29) = (   0.3004600   0.2522336   0.9988900  )
        30           O   tau(  30) = (   0.6995400   0.7744356   0.5054100  )
        31           O   tau(  31) = (   0.1995400   0.2768464   0.4988900  )
        32           O   tau(  32) = (   0.8004600   0.8128045   1.0054101  )

     number of k points=    40  gaussian smearing, width (Ry)=  0.0007
                       cart. coord. in units 2pi/alat
        k(    1) = (   0.0000000   0.0000000   0.0000000), wk =   0.0092593
        k(    2) = (   0.0000000   0.0000000   0.1666667), wk =   0.0370370
        k(    3) = (   0.0000000   0.0000000   0.3333333), wk =   0.0370370
        k(    4) = (   0.0000000   0.0000000  -0.5000000), wk =   0.0185185
        k(    5) = (   0.0000000   0.1575061   0.0000000), wk =   0.0185185
        k(    6) = (   0.0000000   0.1575061   0.1666667), wk =   0.0740741
        k(    7) = (   0.0000000   0.1575061   0.3333333), wk =   0.0740741
        k(    8) = (   0.0000000   0.1575061  -0.5000000), wk =   0.0370370
        k(    9) = (   0.0000000   0.3150122   0.0000000), wk =   0.0185185
        k(   10) = (   0.0000000   0.3150122   0.1666667), wk =   0.0740741
        k(   11) = (   0.0000000   0.3150122   0.3333333), wk =   0.0740741
        k(   12) = (   0.0000000   0.3150122  -0.5000000), wk =   0.0370370
        k(   13) = (   0.0000000  -0.4725183   0.0000000), wk =   0.0092593
        k(   14) = (   0.0000000  -0.4725183   0.1666667), wk =   0.0370370
        k(   15) = (   0.0000000  -0.4725183   0.3333333), wk =   0.0370370
        k(   16) = (   0.0000000  -0.4725183  -0.5000000), wk =   0.0185185
        k(   17) = (   0.1666667   0.0000000   0.1666667), wk =   0.0370370
        k(   18) = (   0.1666667   0.0000000   0.3333333), wk =   0.0740741
        k(   19) = (   0.1666667   0.0000000  -0.5000000), wk =   0.0370370
        k(   20) = (   0.1666667   0.1575061   0.1666667), wk =   0.0740741
        k(   21) = (   0.1666667   0.1575061   0.3333333), wk =   0.1481481
        k(   22) = (   0.1666667   0.1575061  -0.5000000), wk =   0.0740741
        k(   23) = (   0.1666667   0.3150122   0.1666667), wk =   0.0740741
        k(   24) = (   0.1666667   0.3150122   0.3333333), wk =   0.1481481
        k(   25) = (   0.1666667   0.3150122  -0.5000000), wk =   0.0740741
        k(   26) = (   0.1666667  -0.4725183   0.1666667), wk =   0.0370370
        k(   27) = (   0.1666667  -0.4725183   0.3333333), wk =   0.0740741
        k(   28) = (   0.1666667  -0.4725183  -0.5000000), wk =   0.0370370
        k(   29) = (   0.3333333   0.0000000   0.3333333), wk =   0.0370370
        k(   30) = (   0.3333333   0.0000000  -0.5000000), wk =   0.0370370
        k(   31) = (   0.3333333   0.1575061   0.3333333), wk =   0.0740741
        k(   32) = (   0.3333333   0.1575061  -0.5000000), wk =   0.0740741
        k(   33) = (   0.3333333   0.3150122   0.3333333), wk =   0.0740741
        k(   34) = (   0.3333333   0.3150122  -0.5000000), wk =   0.0740741
        k(   35) = (   0.3333333  -0.4725183   0.3333333), wk =   0.0370370
        k(   36) = (   0.3333333  -0.4725183  -0.5000000), wk =   0.0370370
        k(   37) = (  -0.5000000   0.0000000  -0.5000000), wk =   0.0092593
        k(   38) = (  -0.5000000   0.1575061  -0.5000000), wk =   0.0185185
        k(   39) = (  -0.5000000   0.3150122  -0.5000000), wk =   0.0185185
        k(   40) = (  -0.5000000  -0.4725183  -0.5000000), wk =   0.0092593

     Initial potential from superposition of free atoms

     starting charge  367.99656, renormalised to  368.00000
     Starting wfc are  232 randomized atomic wfcs

     Self-consistent Calculation

     iteration #  1     ecut=   120.00 Ry     beta= 0.70
     Davidson diagonalization with overlap
     ethr =  1.00E-02,  avg # of iterations =  5.0

     total energy              =   -6253.95467539 Ry
     Harris-Foulkes estimate   =   -6264.56970743 Ry
     estimated scf accuracy    <      13.43490428 Ry

[...]

     End of self-consistent calculation

          k = 0.0000 0.0000 0.0000 ( 62239 PWs)   bands (ev):

   -66.1725 -66.1721 -66.1715 -66.1715 -66.1711 -66.1711 -66.1705 -66.1701
   -30.5691 -30.5633 -30.5609 -30.5608 -30.5248 -30.5218 -30.5218 -30.5167
   -30.5018 -30.5003 -30.4987 -30.4987 -30.4794 -30.4716 -30.4716 -30.4636
   -30.4511 -30.4444 -30.4444 -30.4392 -30.4045 -30.4045 -30.3999 -30.3988
   -20.3367 -20.3366 -20.3365 -20.3365 -20.3362 -20.3362 -20.3361 -20.3361
   -20.3186 -20.3184 -20.3181 -20.3181 -20.3178 -20.3178 -20.3176 -20.3174
   -20.3149 -20.3143 -20.3143 -20.3136 -20.3129 -20.3118 -20.3118 -20.3108
   -20.3107 -20.3098 -20.3098 -20.3092 -20.3071 -20.3068 -20.3068 -20.3064
   -20.3050 -20.3045 -20.3044 -20.3043 -20.3004 -20.3003 -20.3003 -20.3002
   -20.2979 -20.2974 -20.2974 -20.2974 -20.2950 -20.2950 -20.2944 -20.2943
   -20.2931 -20.2929 -20.2927 -20.2927 -20.2900 -20.2900 -20.2896 -20.2893
    -9.9443  -9.6921  -9.4876  -9.4876  -9.2360  -9.2360  -9.0426  -9.0335
    -8.9500  -8.7870  -8.7701  -8.7701  -7.9091  -7.8667  -7.7717  -7.7659
    -7.7636  -7.7636  -7.7522  -7.6900  -7.6900  -7.6768  -7.6100  -7.6100
     1.2055   1.2112   1.2765   1.2765   1.3563   1.3563   1.4774   1.6536
     1.7566   1.7566   1.7632   1.9138   2.3522   2.4326   2.6054   2.6656
     2.7863   2.7863   4.1500   4.1500   4.3629   4.3723   4.7637   4.7637
     4.8008   4.8096   4.8096   4.9417   5.1454   5.1454   5.1805   5.4765
     5.4907   5.5092   5.5092   5.5797   5.5797   5.6779   5.6780   5.8322
     5.8706   5.8706   5.8730   5.8894   5.9119   5.9574   5.9610   6.0777
     6.1071   6.2736   6.2997   6.5288   6.5288   6.7472   6.8739   6.8740
     6.8993   6.9031   6.9301   7.0195   7.0371   7.0371   7.2225   7.2225
     7.4050   7.4050   7.7192   7.7361   8.0472   8.0472   8.0687   8.1515
     9.4381   9.4505  10.0539  10.0691  10.0856  10.0856  12.2139  12.2139
[...]
W        0.234709985   0.218140012   0.750429983    0   0   0
W        0.750429983   0.781859972   0.765289983    0   0   0
W        0.734710017   0.281860003   0.749569985    0   0   0
W        0.250429983   0.718139997   0.734709985    0   0   0
W       -0.234709968   0.218140012  -0.750429934    0   0   0
W        0.249569985   0.781859972   0.234710017    0   0   0
O        0.266810020   0.008320000   0.262190029    0   0   0
O       -0.262190054   0.991680023  -0.733189996    0   0   0
O        0.233189996   0.491679992   0.762190054    0   0   0
O        0.762190029   0.508319977   0.766810036    0   0   0
O        0.733189971   0.008320000   0.737809994    0   0   0
O        0.262190038   0.991680023   0.733190012    0   0   0
O       -0.233189996   0.491679992  -0.762190054    0   0   0
O        0.237809978   0.508319977   0.233189971    0   0   0
O        0.494589982   0.268130007   0.699540004    0   0   0
O        0.498889972   0.738369997   0.800459963    0   0   0
O       -0.994589982   0.231870008   1.199540037    0   0   0
O        0.001109964   0.761629974   0.300460012    0   0   0
O        0.505410018   0.268130007   0.300460012    0   0   0
O        0.501110028   0.738369997   1.199540037    0   0   0
O       -0.005410082   0.231870008   0.800459963    0   0   0
O       -1.001110028   0.761629974   0.699540004    0   0   0
O        0.699540037   0.238370012   2.001110028    0   0   0
O        0.300459996   0.731869963   0.494589982    0   0   0
O        0.800459963   0.261630003   0.501110028    0   0   0
O        0.199540020   0.768130008   1.994589982    0   0   0
O        0.300459996   0.238370012   0.998890036    0   0   0
O        0.699540037   0.731869963   0.505410018    0   0   0
O        0.199540020   0.261630003   0.498889972    0   0   0
O        0.800459963   0.768130008   1.005410082    0   0   0
End final coordinates

     A final scf calculation at the relaxed structure.
     The G-vectors are recalculated for the final unit cell
     Results may differ from those at the preceding step.

     bravais-lattice index     =            0
     lattice parameter (alat)  =      13.8397  a.u.
     unit-cell volume          =    2790.4208 (a.u.)^3
     number of atoms/cell      =           32
     number of atomic types    =            2
     number of electrons       =       368.00
     number of Kohn-Sham states=          221
     kinetic-energy cutoff     =     120.0000  Ry
     charge density cutoff     =     480.0000  Ry
     convergence threshold     =      1.0E-10
     mixing beta               =       0.7000
     number of iterations used =            8  plain     mixing
     Exchange-correlation      = SLA PW NOGX NOGC ( 1  4  0  0 0 0)

     celldm(1)=  13.839685  celldm(2)=   0.000000  celldm(3)=   0.000000
     celldm(4)=   0.000000  celldm(5)=   0.000000  celldm(6)=   0.000000

     crystal axes: (cart. coord. in units of alat)
               a(1) = (   1.000896   0.000000   0.000000 )
               a(2) = (   0.000000   1.050784   0.000000 )
               a(3) = (   0.000000   0.000000   1.000896 )

     reciprocal axes: (cart. coord. in units 2 pi/alat)
               b(1) = (  0.999105  0.000000  0.000000 )
               b(2) = (  0.000000  0.951670  0.000000 )
               b(3) = (  0.000000  0.000000  0.999105 )

     PseudoPot. # 1 for W  read from file:
     /cluster/scratch/mnoe/QE/pps/W_ONCV_LDA-4.0.upf
     MD5 check sum: ba0307d5d4cd419d6f1d13dc49d7c13a
     Pseudo is Norm-conserving + core correction, Zval = 28.0
     Generated using ONCVPSP code by D. R. Hamann
     Using radial grid of 1380 points,  8 beta functions with:
                l(1) =   0
                l(2) =   0
                l(3) =   1
                l(4) =   1
                l(5) =   2
                l(6) =   2
                l(7) =   3
                l(8) =   3

     PseudoPot. # 2 for O  read from file:
     /cluster/scratch/mnoe/QE/pps/O_ONCV_LDA-3.0.upf
     MD5 check sum: a1bd6164e7280c17a38c229939bfbd54
     Pseudo is Norm-conserving + core correction, Zval =  6.0
     Generated using ONCVPSP code by D. R. Hamann
     Using radial grid of  926 points,  5 beta functions with:
                l(1) =   0
                l(2) =   0
                l(3) =   1
                l(4) =   1
                l(5) =   2

     atomic species   valence    mass     pseudopotential
        W             28.00   183.84000     W ( 1.00)
        O              6.00    15.99940     O ( 1.00)

      8 Sym. Ops. (no inversion) found ( 4 have fractional translation)

   Cartesian axes

     site n.     atom                  positions (alat units)
         1           W   tau(   1) = (   0.2655276   0.2961740   0.2506543  )
         2           W   tau(   2) = (  -0.2506542   0.7546100  -0.7353680  )
         3           W   tau(   3) = (   0.2349202   0.2292180   0.7511021  )
         4           W   tau(   4) = (   0.7511021   0.8215659   0.7659754  )
         5           W   tau(   5) = (   0.7353681   0.2961740   0.7502413  )
         6           W   tau(   6) = (   0.2506543   0.7546100   0.7353680  )
         7           W   tau(   7) = (  -0.2349202   0.2292180  -0.7511021  )
         8           W   tau(   8) = (   0.2497935   0.8215659   0.2349202  )
         9           O   tau(   9) = (   0.2670490   0.0087425   0.2624249  )
        10           O   tau(  10) = (  -0.2624249   1.0420415  -0.7338467  )
        11           O   tau(  11) = (   0.2333989   0.5166495   0.7628727  )
        12           O   tau(  12) = (   0.7628727   0.5341345   0.7674968  )
        13           O   tau(  13) = (   0.7338466   0.0087425   0.7384708  )
        14           O   tau(  14) = (   0.2624249   1.0420415   0.7338467  )
        15           O   tau(  15) = (  -0.2333989   0.5166495  -0.7628727  )
        16           O   tau(  16) = (   0.2380230   0.5341345   0.2333988  )
        17           O   tau(  17) = (   0.4950330   0.2817467   0.7001665  )
        18           O   tau(  18) = (   0.4993368   0.7758674   0.8011769  )
        19           O   tau(  19) = (  -0.9954808   0.2436453   1.2006144  )
        20           O   tau(  20) = (   0.0011110   0.8003086   0.3007291  )
        21           O   tau(  21) = (   0.5058627   0.2817467   0.3007291  )
        22           O   tau(  22) = (   0.5015588   0.7758674   1.2006144  )
        23           O   tau(  23) = (  -0.0054149   0.2436453   0.8011769  )
        24           O   tau(  24) = (  -1.0020067   0.8003086   0.7001665  )
        25           O   tau(  25) = (   0.7001666   0.2504754   2.0029023  )
        26           O   tau(  26) = (   0.3007291   0.7690372   0.4950330  )
        27           O   tau(  27) = (   0.8011769   0.2749166   0.5015588  )
        28           O   tau(  28) = (   0.1997187   0.8071387   1.9963764  )
        29           O   tau(  29) = (   0.3007291   0.2504754   0.9997847  )
        30           O   tau(  30) = (   0.7001666   0.7690372   0.5058627  )
        31           O   tau(  31) = (   0.1997187   0.2749166   0.4993368  )
        32           O   tau(  32) = (   0.8011769   0.8071387   1.0063106  )

     number of k points=    40  gaussian smearing, width (Ry)=  0.0007
                       cart. coord. in units 2pi/alat
        k(    1) = (   0.0000000   0.0000000   0.0000000), wk =   0.0092593
        k(    2) = (   0.0000000   0.0000000   0.1665175), wk =   0.0370370
        k(    3) = (   0.0000000   0.0000000   0.3330351), wk =   0.0370370
        k(    4) = (   0.0000000   0.0000000  -0.4995526), wk =   0.0185185
        k(    5) = (   0.0000000   0.1586117   0.0000000), wk =   0.0185185
        k(    6) = (   0.0000000   0.1586117   0.1665175), wk =   0.0740741
        k(    7) = (   0.0000000   0.1586117   0.3330351), wk =   0.0740741
        k(    8) = (   0.0000000   0.1586117  -0.4995526), wk =   0.0370370
        k(    9) = (   0.0000000   0.3172235   0.0000000), wk =   0.0185185
        k(   10) = (   0.0000000   0.3172235   0.1665175), wk =   0.0740741
        k(   11) = (   0.0000000   0.3172235   0.3330351), wk =   0.0740741
        k(   12) = (   0.0000000   0.3172235  -0.4995526), wk =   0.0370370
        k(   13) = (   0.0000000  -0.4758352   0.0000000), wk =   0.0092593
        k(   14) = (   0.0000000  -0.4758352   0.1665175), wk =   0.0370370
        k(   15) = (   0.0000000  -0.4758352   0.3330351), wk =   0.0370370
        k(   16) = (   0.0000000  -0.4758352  -0.4995526), wk =   0.0185185
        k(   17) = (   0.1665175   0.0000000   0.1665175), wk =   0.0370370
        k(   18) = (   0.1665175   0.0000000   0.3330351), wk =   0.0740741
        k(   19) = (   0.1665175   0.0000000  -0.4995526), wk =   0.0370370
        k(   20) = (   0.1665175   0.1586117   0.1665175), wk =   0.0740741
        k(   21) = (   0.1665175   0.1586117   0.3330351), wk =   0.1481481
        k(   22) = (   0.1665175   0.1586117  -0.4995526), wk =   0.0740741
        k(   23) = (   0.1665175   0.3172235   0.1665175), wk =   0.0740741
        k(   24) = (   0.1665175   0.3172235   0.3330351), wk =   0.1481481
        k(   25) = (   0.1665175   0.3172235  -0.4995526), wk =   0.0740741
        k(   26) = (   0.1665175  -0.4758352   0.1665175), wk =   0.0370370
        k(   27) = (   0.1665175  -0.4758352   0.3330351), wk =   0.0740741
        k(   28) = (   0.1665175  -0.4758352  -0.4995526), wk =   0.0370370
        k(   29) = (   0.3330351   0.0000000   0.3330351), wk =   0.0370370
        k(   30) = (   0.3330351   0.0000000  -0.4995526), wk =   0.0370370
        k(   31) = (   0.3330351   0.1586117   0.3330351), wk =   0.0740741
        k(   32) = (   0.3330351   0.1586117  -0.4995526), wk =   0.0740741
        k(   33) = (   0.3330351   0.3172235   0.3330351), wk =   0.0740741
        k(   34) = (   0.3330351   0.3172235  -0.4995526), wk =   0.0740741
        k(   35) = (   0.3330351  -0.4758352   0.3330351), wk =   0.0370370
        k(   36) = (   0.3330351  -0.4758352  -0.4995526), wk =   0.0370370
        k(   37) = (  -0.4995526   0.0000000  -0.4995526), wk =   0.0092593
        k(   38) = (  -0.4995526   0.1586117  -0.4995526), wk =   0.0185185
        k(   39) = (  -0.4995526   0.3172235  -0.4995526), wk =   0.0185185
        k(   40) = (  -0.4995526  -0.4758352  -0.4995526), wk =   0.0092593

     Initial potential from superposition of free atoms

     starting charge  367.99656, renormalised to  368.00000
     Starting wfc are  232 randomized atomic wfcs

     Writing output data file Landau_17.save

     Self-consistent Calculation

[...]

     total energy              =   -6261.10941087 Ry
     Harris-Foulkes estimate   =   -6261.10941087 Ry
     estimated scf accuracy    <          5.1E-10 Ry

     iteration # 14     ecut=   120.00 Ry     beta= 0.70
     Davidson diagonalization with overlap
     ethr =  1.39E-13,  avg # of iterations =  3.0

     End of self-consistent calculation

[...]

          k = 0.3330-0.4758-0.4996 ( 61884 PWs)   bands (ev):

[...]

          k =-0.4996-0.4758-0.4996 ( 61936 PWs)   bands (ev):

   -66.0702 -66.0702 -66.0702 -66.0702 -66.0702 -66.0702 -66.0702 -66.0702
   -30.4410 -30.4410 -30.4397 -30.4397 -30.4396 -30.4396 -30.4394 -30.4394
   -30.3903 -30.3903 -30.3903 -30.3903 -30.3903 -30.3903 -30.3890 -30.3889
   -30.3467 -30.3467 -30.3464 -30.3464 -30.3464 -30.3464 -30.3464 -30.3464
   -20.2307 -20.2307 -20.2307 -20.2307 -20.2306 -20.2306 -20.2306 -20.2306
   -20.2123 -20.2123 -20.2123 -20.2123 -20.2123 -20.2122 -20.2122 -20.2122
   -20.2071 -20.2071 -20.2071 -20.2070 -20.2070 -20.2070 -20.2069 -20.2069
   -20.2029 -20.2029 -20.2029 -20.2029 -20.2029 -20.2029 -20.2028 -20.2028
   -20.1952 -20.1952 -20.1952 -20.1952 -20.1952 -20.1951 -20.1951 -20.1951
   -20.1908 -20.1908 -20.1907 -20.1907 -20.1907 -20.1907 -20.1907 -20.1907
   -20.1853 -20.1853 -20.1853 -20.1853 -20.1853 -20.1853 -20.1853 -20.1853
    -8.8863  -8.8863  -8.8548  -8.8548  -8.8490  -8.8490  -8.8489  -8.8489
    -8.3664  -8.3663  -8.3217  -8.3217  -8.3216  -8.3216  -8.3144  -8.3144
    -8.2544  -8.2544  -8.2544  -8.2544  -8.2241  -8.2241  -8.2014  -8.2013
     3.0079   3.0080   3.0080   3.0080   3.0100   3.0100   3.0310   3.0310
     3.2763   3.2764   3.2764   3.2764   3.2814   3.2814   3.2966   3.2966
     3.3883   3.3883   3.5472   3.5472   3.5472   3.5472   3.6137   3.6137
     4.2032   4.2032   4.2250   4.2250   4.2435   4.2435   4.2435   4.2435
     4.4478   4.4478   4.4478   4.4478   4.4641   4.4641   4.5088   4.5088
     4.5867   4.5867   4.5891   4.5892   4.6141   4.6141   4.6141   4.6141
     7.1305   7.1305   7.2447   7.2447   7.2447   7.2447   7.3790   7.3790
     7.4357   7.4357   7.4357   7.4357   7.4387   7.4387   7.4690   7.4690
     7.6290   7.6290   7.6593   7.6593   7.6593   7.6594   7.7151   7.7151
    11.9326  11.9326  11.9326  11.9326  11.9365  11.9365  11.9424  11.9424
    12.2673  12.2673  12.3434  12.3434  12.3434  12.3434  12.5046  12.5046
    12.5798  12.5798  12.6621  12.6621  12.6621  12.6621  12.6894  12.6894
    17.1661  17.1661  17.1863  17.1863  17.1863  17.1864  17.2267  17.2267
    17.4230  17.4230  17.4230  17.4230  17.4925

     the Fermi energy is     9.0088 ev

!    total energy              =   -6261.10941087 Ry
     Harris-Foulkes estimate   =   -6261.10941087 Ry
     estimated scf accuracy    <          9.2E-11 Ry

     The total energy is the sum of the following terms:

     one-electron contribution =   -4694.20237183 Ry
     hartree contribution      =    2585.06168056 Ry
     xc contribution           =    -965.66228311 Ry
     ewald contribution        =   -3186.30643649 Ry
     smearing contrib. (-TS)   =      -0.00000000 Ry

     convergence has been achieved in  14 iterations

     Forces acting on atoms (cartesian axes, Ry/au):

     atom    1 type  1   force =    -0.00764802   -0.00463971   -0.00115409
     atom    2 type  1   force =     0.00115409    0.00463971   -0.00764802
     atom    3 type  1   force =     0.00764802    0.00463971   -0.00115409
     atom    4 type  1   force =    -0.00115409   -0.00463971   -0.00764802
     atom    5 type  1   force =     0.00764802   -0.00463971    0.00115409
     atom    6 type  1   force =    -0.00115409    0.00463971    0.00764802
     atom    7 type  1   force =    -0.00764802    0.00463971    0.00115409
     atom    8 type  1   force =     0.00115409   -0.00463971    0.00764802
     atom    9 type  2   force =     0.00107327    0.00227762   -0.00058633
     atom   10 type  2   force =     0.00058633   -0.00227762    0.00107327
     atom   11 type  2   force =    -0.00107327   -0.00227762   -0.00058633
     atom   12 type  2   force =    -0.00058633    0.00227762    0.00107327
     atom   13 type  2   force =    -0.00107327    0.00227762    0.00058633
     atom   14 type  2   force =    -0.00058633   -0.00227762   -0.00107327
     atom   15 type  2   force =     0.00107327   -0.00227762    0.00058633
     atom   16 type  2   force =     0.00058633    0.00227762   -0.00107327
     atom   17 type  2   force =    -0.00566103    0.00105889    0.00019849
     atom   18 type  2   force =    -0.00033205    0.00221953   -0.00157017
     atom   19 type  2   force =     0.00566103   -0.00105889    0.00019849
     atom   20 type  2   force =     0.00033205   -0.00221953   -0.00157017
     atom   21 type  2   force =     0.00566103    0.00105889   -0.00019849
     atom   22 type  2   force =     0.00033205    0.00221953    0.00157017
     atom   23 type  2   force =    -0.00566103   -0.00105889   -0.00019849
     atom   24 type  2   force =    -0.00033205   -0.00221953    0.00157017
     atom   25 type  2   force =     0.00157017    0.00221953    0.00033205
     atom   26 type  2   force =    -0.00019849   -0.00105889   -0.00566103
     atom   27 type  2   force =    -0.00157017   -0.00221953    0.00033205
     atom   28 type  2   force =     0.00019849    0.00105889   -0.00566103
     atom   29 type  2   force =    -0.00157017    0.00221953   -0.00033205
     atom   30 type  2   force =     0.00019849   -0.00105889    0.00566103
     atom   31 type  2   force =     0.00157017   -0.00221953   -0.00033205
     atom   32 type  2   force =    -0.00019849    0.00105889    0.00566103

     Total force =     0.000000     Total SCF correction =     0.000000

     Computing stress (Cartesian axis) and pressure

          total   stress  (Ry/bohr**3)                   (kbar)     P=   -0.12
  -0.00000043   0.00000000   0.00000000         -0.06      0.00      0.00
   0.00000000  -0.00000155   0.00000000          0.00     -0.23      0.00
   0.00000000   0.00000000  -0.00000043          0.00      0.00     -0.06

     Writing output data file Landau_17.save

     General routines

     Parallel routines

   This run was terminated on:   2:23:29   1May2019

   JOB DONE.