     Program PWSCF v.6.2 (svn rev. 14038) starts on 20Mar2020 at 16:40:54

     K-points division:     npool     =      40
     Reading input from scf.in

     Current dimensions of program PWSCF are:
     Max number of different atomic species (ntypx) = 10
     Max number of k-points (npk) =  40000
     Max angular momentum in pseudopotentials (lmaxx) =  3

     Subspace diagonalization in iterative solution of the eigenvalue problem:
     a serial algorithm will be used

     bravais-lattice index     =            0
     lattice parameter (alat)  =      14.0765  a.u.
     unit-cell volume          =    2863.3449 (a.u.)^3
     number of atoms/cell      =           32
     number of atomic types    =            2
     number of electrons       =       368.20
     number of Kohn-Sham states=          221
     kinetic-energy cutoff     =     120.0000  Ry
     charge density cutoff     =     480.0000  Ry
     convergence threshold     =      1.0E-08
     mixing beta               =       0.7000
     number of iterations used =            8  plain     mixing
     Exchange-correlation      = SLA PW NOGX NOGC ( 1  4  0  0 0 0)

     celldm(1)=  14.076544  celldm(2)=   0.000000  celldm(3)=   0.000000
     celldm(4)=   0.000000  celldm(5)=   0.000000  celldm(6)=   0.000000

     crystal axes: (cart. coord. in units of alat)
               a(1) = (   1.000000   0.000000   0.000000 )
               a(2) = (   0.000000   1.026124   0.000000 )
               a(3) = (   0.000000   0.000000   1.000428 )

     reciprocal axes: (cart. coord. in units 2 pi/alat)
               b(1) = (  1.000000  0.000000  0.000000 )
               b(2) = (  0.000000  0.974541  0.000000 )
               b(3) = (  0.000000  0.000000  0.999572 )

     PseudoPot. # 1 for W  read from file:
     /cluster/scratch/mnoe/QE/pps/W_ONCV_LDA-4.0.upf
     MD5 check sum: ba0307d5d4cd419d6f1d13dc49d7c13a
     Pseudo is Norm-conserving + core correction, Zval = 28.0
     Generated using ONCVPSP code by D. R. Hamann
     Using radial grid of 1380 points,  8 beta functions with:
                l(1) =   0
                l(2) =   0
                l(3) =   1
                l(4) =   1
                l(5) =   2
                l(6) =   2
                l(7) =   3
                l(8) =   3

     PseudoPot. # 2 for O  read from file:
     /cluster/scratch/mnoe/QE/pps/O_ONCV_LDA-3.0.upf
     MD5 check sum: a1bd6164e7280c17a38c229939bfbd54
     Pseudo is Norm-conserving + core correction, Zval =  6.0
     Generated using ONCVPSP code by D. R. Hamann
     Using radial grid of  926 points,  5 beta functions with:
                l(1) =   0
                l(2) =   0
                l(3) =   1
                l(4) =   1
                l(5) =   2

     atomic species   valence    mass     pseudopotential
        W             28.00   183.84000     W ( 1.00)
        O              6.00    15.99940     O ( 1.00)

      8 Sym. Ops., with inversion, found ( 6 have fractional translation)

   Cartesian axes

     site n.     atom                  positions (alat units)
         1           W   tau(   1) = (   0.2449183   0.2803579   0.0048009  )
         2           W   tau(   2) = (   0.7550817   0.7457657  -0.0048009  )
         3           W   tau(   3) = (   0.2550817   0.2327039   0.5050148  )
         4           W   tau(   4) = (   0.7449182   0.7934198   0.4954131  )
         5           W   tau(   5) = (   0.7550817   0.2803579   0.4954131  )
         6           W   tau(   6) = (   0.2449183   0.7457657   0.5050148  )
         7           W   tau(   7) = (   0.7449182   0.2327039  -0.0048009  )
         8           W   tau(   8) = (   0.2550817   0.7934198   0.0048009  )
         9           O   tau(   9) = (   0.2406249   0.0061222   0.0014922  )
        10           O   tau(  10) = (   0.7593751  -0.0061222  -0.0014922  )
        11           O   tau(  11) = (   0.2593751   0.5069397   0.5017061  )
        12           O   tau(  12) = (   0.7406248   0.5191841   0.4987218  )
        13           O   tau(  13) = (   0.7593751   0.0061222   0.4987218  )
        14           O   tau(  14) = (   0.2406249  -0.0061222   0.5017061  )
        15           O   tau(  15) = (   0.7406248   0.5069397  -0.0014922  )
        16           O   tau(  16) = (   0.2593751   0.5191841   0.0014922  )
        17           O   tau(  17) = (   0.5013899   0.2466628   0.4708669  )
        18           O   tau(  18) = (   0.4986101   0.7794609   0.5295611  )
        19           O   tau(  19) = (  -0.0013899   0.2663990   0.9710809  )
        20           O   tau(  20) = (   0.0013899   0.7597247   0.0293470  )
        21           O   tau(  21) = (   0.4986101   0.2466628   0.0293470  )
        22           O   tau(  22) = (   0.5013899   0.7794609   0.9710809  )
        23           O   tau(  23) = (   0.0013899   0.2663990   0.5295611  )
        24           O   tau(  24) = (  -0.0013899   0.7597247   0.4708669  )
        25           O   tau(  25) = (   0.7206655   0.2543775   0.7482131  )
        26           O   tau(  26) = (   0.2793345   0.7717462   0.2522147  )
        27           O   tau(  27) = (   0.7793346   0.2586844   0.2479992  )
        28           O   tau(  28) = (   0.2206655   0.7674393   0.7524286  )
        29           O   tau(  29) = (   0.2793345   0.2543775   0.7524286  )
        30           O   tau(  30) = (   0.7206655   0.7717462   0.2479992  )
        31           O   tau(  31) = (   0.2206655   0.2586844   0.2522147  )
        32           O   tau(  32) = (   0.7793346   0.7674393   0.7482131  )

     number of k points=    64  gaussian smearing, width (Ry)=  0.0007
                       cart. coord. in units 2pi/alat
        k(    1) = (   0.0000000   0.0000000   0.0000000), wk =   0.0092593
        k(    2) = (   0.0000000   0.0000000   0.1665954), wk =   0.0185185
        k(    3) = (   0.0000000   0.0000000   0.3331908), wk =   0.0185185
        k(    4) = (   0.0000000   0.0000000  -0.4997861), wk =   0.0092593
        k(    5) = (   0.0000000   0.1624236   0.0000000), wk =   0.0185185
        k(    6) = (   0.0000000   0.1624236   0.1665954), wk =   0.0370370
        k(    7) = (   0.0000000   0.1624236   0.3331908), wk =   0.0370370
        k(    8) = (   0.0000000   0.1624236  -0.4997861), wk =   0.0185185
        k(    9) = (   0.0000000   0.3248471   0.0000000), wk =   0.0185185
        k(   10) = (   0.0000000   0.3248471   0.1665954), wk =   0.0370370
        k(   11) = (   0.0000000   0.3248471   0.3331908), wk =   0.0370370
        k(   12) = (   0.0000000   0.3248471  -0.4997861), wk =   0.0185185
        k(   13) = (   0.0000000  -0.4872707   0.0000000), wk =   0.0092593
        k(   14) = (   0.0000000  -0.4872707   0.1665954), wk =   0.0185185
        k(   15) = (   0.0000000  -0.4872707   0.3331908), wk =   0.0185185
        k(   16) = (   0.0000000  -0.4872707  -0.4997861), wk =   0.0092593
        k(   17) = (   0.1666667   0.0000000   0.0000000), wk =   0.0185185
        k(   18) = (   0.1666667   0.0000000   0.1665954), wk =   0.0370370
        k(   19) = (   0.1666667   0.0000000   0.3331908), wk =   0.0370370
        k(   20) = (   0.1666667   0.0000000  -0.4997861), wk =   0.0185185
        k(   21) = (   0.1666667   0.1624236   0.0000000), wk =   0.0370370
        k(   22) = (   0.1666667   0.1624236   0.1665954), wk =   0.0740741
        k(   23) = (   0.1666667   0.1624236   0.3331908), wk =   0.0740741
        k(   24) = (   0.1666667   0.1624236  -0.4997861), wk =   0.0370370
        k(   25) = (   0.1666667   0.3248471   0.0000000), wk =   0.0370370
        k(   26) = (   0.1666667   0.3248471   0.1665954), wk =   0.0740741
        k(   27) = (   0.1666667   0.3248471   0.3331908), wk =   0.0740741
        k(   28) = (   0.1666667   0.3248471  -0.4997861), wk =   0.0370370
        k(   29) = (   0.1666667  -0.4872707   0.0000000), wk =   0.0185185
        k(   30) = (   0.1666667  -0.4872707   0.1665954), wk =   0.0370370
        k(   31) = (   0.1666667  -0.4872707   0.3331908), wk =   0.0370370
        k(   32) = (   0.1666667  -0.4872707  -0.4997861), wk =   0.0185185
        k(   33) = (   0.3333333   0.0000000   0.0000000), wk =   0.0185185
        k(   34) = (   0.3333333   0.0000000   0.1665954), wk =   0.0370370
        k(   35) = (   0.3333333   0.0000000   0.3331908), wk =   0.0370370
        k(   36) = (   0.3333333   0.0000000  -0.4997861), wk =   0.0185185
        k(   37) = (   0.3333333   0.1624236   0.0000000), wk =   0.0370370
        k(   38) = (   0.3333333   0.1624236   0.1665954), wk =   0.0740741
        k(   39) = (   0.3333333   0.1624236   0.3331908), wk =   0.0740741
        k(   40) = (   0.3333333   0.1624236  -0.4997861), wk =   0.0370370
        k(   41) = (   0.3333333   0.3248471   0.0000000), wk =   0.0370370
        k(   42) = (   0.3333333   0.3248471   0.1665954), wk =   0.0740741
        k(   43) = (   0.3333333   0.3248471   0.3331908), wk =   0.0740741
        k(   44) = (   0.3333333   0.3248471  -0.4997861), wk =   0.0370370
        k(   45) = (   0.3333333  -0.4872707   0.0000000), wk =   0.0185185
        k(   46) = (   0.3333333  -0.4872707   0.1665954), wk =   0.0370370
        k(   47) = (   0.3333333  -0.4872707   0.3331908), wk =   0.0370370
        k(   48) = (   0.3333333  -0.4872707  -0.4997861), wk =   0.0185185
        k(   49) = (  -0.5000000   0.0000000   0.0000000), wk =   0.0092593
        k(   50) = (  -0.5000000   0.0000000   0.1665954), wk =   0.0185185
        k(   51) = (  -0.5000000   0.0000000   0.3331908), wk =   0.0185185
        k(   52) = (  -0.5000000   0.0000000  -0.4997861), wk =   0.0092593
        k(   53) = (  -0.5000000   0.1624236   0.0000000), wk =   0.0185185
        k(   54) = (  -0.5000000   0.1624236   0.1665954), wk =   0.0370370
        k(   55) = (  -0.5000000   0.1624236   0.3331908), wk =   0.0370370
        k(   56) = (  -0.5000000   0.1624236  -0.4997861), wk =   0.0185185
        k(   57) = (  -0.5000000   0.3248471   0.0000000), wk =   0.0185185
        k(   58) = (  -0.5000000   0.3248471   0.1665954), wk =   0.0370370
        k(   59) = (  -0.5000000   0.3248471   0.3331908), wk =   0.0370370
        k(   60) = (  -0.5000000   0.3248471  -0.4997861), wk =   0.0185185
        k(   61) = (  -0.5000000  -0.4872707   0.0000000), wk =   0.0092593
        k(   62) = (  -0.5000000  -0.4872707   0.1665954), wk =   0.0185185
        k(   63) = (  -0.5000000  -0.4872707   0.3331908), wk =   0.0185185
        k(   64) = (  -0.5000000  -0.4872707  -0.4997861), wk =   0.0092593

     Initial potential from superposition of free atoms

     starting charge  367.99656, renormalised to  368.20000
     Starting wfc are  232 randomized atomic wfcs

     Self-consistent Calculation

     iteration #  1     ecut=   120.00 Ry     beta= 0.70
     Davidson diagonalization with overlap
     ethr =  1.00E-02,  avg # of iterations =  5.1

     total energy              =   -6253.74256701 Ry
     Harris-Foulkes estimate   =   -6264.52921156 Ry
     estimated scf accuracy    <      13.63175351 Ry

[...]

     total energy              =   -6260.96674408 Ry
     Harris-Foulkes estimate   =   -6260.96674412 Ry
     estimated scf accuracy    <       0.00000007 Ry

     iteration # 13     ecut=   120.00 Ry     beta= 0.70
     Davidson diagonalization with overlap
     ethr =  1.77E-11,  avg # of iterations =  3.0

     End of self-consistent calculation

          k = 0.0000 0.0000 0.0000 ( 63543 PWs)   bands (ev):

   -66.5033 -66.5028 -66.5025 -66.5025 -66.5020 -66.5020 -66.5018 -66.5013
   -30.8846 -30.8804 -30.8801 -30.8760 -30.8402 -30.8389 -30.8375 -30.8355
   -30.8343 -30.8337 -30.8329 -30.8303 -30.8097 -30.8092 -30.8078 -30.8071
   -30.7491 -30.7490 -30.7461 -30.7457 -30.7453 -30.7453 -30.7416 -30.7407
   -20.6684 -20.6684 -20.6684 -20.6683 -20.6683 -20.6682 -20.6682 -20.6681
   -20.6512 -20.6508 -20.6507 -20.6502 -20.6463 -20.6462 -20.6459 -20.6458
   -20.6456 -20.6452 -20.6452 -20.6445 -20.6443 -20.6442 -20.6441 -20.6439
   -20.6437 -20.6435 -20.6433 -20.6432 -20.6428 -20.6425 -20.6424 -20.6420
   -20.6396 -20.6393 -20.6389 -20.6387 -20.6379 -20.6374 -20.6373 -20.6369
   -20.6304 -20.6304 -20.6294 -20.6294 -20.6290 -20.6289 -20.6279 -20.6279
   -20.6240 -20.6238 -20.6235 -20.6234 -20.6227 -20.6226 -20.6221 -20.6220
   -10.2333  -9.9300  -9.8704  -9.8694  -9.5803  -9.5772  -9.5003  -9.3477
    -9.3275  -9.2785  -9.2577  -9.2571  -8.1115  -8.0574  -8.0545  -8.0249
    -8.0246  -8.0073  -7.9907  -7.9888  -7.9500  -7.9496  -7.9188  -7.9175
     0.7911   0.7979   0.8579   0.8619   0.8972   0.9149   0.9243   1.0898
     1.1650   1.1721   1.1789   1.4049   2.2133   2.2662   2.2731   2.3110
     2.3834   2.3920   4.0148   4.0276   4.1508   4.1698   4.3808   4.3858
     4.4279   4.4292   4.4304   4.4499   4.5367   4.5387   4.8283   5.0635
     5.0750   5.2640   5.2707   5.2734   5.2925   5.2951   5.2995   5.4460
     5.4489   5.5299   5.6646   5.6803   5.7085   5.8063   5.8086   5.9086
     5.9172   6.1120   6.1141   6.1297   6.1314   6.5092   6.6170   6.6304
     6.6731   6.6825   6.7532   6.8010   6.8091   6.8177   6.9488   6.9530
     6.9546   6.9603   7.8372   7.8386   7.8434   7.8613   7.8861   7.9071
     8.8035   8.8357   9.2357   9.2414   9.2704   9.2733  12.0793  12.0968
    12.1694  12.1711  12.1897  12.1922  12.2263  12.2381  12.5862  12.6568
    12.7732  12.7886  13.1025  13.1501  13.5901  13.6746  13.7845  13.8023
    13.9350  14.0411  14.1504  14.5169  14.6702  14.6811  15.3240  15.6049
    15.6223  16.6856  16.8102  16.8249  16.8439

[...]

          k = 0.3333-0.4873-0.4998 ( 63556 PWs)   bands (ev):

[...]

          k =-0.5000 0.0000 0.0000 ( 63554 PWs)   bands (ev):

[...]

          k =-0.5000-0.4873-0.4998 ( 63592 PWs)   bands (ev):

   -66.5023 -66.5023 -66.5023 -66.5023 -66.5023 -66.5023 -66.5023 -66.5022
   -30.8467 -30.8467 -30.8467 -30.8467 -30.8463 -30.8463 -30.8463 -30.8463
   -30.7930 -30.7930 -30.7930 -30.7930 -30.7914 -30.7914 -30.7914 -30.7914
   -30.7879 -30.7879 -30.7879 -30.7879 -30.7864 -30.7864 -30.7864 -30.7864
   -20.6683 -20.6683 -20.6683 -20.6683 -20.6683 -20.6683 -20.6683 -20.6683
   -20.6478 -20.6478 -20.6478 -20.6478 -20.6477 -20.6477 -20.6477 -20.6477
   -20.6447 -20.6447 -20.6447 -20.6447 -20.6445 -20.6444 -20.6444 -20.6444
   -20.6437 -20.6436 -20.6436 -20.6436 -20.6434 -20.6433 -20.6433 -20.6433
   -20.6383 -20.6383 -20.6382 -20.6382 -20.6382 -20.6382 -20.6382 -20.6381
   -20.6268 -20.6267 -20.6267 -20.6267 -20.6267 -20.6267 -20.6267 -20.6267
   -20.6259 -20.6259 -20.6259 -20.6258 -20.6258 -20.6258 -20.6258 -20.6258
    -9.2329  -9.2329  -9.2329  -9.2329  -9.2268  -9.2268  -9.2268  -9.2268
    -8.7277  -8.7277  -8.7277  -8.7277  -8.7169  -8.7169  -8.7169  -8.7169
    -8.6965  -8.6965  -8.6965  -8.6965  -8.6889  -8.6889  -8.6889  -8.6889
     2.7165   2.7165   2.7165   2.7165   2.7577   2.7577   2.7577   2.7577
     2.8166   2.8166   2.8166   2.8167   2.8694   2.8694   2.8694   2.8694
     3.0919   3.0919   3.0919   3.0919   3.1723   3.1723   3.1723   3.1723
     3.8358   3.8358   3.8358   3.8358   3.8563   3.8563   3.8563   3.8563
     3.9517   3.9517   3.9518   3.9518   3.9702   3.9702   3.9702   3.9702
     4.0594   4.0594   4.0594   4.0594   4.0945   4.0945   4.0945   4.0945
     6.9073   6.9073   6.9073   6.9073   6.9748   6.9748   6.9748   6.9748
     7.0419   7.0419   7.0419   7.0419   7.0606   7.0606   7.0606   7.0606
     7.2943   7.2943   7.2943   7.2943   7.3167   7.3167   7.3167   7.3167
    11.5214  11.5214  11.5214  11.5214  11.5364  11.5365  11.5365  11.5365
    11.7854  11.7854  11.7854  11.7854  11.8573  11.8573  11.8573  11.8573
    11.9759  11.9759  11.9759  11.9759  12.0175  12.0175  12.0175  12.0175
    16.8847  16.8847  16.8848  16.8848  16.9239  16.9239  16.9239  16.9239
    17.3227  17.3228  17.3228  17.3228  17.3429

     the Fermi energy is     9.1847 ev

!    total energy              =   -6260.96674409 Ry
     Harris-Foulkes estimate   =   -6260.96674410 Ry
     estimated scf accuracy    <          2.6E-09 Ry

     The total energy is the sum of the following terms:

     one-electron contribution =   -4810.46039530 Ry
     hartree contribution      =    2637.81217161 Ry
     xc contribution           =    -965.89219477 Ry
     ewald contribution        =   -3122.42628575 Ry
     smearing contrib. (-TS)   =      -0.00003989 Ry

     convergence has been achieved in  13 iterations

     Writing output data file Landau_11.save

     General routines

     Parallel routines

   This run was terminated on:  17: 4: 2  20Mar2020

   JOB DONE.