     Program PWSCF v.6.4.1 starts on 19Nov2019 at 18:29: 6

     K-points division:     npool     =      40
     Reading input from rscf.in

     Current dimensions of program PWSCF are:
     Max number of different atomic species (ntypx) = 10
     Max number of k-points (npk) =  40000
     Max angular momentum in pseudopotentials (lmaxx) =  3

     Subspace diagonalization in iterative solution of the eigenvalue problem:
     a serial algorithm will be used

     Message from routine setup:
     using ibrav=0 with symmetry is DISCOURAGED, use correct ibrav instead

     bravais-lattice index     =            0
     lattice parameter (alat)  =       9.7849  a.u.
     unit-cell volume          =    1402.1515 (a.u.)^3
     number of atoms/cell      =           16
     number of atomic types    =            2
     number of electrons       =       184.00
     number of Kohn-Sham states=          110
     kinetic-energy cutoff     =     120.0000  Ry
     charge density cutoff     =     480.0000  Ry
     convergence threshold     =      1.0E-08
     mixing beta               =       0.7000
     number of iterations used =            8  plain     mixing
     Exchange-correlation      = SLA PW NOGX NOGC ( 1  4  0  0 0 0)
     nstep                     =           50

     celldm(1)=   9.784926  celldm(2)=   0.000000  celldm(3)=   0.000000
     celldm(4)=   0.000000  celldm(5)=   0.000000  celldm(6)=   0.000000

     crystal axes: (cart. coord. in units of alat)
               a(1) = (   1.000000   0.000000   0.000000 )
               a(2) = (   0.000000   1.000000   0.000000 )
               a(3) = (   0.000000   0.000000   1.496657 )

     reciprocal axes: (cart. coord. in units 2 pi/alat)
               b(1) = (  1.000000  0.000000  0.000000 )
               b(2) = (  0.000000  1.000000  0.000000 )
               b(3) = (  0.000000  0.000000  0.668156 )

     PseudoPot. # 1 for W  read from file:
     /cluster/scratch/mnoe/QE/pps/W_ONCV_LDA-4.0.upf
     MD5 check sum: ba0307d5d4cd419d6f1d13dc49d7c13a
     Pseudo is Norm-conserving + core correction, Zval = 28.0
     Generated using ONCVPSP code by D. R. Hamann
     Using radial grid of 1380 points,  8 beta functions with:
                l(1) =   0
                l(2) =   0
                l(3) =   1
                l(4) =   1
                l(5) =   2
                l(6) =   2
                l(7) =   3
                l(8) =   3

     PseudoPot. # 2 for O  read from file:
     /cluster/scratch/mnoe/QE/pps/O_ONCV_LDA-3.0.upf
     MD5 check sum: b55cdb4f45ae2203d24ad12cf8d61a31
     Pseudo is Norm-conserving + core correction, Zval =  6.0
     Generated using ONCVPSP code by D. R. Hamann
     Using radial grid of  926 points,  5 beta functions with:
                l(1) =   0
                l(2) =   0
                l(3) =   1
                l(4) =   1
                l(5) =   2

     atomic species   valence    mass     pseudopotential
        W             28.00   183.84000     W ( 1.00)
        O              6.00    15.99940     O ( 1.00)

     16 Sym. Ops., with inversion, found (14 have fractional translation)

   Cartesian axes

     site n.     atom                  positions (alat units)
         1           W   tau(   1) = (   0.2500000   0.2500000   0.3188292  )
         2           W   tau(   2) = (   0.7500000   0.7500000   1.1778279  )
         3           W   tau(   3) = (   0.7500000   0.7500000   0.4294994  )
         4           W   tau(   4) = (   0.2500000   0.2500000   1.0671576  )
         5           O   tau(   5) = (   0.2500000   0.2500000   0.7214381  )
         6           O   tau(   6) = (   0.7500000   0.7500000   0.7752189  )
         7           O   tau(   7) = (   0.7500000   0.7500000   0.0268904  )
         8           O   tau(   8) = (   0.2500000   0.2500000   1.4697666  )
         9           O   tau(   9) = (   0.4757412   0.5242588   0.3741643  )
        10           O   tau(  10) = (   0.5242588   0.4757412   1.1224928  )
        11           O   tau(  11) = (   0.0242588   0.9757412   0.3741643  )
        12           O   tau(  12) = (   0.9757411   0.0242588   1.1224928  )
        13           O   tau(  13) = (   0.9757412   0.4757412   0.3741643  )
        14           O   tau(  14) = (   0.0242588   0.5242588   1.1224928  )
        15           O   tau(  15) = (   0.5242588   0.0242588   0.3741643  )
        16           O   tau(  16) = (   0.4757412   0.9757411   1.1224928  )

     number of k points=    40  gaussian smearing, width (Ry)=  0.0007
                       cart. coord. in units 2pi/alat
        k(    1) = (   0.0000000   0.0000000   0.0000000), wk =   0.0092593
        k(    2) = (   0.0000000   0.0000000   0.1113593), wk =   0.0185185
        k(    3) = (   0.0000000   0.0000000   0.2227186), wk =   0.0185185
        k(    4) = (   0.0000000   0.0000000  -0.3340779), wk =   0.0092593
        k(    5) = (   0.0000000   0.1666667   0.0000000), wk =   0.0370370
        k(    6) = (   0.0000000   0.1666667   0.1113593), wk =   0.0740741
        k(    7) = (   0.0000000   0.1666667   0.2227186), wk =   0.0740741
        k(    8) = (   0.0000000   0.1666667  -0.3340779), wk =   0.0370370
        k(    9) = (   0.0000000   0.3333333   0.0000000), wk =   0.0370370
        k(   10) = (   0.0000000   0.3333333   0.1113593), wk =   0.0740741
        k(   11) = (   0.0000000   0.3333333   0.2227186), wk =   0.0740741
        k(   12) = (   0.0000000   0.3333333  -0.3340779), wk =   0.0370370
        k(   13) = (   0.0000000  -0.5000000   0.0000000), wk =   0.0185185
        k(   14) = (   0.0000000  -0.5000000   0.1113593), wk =   0.0370370
        k(   15) = (   0.0000000  -0.5000000   0.2227186), wk =   0.0370370
        k(   16) = (   0.0000000  -0.5000000  -0.3340779), wk =   0.0185185
        k(   17) = (   0.1666667   0.1666667   0.0000000), wk =   0.0370370
        k(   18) = (   0.1666667   0.1666667   0.1113593), wk =   0.0740741
        k(   19) = (   0.1666667   0.1666667   0.2227186), wk =   0.0740741
        k(   20) = (   0.1666667   0.1666667  -0.3340779), wk =   0.0370370
        k(   21) = (   0.1666667   0.3333333   0.0000000), wk =   0.0740741
        k(   22) = (   0.1666667   0.3333333   0.1113593), wk =   0.1481481
        k(   23) = (   0.1666667   0.3333333   0.2227186), wk =   0.1481481
        k(   24) = (   0.1666667   0.3333333  -0.3340779), wk =   0.0740741
        k(   25) = (   0.1666667  -0.5000000   0.0000000), wk =   0.0370370
        k(   26) = (   0.1666667  -0.5000000   0.1113593), wk =   0.0740741
        k(   27) = (   0.1666667  -0.5000000   0.2227186), wk =   0.0740741
        k(   28) = (   0.1666667  -0.5000000  -0.3340779), wk =   0.0370370
        k(   29) = (   0.3333333   0.3333333   0.0000000), wk =   0.0370370
        k(   30) = (   0.3333333   0.3333333   0.1113593), wk =   0.0740741
        k(   31) = (   0.3333333   0.3333333   0.2227186), wk =   0.0740741
        k(   32) = (   0.3333333   0.3333333  -0.3340779), wk =   0.0370370
        k(   33) = (   0.3333333  -0.5000000   0.0000000), wk =   0.0370370
        k(   34) = (   0.3333333  -0.5000000   0.1113593), wk =   0.0740741
        k(   35) = (   0.3333333  -0.5000000   0.2227186), wk =   0.0740741
        k(   36) = (   0.3333333  -0.5000000  -0.3340779), wk =   0.0370370
        k(   37) = (  -0.5000000  -0.5000000   0.0000000), wk =   0.0092593
        k(   38) = (  -0.5000000  -0.5000000   0.1113593), wk =   0.0185185
        k(   39) = (  -0.5000000  -0.5000000   0.2227186), wk =   0.0185185
        k(   40) = (  -0.5000000  -0.5000000  -0.3340779), wk =   0.0092593

     Initial potential from superposition of free atoms

     starting charge  183.99828, renormalised to  184.00000
     Starting wfcs are  116 randomized atomic wfcs

     Self-consistent Calculation

     iteration #  1     ecut=   120.00 Ry     beta= 0.70
     Davidson diagonalization with overlap
     ethr =  1.00E-02,  avg # of iterations =  4.2

     total energy              =   -3126.97574381 Ry
     Harris-Foulkes estimate   =   -3132.28345884 Ry
     estimated scf accuracy    <       6.72997395 Ry

[...]

     End of self-consistent calculation

          k = 0.0000 0.0000 0.0000 ( 31095 PWs)   bands (ev):

   -66.1384 -66.1380 -66.1366 -66.1362 -30.5363 -30.5363 -30.5329 -30.5329
   -30.4684 -30.4626 -30.4403 -30.4403 -30.4377 -30.4377 -30.4089 -30.4044
   -20.2875 -20.2875 -20.2874 -20.2874 -20.2712 -20.2712 -20.2712 -20.2712
   -20.2694 -20.2694 -20.2693 -20.2693 -20.2623 -20.2622 -20.2571 -20.2569
   -20.2567 -20.2567 -20.2566 -20.2564 -20.2555 -20.2555 -20.2543 -20.2543
   -20.2511 -20.2511 -20.2500 -20.2500 -10.0598  -9.8099  -9.1805  -9.1625
    -8.9381  -8.7490  -7.7235  -7.7235  -7.7030  -7.7030  -7.6966  -7.5721
     0.8828   0.8835   1.2619   1.3548   1.6872   1.7122   2.2544   2.3442
     2.5867   2.5867   4.0040   4.0040   4.9852   5.0863   5.0863   5.6006
     5.6006   5.6772   5.6772   5.9253   5.9974   5.9974   6.1156   6.8022
     6.8022   6.8162   7.0402   7.1633   7.1948   7.1948   7.2258   7.2258
     8.2490   8.2490   8.2715   8.2715   9.0365   9.0391   9.8084   9.8084
    12.3817  12.3817  13.5874  13.5874  13.6742  13.7074  13.7137  14.3306
    14.3306  14.7535  15.0215  15.0267  15.4908  16.8249

[...]

          k =-0.5000-0.5000 0.0000 ( 31144 PWs)   bands (ev):

[...]

     the Fermi energy is     8.9868 ev

!    total energy              =   -3130.52757275 Ry
     Harris-Foulkes estimate   =   -3130.52757275 Ry
     estimated scf accuracy    <          4.2E-09 Ry

     The total energy is the sum of the following terms:

     one-electron contribution =   -2381.52210675 Ry
     hartree contribution      =    1309.31048837 Ry
     xc contribution           =    -483.08758930 Ry
     ewald contribution        =   -1575.22836507 Ry
     smearing contrib. (-TS)   =      -0.00000000 Ry

     convergence has been achieved in  12 iterations

     Forces acting on atoms (cartesian axes, Ry/au):

     atom    1 type  1   force =     0.00000000    0.00000000   -0.04127532
     atom    2 type  1   force =     0.00000000    0.00000000    0.04127532
     atom    3 type  1   force =     0.00000000    0.00000000    0.04127532
     atom    4 type  1   force =     0.00000000    0.00000000   -0.04127532
     atom    5 type  2   force =     0.00000000    0.00000000    0.05982357
     atom    6 type  2   force =     0.00000000    0.00000000   -0.05982357
     atom    7 type  2   force =     0.00000000    0.00000000   -0.05982357
     atom    8 type  2   force =     0.00000000    0.00000000    0.05982357
     atom    9 type  2   force =    -0.00520097    0.00520097    0.00000000
     atom   10 type  2   force =     0.00520097   -0.00520097    0.00000000
     atom   11 type  2   force =     0.00520097   -0.00520097    0.00000000
     atom   12 type  2   force =    -0.00520097    0.00520097    0.00000000
     atom   13 type  2   force =    -0.00520097   -0.00520097    0.00000000
     atom   14 type  2   force =     0.00520097    0.00520097    0.00000000
     atom   15 type  2   force =     0.00520097    0.00520097    0.00000000
[...]

     new trust radius        =       0.1068347722 bohr
     new conv_thr            =       0.0000000100 Ry

     new unit-cell volume =   1432.71670 a.u.^3 (   212.30671 Ang^3 )
     density =      7.25321 g/cm^3

CELL_PARAMETERS (angstrom)
   5.251825795   0.000000000   0.000000000
   0.000000000   5.251825795   0.000000000
   0.000000000   0.000000000   7.697382951

ATOMIC_POSITIONS (crystal)
W        0.250000000   0.250000000   0.213027547    0   0   0
W        0.750000023   0.750000023   0.786972468    0   0   0
W        0.750000023   0.750000023   0.286972468    0   0   0
W        0.250000000   0.250000000   0.713027532    0   0   0
O        0.250000000   0.250000000   0.482033022    0   0   0
O        0.750000023   0.750000023   0.517966978    0   0   0
O        0.750000023   0.750000023   0.017966991    0   0   0
O        0.250000000   0.250000000   0.982033022    0   0   0
O        0.475741175   0.524258779   0.250000000    0   0   0
O        0.524258825   0.475741221   0.750000000    0   0   0
O        0.024258808   0.975741221   0.250000000    0   0   0
O        0.975741129   0.024258842   0.750000000    0   0   0
O        0.975741221   0.475741175   0.250000000    0   0   0
O        0.024258842   0.524258825   0.750000000    0   0   0
O        0.524258779   0.024258808   0.250000000    0   0   0
O        0.475741221   0.975741129   0.750000000    0   0   0

     Writing output data file Landau_15.save/
     NEW-OLD atomic charge density approx. for the potential
     extrapolated charge  187.92537, renormalised to  184.00000

[...]

     enthalpy old            =   -3130.5275727485 Ry
     enthalpy new            =   -3130.5381402053 Ry

     CASE: enthalpy_new < enthalpy_old

[...]

     Threshold (ethr) on eigenvalues was too large:
     Diagonalizing with lowered threshold

     Davidson diagonalization with overlap
     ethr =  1.77E-11,  avg # of iterations =  4.0

[...]

     number of scf cycles    =   5
     number of bfgs steps    =   4

     enthalpy old            =   -3130.5386357878 Ry
     enthalpy new            =   -3130.5386358882 Ry

     CASE: enthalpy_new < enthalpy_old

     small trust_radius: resetting bfgs history

     new trust radius        =       0.0000041418 bohr
     new conv_thr            =            1.0E-10 Ry

     new unit-cell volume =   1423.83929 a.u.^3 (   210.99121 Ang^3 )
     density =      7.29843 g/cm^3

[...]

ATOMIC_POSITIONS (crystal)
W        0.250000000   0.250000000   0.213027547    0   0   0
W        0.750000023   0.750000023   0.786972468    0   0   0
W        0.750000023   0.750000023   0.286972468    0   0   0
W        0.250000000   0.250000000   0.713027532    0   0   0
O        0.250000000   0.250000000   0.482033022    0   0   0
O        0.750000023   0.750000023   0.517966978    0   0   0
O        0.750000023   0.750000023   0.017966991    0   0   0
O        0.250000000   0.250000000   0.982033022    0   0   0
O        0.475741175   0.524258779   0.250000000    0   0   0
O        0.524258825   0.475741221   0.750000000    0   0   0
O        0.024258808   0.975741221   0.250000000    0   0   0
O        0.975741129   0.024258842   0.750000000    0   0   0
O        0.975741221   0.475741175   0.250000000    0   0   0
O        0.024258842   0.524258825   0.750000000    0   0   0
O        0.524258779   0.024258808   0.250000000    0   0   0
O        0.475741221   0.975741129   0.750000000    0   0   0

     Writing output data file Landau_15.save/
     NEW-OLD atomic charge density approx. for the potential
     extrapolated charge  184.00025, renormalised to  184.00000

[...]

     Threshold (ethr) on eigenvalues was too large:
     Diagonalizing with lowered threshold

     Davidson diagonalization with overlap
     ethr =  4.13E-12,  avg # of iterations =  2.2

[...]

     bfgs converged in   6 scf cycles and   5 bfgs steps
     (criteria: energy <  1.0E-07 Ry, force <  1.0E-07Ry/Bohr, cell <  5.0E-01kbar)

     End of BFGS Geometry Optimization

     Final enthalpy =   -3130.5386358885 Ry
Begin final coordinates
     new unit-cell volume =   1423.83929 a.u.^3 (   210.99121 Ang^3 )
     density =      7.29843 g/cm^3

CELL_PARAMETERS (angstrom)
   5.240105252   0.000000000   0.000000000
   0.000000000   5.240105252   0.000000000
   0.000000000   0.000000000   7.683946747

ATOMIC_POSITIONS (crystal)
W        0.250000000   0.250000000   0.213027547    0   0   0
W        0.750000023   0.750000023   0.786972468    0   0   0
W        0.750000023   0.750000023   0.286972468    0   0   0
W        0.250000000   0.250000000   0.713027532    0   0   0
O        0.250000000   0.250000000   0.482033022    0   0   0
O        0.750000023   0.750000023   0.517966978    0   0   0
O        0.750000023   0.750000023   0.017966991    0   0   0
O        0.250000000   0.250000000   0.982033022    0   0   0
O        0.475741175   0.524258779   0.250000000    0   0   0
O        0.524258825   0.475741221   0.750000000    0   0   0
O        0.024258808   0.975741221   0.250000000    0   0   0
O        0.975741129   0.024258842   0.750000000    0   0   0
O        0.975741221   0.475741175   0.250000000    0   0   0
O        0.024258842   0.524258825   0.750000000    0   0   0
O        0.524258779   0.024258808   0.250000000    0   0   0
O        0.475741221   0.975741129   0.750000000    0   0   0
End final coordinates

     Writing output data file Landau_15.save/

     Final scf calculation at the relaxed structure.
     The G-vectors are recalculated for the final unit cell
     Results may differ from those at the preceding step.

     bravais-lattice index     =            0
     lattice parameter (alat)  =       9.7849  a.u.
     unit-cell volume          =    1423.8393 (a.u.)^3
     number of atoms/cell      =           16
     number of atomic types    =            2
     number of electrons       =       184.00
     number of Kohn-Sham states=          110
     kinetic-energy cutoff     =     120.0000  Ry
     charge density cutoff     =     480.0000  Ry
     convergence threshold     =      1.0E-10
     mixing beta               =       0.7000
     number of iterations used =            8  plain     mixing
     Exchange-correlation      = SLA PW NOGX NOGC ( 1  4  0  0 0 0)

     celldm(1)=   9.784926  celldm(2)=   0.000000  celldm(3)=   0.000000
     celldm(4)=   0.000000  celldm(5)=   0.000000  celldm(6)=   0.000000

     crystal axes: (cart. coord. in units of alat)
               a(1) = (   1.012002   0.000000   0.000000 )
               a(2) = (   0.000000   1.012002   0.000000 )
               a(3) = (   0.000000   0.000000   1.483972 )

     reciprocal axes: (cart. coord. in units 2 pi/alat)
               b(1) = (  0.988140  0.000000  0.000000 )
               b(2) = (  0.000000  0.988140  0.000000 )
               b(3) = (  0.000000  0.000000  0.673867 )

     PseudoPot. # 1 for W  read from file:
     /cluster/scratch/mnoe/QE/pps/W_ONCV_LDA-4.0.upf
     MD5 check sum: ba0307d5d4cd419d6f1d13dc49d7c13a
     Pseudo is Norm-conserving + core correction, Zval = 28.0
     Generated using ONCVPSP code by D. R. Hamann
     Using radial grid of 1380 points,  8 beta functions with:
                l(1) =   0
                l(2) =   0
                l(3) =   1
                l(4) =   1
                l(5) =   2
                l(6) =   2
                l(7) =   3
                l(8) =   3

     PseudoPot. # 2 for O  read from file:
     /cluster/scratch/mnoe/QE/pps/O_ONCV_LDA-3.0.upf
     MD5 check sum: b55cdb4f45ae2203d24ad12cf8d61a31
     Pseudo is Norm-conserving + core correction, Zval =  6.0
     Generated using ONCVPSP code by D. R. Hamann
     Using radial grid of  926 points,  5 beta functions with:
                l(1) =   0
                l(2) =   0
                l(3) =   1
                l(4) =   1
                l(5) =   2

     atomic species   valence    mass     pseudopotential
        W             28.00   183.84000     W ( 1.00)
        O              6.00    15.99940     O ( 1.00)

     16 Sym. Ops., with inversion, found (14 have fractional translation)

   Cartesian axes

     site n.     atom                  positions (alat units)
         1           W   tau(   1) = (   0.2530005   0.2530005   0.3161269  )
         2           W   tau(   2) = (   0.7590014   0.7590014   1.1678450  )
         3           W   tau(   3) = (   0.7590014   0.7590014   0.4258591  )
         4           W   tau(   4) = (   0.2530005   0.2530005   1.0581128  )
         5           O   tau(   5) = (   0.2530005   0.2530005   0.7153234  )
         6           O   tau(   6) = (   0.7590014   0.7590014   0.7686484  )
         7           O   tau(   7) = (   0.7590014   0.7590014   0.0266625  )
         8           O   tau(   8) = (   0.2530005   0.2530005   1.4573094  )
         9           O   tau(   9) = (   0.4814510   0.5305509   0.3709930  )
        10           O   tau(  10) = (   0.5305509   0.4814510   1.1129789  )
        11           O   tau(  11) = (   0.0245500   0.9874520   0.3709930  )
        12           O   tau(  12) = (   0.9874519   0.0245500   1.1129789  )
        13           O   tau(  13) = (   0.9874520   0.4814510   0.3709930  )
        14           O   tau(  14) = (   0.0245500   0.5305509   1.1129789  )
        15           O   tau(  15) = (   0.5305509   0.0245500   0.3709930  )
        16           O   tau(  16) = (   0.4814510   0.9874519   1.1129789  )

     number of k points=    40  gaussian smearing, width (Ry)=  0.0007
                       cart. coord. in units 2pi/alat
        k(    1) = (   0.0000000   0.0000000   0.0000000), wk =   0.0092593
        k(    2) = (   0.0000000   0.0000000   0.1123112), wk =   0.0185185
        k(    3) = (   0.0000000   0.0000000   0.2246224), wk =   0.0185185
        k(    4) = (   0.0000000   0.0000000  -0.3369336), wk =   0.0092593
        k(    5) = (   0.0000000   0.1646901   0.0000000), wk =   0.0370370
        k(    6) = (   0.0000000   0.1646901   0.1123112), wk =   0.0740741
        k(    7) = (   0.0000000   0.1646901   0.2246224), wk =   0.0740741
        k(    8) = (   0.0000000   0.1646901  -0.3369336), wk =   0.0370370
        k(    9) = (   0.0000000   0.3293801   0.0000000), wk =   0.0370370
        k(   10) = (   0.0000000   0.3293801   0.1123112), wk =   0.0740741
        k(   11) = (   0.0000000   0.3293801   0.2246224), wk =   0.0740741
        k(   12) = (   0.0000000   0.3293801  -0.3369336), wk =   0.0370370
        k(   13) = (   0.0000000  -0.4940702   0.0000000), wk =   0.0185185
        k(   14) = (   0.0000000  -0.4940702   0.1123112), wk =   0.0370370
        k(   15) = (   0.0000000  -0.4940702   0.2246224), wk =   0.0370370
        k(   16) = (   0.0000000  -0.4940702  -0.3369336), wk =   0.0185185
        k(   17) = (   0.1646901   0.1646901   0.0000000), wk =   0.0370370
        k(   18) = (   0.1646901   0.1646901   0.1123112), wk =   0.0740741
        k(   19) = (   0.1646901   0.1646901   0.2246224), wk =   0.0740741
        k(   20) = (   0.1646901   0.1646901  -0.3369336), wk =   0.0370370
        k(   21) = (   0.1646901   0.3293801   0.0000000), wk =   0.0740741
        k(   22) = (   0.1646901   0.3293801   0.1123112), wk =   0.1481481
        k(   23) = (   0.1646901   0.3293801   0.2246224), wk =   0.1481481
        k(   24) = (   0.1646901   0.3293801  -0.3369336), wk =   0.0740741
        k(   25) = (   0.1646901  -0.4940702   0.0000000), wk =   0.0370370
        k(   26) = (   0.1646901  -0.4940702   0.1123112), wk =   0.0740741
        k(   27) = (   0.1646901  -0.4940702   0.2246224), wk =   0.0740741
        k(   28) = (   0.1646901  -0.4940702  -0.3369336), wk =   0.0370370
        k(   29) = (   0.3293801   0.3293801   0.0000000), wk =   0.0370370
        k(   30) = (   0.3293801   0.3293801   0.1123112), wk =   0.0740741
        k(   31) = (   0.3293801   0.3293801   0.2246224), wk =   0.0740741
        k(   32) = (   0.3293801   0.3293801  -0.3369336), wk =   0.0370370
        k(   33) = (   0.3293801  -0.4940702   0.0000000), wk =   0.0370370
        k(   34) = (   0.3293801  -0.4940702   0.1123112), wk =   0.0740741
        k(   35) = (   0.3293801  -0.4940702   0.2246224), wk =   0.0740741
        k(   36) = (   0.3293801  -0.4940702  -0.3369336), wk =   0.0370370
        k(   37) = (  -0.4940702  -0.4940702   0.0000000), wk =   0.0092593
        k(   38) = (  -0.4940702  -0.4940702   0.1123112), wk =   0.0185185
        k(   39) = (  -0.4940702  -0.4940702   0.2246224), wk =   0.0185185
        k(   40) = (  -0.4940702  -0.4940702  -0.3369336), wk =   0.0092593

     Initial potential from superposition of free atoms

     starting charge  183.99828, renormalised to  184.00000
     Starting wfcs are  116 randomized atomic wfcs

     Self-consistent Calculation

[...]

     total energy              =   -3130.53880441 Ry
     Harris-Foulkes estimate   =   -3130.53880441 Ry
     estimated scf accuracy    <          4.5E-10 Ry

     iteration # 13     ecut=   120.00 Ry     beta= 0.70
     Davidson diagonalization with overlap
     ethr =  2.47E-13,  avg # of iterations =  3.9

     End of self-consistent calculation

[...]

          k = 0.3294-0.4941-0.3369 ( 31596 PWs)   bands (ev):

[...]

          k =-0.4941-0.4941-0.3369 ( 31648 PWs)   bands (ev):

   -66.4317 -66.4317 -66.4317 -66.4317 -30.7724 -30.7724 -30.7724 -30.7724
   -30.7580 -30.7580 -30.7580 -30.7580 -30.6810 -30.6810 -30.6810 -30.6810
   -20.5967 -20.5967 -20.5967 -20.5967 -20.5836 -20.5836 -20.5836 -20.5836
   -20.5784 -20.5784 -20.5784 -20.5784 -20.5685 -20.5685 -20.5685 -20.5685
   -20.5667 -20.5667 -20.5667 -20.5667 -20.5620 -20.5620 -20.5620 -20.5620
   -20.5581 -20.5581 -20.5581 -20.5581  -9.5736  -9.5736  -9.5736  -9.5736
    -8.6643  -8.6643  -8.6643  -8.6643  -7.9678  -7.9678  -7.9677  -7.9677
     1.0332   1.0332   1.0332   1.0332   2.9349   2.9349   2.9349   2.9349
     3.1761   3.1762   3.1762   3.1762   4.4964   4.4964   4.4964   4.4964
     5.1391   5.1391   5.1391   5.1391   5.8141   5.8141   5.8141   5.8141
     6.0233   6.0233   6.0233   6.0233   6.5198   6.5198   6.5198   6.5198
     7.3096   7.3096   7.3096   7.3096  11.0392  11.0392  11.0392  11.0392
    12.2441  12.2441  12.2441  12.2441  13.4125  13.4125  13.4125  13.4125
    15.0320  15.0320  15.0320  15.0320  17.8881  17.8881

     the Fermi energy is     8.6812 ev

!    total energy              =   -3130.53880441 Ry
     Harris-Foulkes estimate   =   -3130.53880441 Ry
     estimated scf accuracy    <          5.0E-11 Ry

     The total energy is the sum of the following terms:

     one-electron contribution =   -2393.21625527 Ry
     hartree contribution      =    1313.34829978 Ry
     xc contribution           =    -482.85200169 Ry
     ewald contribution        =   -1567.81884723 Ry
     smearing contrib. (-TS)   =      -0.00000000 Ry

     convergence has been achieved in  13 iterations

     Forces acting on atoms (cartesian axes, Ry/au):

     atom    1 type  1   force =     0.00000000    0.00000000   -0.00837954
     atom    2 type  1   force =     0.00000000    0.00000000    0.00837954
     atom    3 type  1   force =     0.00000000    0.00000000    0.00837954
     atom    4 type  1   force =     0.00000000    0.00000000   -0.00837954
     atom    5 type  2   force =     0.00000000    0.00000000    0.04533260
     atom    6 type  2   force =     0.00000000    0.00000000   -0.04533260
     atom    7 type  2   force =     0.00000000    0.00000000   -0.04533260
     atom    8 type  2   force =     0.00000000    0.00000000    0.04533260
     atom    9 type  2   force =    -0.00140577    0.00140577    0.00000000
     atom   10 type  2   force =     0.00140577   -0.00140577    0.00000000
     atom   11 type  2   force =     0.00140577   -0.00140577    0.00000000
     atom   12 type  2   force =    -0.00140577    0.00140577    0.00000000
     atom   13 type  2   force =    -0.00140577   -0.00140577    0.00000000
     atom   14 type  2   force =     0.00140577    0.00140577    0.00000000
     atom   15 type  2   force =     0.00140577    0.00140577    0.00000000
     atom   16 type  2   force =    -0.00140577   -0.00140577    0.00000000

     Total force =     0.000000     Total SCF correction =     0.000000

     Computing stress (Cartesian axis) and pressure

          total   stress  (Ry/bohr**3)                   (kbar)     P=    0.56
   0.00000551   0.00000000   0.00000000          0.81      0.00      0.00
   0.00000000   0.00000551   0.00000000          0.00      0.81      0.00
   0.00000000   0.00000000   0.00000034          0.00      0.00      0.05

     Writing output data file Landau_15.save/

     General routines

     Parallel routines

   This run was terminated on:  18:48: 2  19Nov2019

   JOB DONE.