     Program PWSCF v.6.4.1 starts on 29Nov2019 at 17:44: 4

     K-points division:     npool     =      40
     Reading input from scf.in

     Current dimensions of program PWSCF are:
     Max number of different atomic species (ntypx) = 10
     Max number of k-points (npk) =  40000
     Max angular momentum in pseudopotentials (lmaxx) =  3

     Subspace diagonalization in iterative solution of the eigenvalue problem:
     a serial algorithm will be used

     Message from routine setup:
     using ibrav=0 with symmetry is DISCOURAGED, use correct ibrav instead

     bravais-lattice index     =            0
     lattice parameter (alat)  =       9.9283  a.u.
     unit-cell volume          =    1418.9677 (a.u.)^3
     number of atoms/cell      =           16
     number of atomic types    =            2
     number of electrons       =       184.18
     number of Kohn-Sham states=          111
     kinetic-energy cutoff     =     120.0000  Ry
     charge density cutoff     =     480.0000  Ry
     convergence threshold     =      1.0E-08
     mixing beta               =       0.7000
     number of iterations used =            8  plain     mixing
     Exchange-correlation      = SLA PW NOGX NOGC ( 1  4  0  0 0 0)

     celldm(1)=   9.928277  celldm(2)=   0.000000  celldm(3)=   0.000000
     celldm(4)=   0.000000  celldm(5)=   0.000000  celldm(6)=   0.000000

     crystal axes: (cart. coord. in units of alat)
               a(1) = (   1.000000   0.000000   0.000000 )
               a(2) = (   0.000000   1.000000   0.000000 )
               a(3) = (   0.000000   0.000000   1.449943 )

     reciprocal axes: (cart. coord. in units 2 pi/alat)
               b(1) = (  1.000000  0.000000  0.000000 )
               b(2) = (  0.000000  1.000000  0.000000 )
               b(3) = (  0.000000  0.000000  0.689682 )

     PseudoPot. # 1 for W  read from file:
     /cluster/scratch/mnoe/QE/pps/W_ONCV_LDA-4.0.upf
     MD5 check sum: ba0307d5d4cd419d6f1d13dc49d7c13a
     Pseudo is Norm-conserving + core correction, Zval = 28.0
     Generated using ONCVPSP code by D. R. Hamann
     Using radial grid of 1380 points,  8 beta functions with:
                l(1) =   0
                l(2) =   0
                l(3) =   1
                l(4) =   1
                l(5) =   2
                l(6) =   2
                l(7) =   3
                l(8) =   3

     PseudoPot. # 2 for O  read from file:
     /cluster/scratch/mnoe/QE/pps/O_ONCV_LDA-3.0.upf
     MD5 check sum: b55cdb4f45ae2203d24ad12cf8d61a31
     Pseudo is Norm-conserving + core correction, Zval =  6.0
     Generated using ONCVPSP code by D. R. Hamann
     Using radial grid of  926 points,  5 beta functions with:
                l(1) =   0
                l(2) =   0
                l(3) =   1
                l(4) =   1
                l(5) =   2

     atomic species   valence    mass     pseudopotential
        W             28.00   183.84000     W ( 1.00)
        O              6.00    15.99940     O ( 1.00)

     16 Sym. Ops., with inversion, found (14 have fractional translation)

   Cartesian axes

     site n.     atom                  positions (alat units)
         1           W   tau(   1) = (   0.2500000   0.2500000   0.2990328  )
         2           W   tau(   2) = (   0.7500000   0.7500000   1.1509101  )
         3           W   tau(   3) = (   0.7500000   0.7500000   0.4259387  )
         4           W   tau(   4) = (   0.2500000   0.2500000   1.0240041  )
         5           O   tau(   5) = (   0.2500000   0.2500000   0.6802895  )
         6           O   tau(   6) = (   0.7500000   0.7500000   0.7696533  )
         7           O   tau(   7) = (   0.7500000   0.7500000   0.0446819  )
         8           O   tau(   8) = (   0.2500000   0.2500000   1.4052609  )
         9           O   tau(   9) = (   0.5108494   0.4891505   0.3624857  )
        10           O   tau(  10) = (   0.4891506   0.5108495   1.0874571  )
        11           O   tau(  11) = (  -0.0108495   1.0108495   0.3624857  )
        12           O   tau(  12) = (   1.0108494  -0.0108494   1.0874571  )
        13           O   tau(  13) = (   1.0108495   0.5108494   0.3624857  )
        14           O   tau(  14) = (  -0.0108494   0.4891506   1.0874571  )
        15           O   tau(  15) = (   0.4891505  -0.0108495   0.3624857  )
        16           O   tau(  16) = (   0.5108495   1.0108494   1.0874571  )

     number of k points=    60  gaussian smearing, width (Ry)=  0.0007
                       cart. coord. in units 2pi/alat
        k(    1) = (   0.0000000   0.0000000   0.0000000), wk =   0.0041152
        k(    2) = (   0.0000000   0.0000000   0.1149471), wk =   0.0082305
        k(    3) = (   0.0000000   0.0000000   0.2298941), wk =   0.0082305
        k(    4) = (   0.0000000   0.0000000  -0.3448412), wk =   0.0041152
        k(    5) = (   0.0000000   0.1111111   0.0000000), wk =   0.0164609
        k(    6) = (   0.0000000   0.1111111   0.1149471), wk =   0.0329218
        k(    7) = (   0.0000000   0.1111111   0.2298941), wk =   0.0329218
        k(    8) = (   0.0000000   0.1111111  -0.3448412), wk =   0.0164609
        k(    9) = (   0.0000000   0.2222222   0.0000000), wk =   0.0164609
        k(   10) = (   0.0000000   0.2222222   0.1149471), wk =   0.0329218
        k(   11) = (   0.0000000   0.2222222   0.2298941), wk =   0.0329218
        k(   12) = (   0.0000000   0.2222222  -0.3448412), wk =   0.0164609
        k(   13) = (   0.0000000   0.3333333   0.0000000), wk =   0.0164609
        k(   14) = (   0.0000000   0.3333333   0.1149471), wk =   0.0329218
        k(   15) = (   0.0000000   0.3333333   0.2298941), wk =   0.0329218
        k(   16) = (   0.0000000   0.3333333  -0.3448412), wk =   0.0164609
        k(   17) = (   0.0000000   0.4444444   0.0000000), wk =   0.0164609
        k(   18) = (   0.0000000   0.4444444   0.1149471), wk =   0.0329218
        k(   19) = (   0.0000000   0.4444444   0.2298941), wk =   0.0329218
        k(   20) = (   0.0000000   0.4444444  -0.3448412), wk =   0.0164609
        k(   21) = (   0.1111111   0.1111111   0.0000000), wk =   0.0164609
        k(   22) = (   0.1111111   0.1111111   0.1149471), wk =   0.0329218
        k(   23) = (   0.1111111   0.1111111   0.2298941), wk =   0.0329218
        k(   24) = (   0.1111111   0.1111111  -0.3448412), wk =   0.0164609
        k(   25) = (   0.1111111   0.2222222   0.0000000), wk =   0.0329218
        k(   26) = (   0.1111111   0.2222222   0.1149471), wk =   0.0658436
        k(   27) = (   0.1111111   0.2222222   0.2298941), wk =   0.0658436
        k(   28) = (   0.1111111   0.2222222  -0.3448412), wk =   0.0329218
        k(   29) = (   0.1111111   0.3333333   0.0000000), wk =   0.0329218
        k(   30) = (   0.1111111   0.3333333   0.1149471), wk =   0.0658436
        k(   31) = (   0.1111111   0.3333333   0.2298941), wk =   0.0658436
        k(   32) = (   0.1111111   0.3333333  -0.3448412), wk =   0.0329218
        k(   33) = (   0.1111111   0.4444444   0.0000000), wk =   0.0329218
        k(   34) = (   0.1111111   0.4444444   0.1149471), wk =   0.0658436
        k(   35) = (   0.1111111   0.4444444   0.2298941), wk =   0.0658436
        k(   36) = (   0.1111111   0.4444444  -0.3448412), wk =   0.0329218
        k(   37) = (   0.2222222   0.2222222   0.0000000), wk =   0.0164609
        k(   38) = (   0.2222222   0.2222222   0.1149471), wk =   0.0329218
        k(   39) = (   0.2222222   0.2222222   0.2298941), wk =   0.0329218
        k(   40) = (   0.2222222   0.2222222  -0.3448412), wk =   0.0164609
        k(   41) = (   0.2222222   0.3333333   0.0000000), wk =   0.0329218
        k(   42) = (   0.2222222   0.3333333   0.1149471), wk =   0.0658436
        k(   43) = (   0.2222222   0.3333333   0.2298941), wk =   0.0658436
        k(   44) = (   0.2222222   0.3333333  -0.3448412), wk =   0.0329218
        k(   45) = (   0.2222222   0.4444444   0.0000000), wk =   0.0329218
        k(   46) = (   0.2222222   0.4444444   0.1149471), wk =   0.0658436
        k(   47) = (   0.2222222   0.4444444   0.2298941), wk =   0.0658436
        k(   48) = (   0.2222222   0.4444444  -0.3448412), wk =   0.0329218
        k(   49) = (   0.3333333   0.3333333   0.0000000), wk =   0.0164609
        k(   50) = (   0.3333333   0.3333333   0.1149471), wk =   0.0329218
        k(   51) = (   0.3333333   0.3333333   0.2298941), wk =   0.0329218
        k(   52) = (   0.3333333   0.3333333  -0.3448412), wk =   0.0164609
        k(   53) = (   0.3333333   0.4444444   0.0000000), wk =   0.0329218
        k(   54) = (   0.3333333   0.4444444   0.1149471), wk =   0.0658436
        k(   55) = (   0.3333333   0.4444444   0.2298941), wk =   0.0658436
        k(   56) = (   0.3333333   0.4444444  -0.3448412), wk =   0.0329218
        k(   57) = (   0.4444444   0.4444444   0.0000000), wk =   0.0164609
        k(   58) = (   0.4444444   0.4444444   0.1149471), wk =   0.0329218
        k(   59) = (   0.4444444   0.4444444   0.2298941), wk =   0.0329218
        k(   60) = (   0.4444444   0.4444444  -0.3448412), wk =   0.0164609

     Initial potential from superposition of free atoms

     starting charge  183.99828, renormalised to  184.18000
     Starting wfcs are  116 randomized atomic wfcs

     Self-consistent Calculation

     iteration #  1     ecut=   120.00 Ry     beta= 0.70
     Davidson diagonalization with overlap
     ethr =  1.00E-02,  avg # of iterations =  4.8

     total energy              =   -3126.61120480 Ry
     Harris-Foulkes estimate   =   -3132.19800233 Ry
     estimated scf accuracy    <       7.03908368 Ry

[...]

     total energy              =   -3130.36432622 Ry
     Harris-Foulkes estimate   =   -3130.36432624 Ry
     estimated scf accuracy    <       0.00000002 Ry

     iteration # 12     ecut=   120.00 Ry     beta= 0.70
     Davidson diagonalization with overlap
     ethr =  1.14E-11,  avg # of iterations =  2.0

     End of self-consistent calculation

          k = 0.0000 0.0000 0.0000 ( 31527 PWs)   bands (ev):

   -66.3255 -66.3250 -66.3243 -66.3238 -30.6793 -30.6759 -30.6463 -30.6463
   -30.6419 -30.6419 -30.6044 -30.6024 -30.5699 -30.5699 -30.5665 -30.5665
   -20.4910 -20.4910 -20.4909 -20.4908 -20.4769 -20.4769 -20.4769 -20.4769
   -20.4744 -20.4744 -20.4744 -20.4744 -20.4724 -20.4723 -20.4721 -20.4720
   -20.4705 -20.4702 -20.4633 -20.4631 -20.4620 -20.4620 -20.4605 -20.4605
   -20.4598 -20.4598 -20.4582 -20.4582 -10.1440  -9.7001  -9.3839  -9.0445
    -9.0191  -8.9573  -7.9077  -7.8489  -7.8489  -7.8253  -7.8253  -7.7689
     1.0218   1.0839   1.0868   1.2052   1.4219   1.4782   2.3508   2.3508
     2.4631   2.5812   3.9075   3.9075   4.7154   4.7154   4.9305   5.5055
     5.5055   5.7569   5.7569   5.8642   5.8642   5.9082   5.9439   6.5003
     6.5003   6.7973   7.0888   7.1161   7.1161   7.1415   7.1415   7.1936
     8.3021   8.3021   8.3031   8.3123   8.8538   8.8558   9.4189   9.4189
    12.3812  12.3812  13.1852  13.1852  13.3870  13.5122  13.5259  14.0673
    14.0676  14.0871  14.0871  14.6425  15.5106  16.2271  17.0744

[...]

          k = 0.4444 0.4444-0.3448 ( 31522 PWs)   bands (ev):

   -66.3247 -66.3247 -66.3246 -66.3246 -30.6485 -30.6485 -30.6473 -30.6473
   -30.6408 -30.6408 -30.6396 -30.6396 -30.5665 -30.5665 -30.5643 -30.5643
   -20.4910 -20.4909 -20.4909 -20.4909 -20.4783 -20.4783 -20.4783 -20.4783
   -20.4730 -20.4730 -20.4728 -20.4728 -20.4722 -20.4722 -20.4721 -20.4721
   -20.4669 -20.4669 -20.4669 -20.4669 -20.4614 -20.4614 -20.4613 -20.4613
   -20.4591 -20.4591 -20.4590 -20.4590  -9.4710  -9.4710  -9.4317  -9.4317
    -8.5683  -8.5683  -8.5625  -8.5625  -7.9413  -7.9413  -7.8911  -7.8911
     1.2168   1.2168   1.3259   1.3259   2.9493   2.9493   2.9560   2.9560
     3.1946   3.1946   3.2182   3.2182   4.4640   4.4640   4.6540   4.6540
     5.1547   5.1547   5.2903   5.2903   5.7399   5.7399   5.9020   5.9020
     6.2094   6.2095   6.3410   6.3411   6.6607   6.6607   6.7637   6.7637
     7.4992   7.4992   7.5066   7.5066  11.0806  11.0806  11.1370  11.1370
    12.2596  12.2596  12.3679  12.3679  13.3940  13.3940  13.4903  13.4903
    14.8456  14.8456  15.0368  15.0368  17.7069  17.7072  17.8693

     the Fermi energy is     9.1981 ev

!    total energy              =   -3130.36432622 Ry
     Harris-Foulkes estimate   =   -3130.36432623 Ry
     estimated scf accuracy    <          4.9E-10 Ry

     The total energy is the sum of the following terms:

     one-electron contribution =   -2385.53391827 Ry
     hartree contribution      =    1310.41536454 Ry
     xc contribution           =    -482.99843686 Ry
     ewald contribution        =   -1572.24730358 Ry
     smearing contrib. (-TS)   =      -0.00003206 Ry

     convergence has been achieved in  12 iterations

     Writing output data file Landau_35.save/

     General routines

     Parallel routines

   This run was terminated on:  17:48:27  29Nov2019

   JOB DONE.