     Program PWSCF v.6.4.1 starts on 19Nov2019 at 23: 0:13

     K-points division:     npool     =      40
     Reading input from scf.in

     Current dimensions of program PWSCF are:
     Max number of different atomic species (ntypx) = 10
     Max number of k-points (npk) =  40000
     Max angular momentum in pseudopotentials (lmaxx) =  3

     Subspace diagonalization in iterative solution of the eigenvalue problem:
     a serial algorithm will be used

     Message from routine setup:
     using ibrav=0 with symmetry is DISCOURAGED, use correct ibrav instead

     bravais-lattice index     =            0
     lattice parameter (alat)  =       9.8587  a.u.
     unit-cell volume          =    1416.5967 (a.u.)^3
     number of atoms/cell      =           16
     number of atomic types    =            2
     number of electrons       =       184.10
     number of Kohn-Sham states=          110
     kinetic-energy cutoff     =     120.0000  Ry
     charge density cutoff     =     480.0000  Ry
     convergence threshold     =      1.0E-08
     mixing beta               =       0.7000
     number of iterations used =            8  plain     mixing
     Exchange-correlation      = SLA PW NOGX NOGC ( 1  4  0  0 0 0)

     celldm(1)=   9.858662  celldm(2)=   0.000000  celldm(3)=   0.000000
     celldm(4)=   0.000000  celldm(5)=   0.000000  celldm(6)=   0.000000

     crystal axes: (cart. coord. in units of alat)
               a(1) = (   1.000000   0.000000   0.000000 )
               a(2) = (   0.000000   1.000000   0.000000 )
               a(3) = (   0.000000   0.000000   1.478401 )

     reciprocal axes: (cart. coord. in units 2 pi/alat)
               b(1) = (  1.000000  0.000000  0.000000 )
               b(2) = (  0.000000  1.000000  0.000000 )
               b(3) = (  0.000000  0.000000  0.676406 )

     PseudoPot. # 1 for W  read from file:
     /cluster/scratch/mnoe/QE/pps/W_ONCV_LDA-4.0.upf
     MD5 check sum: ba0307d5d4cd419d6f1d13dc49d7c13a
     Pseudo is Norm-conserving + core correction, Zval = 28.0
     Generated using ONCVPSP code by D. R. Hamann
     Using radial grid of 1380 points,  8 beta functions with:
                l(1) =   0
                l(2) =   0
                l(3) =   1
                l(4) =   1
                l(5) =   2
                l(6) =   2
                l(7) =   3
                l(8) =   3

     PseudoPot. # 2 for O  read from file:
     /cluster/scratch/mnoe/QE/pps/O_ONCV_LDA-3.0.upf
     MD5 check sum: b55cdb4f45ae2203d24ad12cf8d61a31
     Pseudo is Norm-conserving + core correction, Zval =  6.0
     Generated using ONCVPSP code by D. R. Hamann
     Using radial grid of  926 points,  5 beta functions with:
                l(1) =   0
                l(2) =   0
                l(3) =   1
                l(4) =   1
                l(5) =   2

     atomic species   valence    mass     pseudopotential
        W             28.00   183.84000     W ( 1.00)
        O              6.00    15.99940     O ( 1.00)

     16 Sym. Ops., with inversion, found (14 have fractional translation)

   Cartesian axes

     site n.     atom                  positions (alat units)
         1           W   tau(   1) = (   0.2500000   0.2500000   0.3184535  )
         2           W   tau(   2) = (   0.7500000   0.7500000   1.1599476  )
         3           W   tau(   3) = (   0.7500000   0.7500000   0.4207470  )
         4           W   tau(   4) = (   0.2500000   0.2500000   1.0576540  )
         5           O   tau(   5) = (   0.2500000   0.2500000   0.7192869  )
         6           O   tau(   6) = (   0.7500000   0.7500000   0.7591142  )
         7           O   tau(   7) = (   0.7500000   0.7500000   0.0199137  )
         8           O   tau(   8) = (   0.2500000   0.2500000   1.4584874  )
         9           O   tau(   9) = (   0.4634533   0.5365467   0.3696003  )
        10           O   tau(  10) = (   0.5365467   0.4634533   1.1088008  )
        11           O   tau(  11) = (   0.0365467   0.9634533   0.3696003  )
        12           O   tau(  12) = (   0.9634532   0.0365467   1.1088008  )
        13           O   tau(  13) = (   0.9634533   0.4634533   0.3696003  )
        14           O   tau(  14) = (   0.0365467   0.5365467   1.1088008  )
        15           O   tau(  15) = (   0.5365467   0.0365467   0.3696003  )
        16           O   tau(  16) = (   0.4634533   0.9634532   1.1088008  )

     number of k points=    40  gaussian smearing, width (Ry)=  0.0007
                       cart. coord. in units 2pi/alat
        k(    1) = (   0.0000000   0.0000000   0.0000000), wk =   0.0092593
        k(    2) = (   0.0000000   0.0000000   0.1127344), wk =   0.0185185
        k(    3) = (   0.0000000   0.0000000   0.2254688), wk =   0.0185185
        k(    4) = (   0.0000000   0.0000000  -0.3382032), wk =   0.0092593
        k(    5) = (   0.0000000   0.1666667   0.0000000), wk =   0.0370370
        k(    6) = (   0.0000000   0.1666667   0.1127344), wk =   0.0740741
        k(    7) = (   0.0000000   0.1666667   0.2254688), wk =   0.0740741
        k(    8) = (   0.0000000   0.1666667  -0.3382032), wk =   0.0370370
        k(    9) = (   0.0000000   0.3333333   0.0000000), wk =   0.0370370
        k(   10) = (   0.0000000   0.3333333   0.1127344), wk =   0.0740741
        k(   11) = (   0.0000000   0.3333333   0.2254688), wk =   0.0740741
        k(   12) = (   0.0000000   0.3333333  -0.3382032), wk =   0.0370370
        k(   13) = (   0.0000000  -0.5000000   0.0000000), wk =   0.0185185
        k(   14) = (   0.0000000  -0.5000000   0.1127344), wk =   0.0370370
        k(   15) = (   0.0000000  -0.5000000   0.2254688), wk =   0.0370370
        k(   16) = (   0.0000000  -0.5000000  -0.3382032), wk =   0.0185185
        k(   17) = (   0.1666667   0.1666667   0.0000000), wk =   0.0370370
        k(   18) = (   0.1666667   0.1666667   0.1127344), wk =   0.0740741
        k(   19) = (   0.1666667   0.1666667   0.2254688), wk =   0.0740741
        k(   20) = (   0.1666667   0.1666667  -0.3382032), wk =   0.0370370
        k(   21) = (   0.1666667   0.3333333   0.0000000), wk =   0.0740741
        k(   22) = (   0.1666667   0.3333333   0.1127344), wk =   0.1481481
        k(   23) = (   0.1666667   0.3333333   0.2254688), wk =   0.1481481
        k(   24) = (   0.1666667   0.3333333  -0.3382032), wk =   0.0740741
        k(   25) = (   0.1666667  -0.5000000   0.0000000), wk =   0.0370370
        k(   26) = (   0.1666667  -0.5000000   0.1127344), wk =   0.0740741
        k(   27) = (   0.1666667  -0.5000000   0.2254688), wk =   0.0740741
        k(   28) = (   0.1666667  -0.5000000  -0.3382032), wk =   0.0370370
        k(   29) = (   0.3333333   0.3333333   0.0000000), wk =   0.0370370
        k(   30) = (   0.3333333   0.3333333   0.1127344), wk =   0.0740741
        k(   31) = (   0.3333333   0.3333333   0.2254688), wk =   0.0740741
        k(   32) = (   0.3333333   0.3333333  -0.3382032), wk =   0.0370370
        k(   33) = (   0.3333333  -0.5000000   0.0000000), wk =   0.0370370
        k(   34) = (   0.3333333  -0.5000000   0.1127344), wk =   0.0740741
        k(   35) = (   0.3333333  -0.5000000   0.2254688), wk =   0.0740741
        k(   36) = (   0.3333333  -0.5000000  -0.3382032), wk =   0.0370370
        k(   37) = (  -0.5000000  -0.5000000   0.0000000), wk =   0.0092593
        k(   38) = (  -0.5000000  -0.5000000   0.1127344), wk =   0.0185185
        k(   39) = (  -0.5000000  -0.5000000   0.2254688), wk =   0.0185185
        k(   40) = (  -0.5000000  -0.5000000  -0.3382032), wk =   0.0092593

     Initial potential from superposition of free atoms

     starting charge  183.99828, renormalised to  184.10000
     Starting wfcs are  116 randomized atomic wfcs

     Self-consistent Calculation

     iteration #  1     ecut=   120.00 Ry     beta= 0.70
     Davidson diagonalization with overlap
     ethr =  1.00E-02,  avg # of iterations =  4.2

     total energy              =   -3126.87097977 Ry
     Harris-Foulkes estimate   =   -3132.25010742 Ry
     estimated scf accuracy    <       6.79844099 Ry

[...]

     total energy              =   -3130.48372156 Ry
     Harris-Foulkes estimate   =   -3130.48372159 Ry
     estimated scf accuracy    <       0.00000005 Ry

     iteration # 12     ecut=   120.00 Ry     beta= 0.70
     Davidson diagonalization with overlap
     ethr =  2.98E-11,  avg # of iterations =  2.0

     End of self-consistent calculation

          k = 0.0000 0.0000 0.0000 ( 31455 PWs)   bands (ev):

   -66.2964 -66.2960 -66.2947 -66.2943 -30.6893 -30.6837 -30.6326 -30.6326
   -30.6291 -30.6291 -30.6260 -30.6216 -30.5445 -30.5445 -30.5416 -30.5416
   -20.4544 -20.4543 -20.4543 -20.4542 -20.4405 -20.4402 -20.4346 -20.4343
   -20.4319 -20.4319 -20.4315 -20.4315 -20.4302 -20.4302 -20.4296 -20.4296
   -20.4270 -20.4269 -20.4265 -20.4264 -20.4237 -20.4237 -20.4237 -20.4237
   -20.4175 -20.4175 -20.4172 -20.4172 -10.0918  -9.7766  -9.2658  -9.1558
    -9.1390  -9.0155  -7.9772  -7.8660  -7.7992  -7.7992  -7.7765  -7.7765
     1.0151   1.0153   1.1615   1.4127   1.4160   1.5985   2.3342   2.4227
     2.5149   2.5149   4.0064   4.0064   4.8046   4.8046   4.9244   5.4305
     5.4305   5.4382   5.4382   5.6905   5.6905   5.8282   5.8529   6.6064
     6.6064   6.7480   6.9509   6.9536   7.1677   7.1677   7.1960   7.1960
     7.9498   7.9570   8.0150   8.0150   8.9921   8.9935   9.7396   9.7396
    12.2411  12.2411  13.0646  13.0657  13.2580  13.2580  13.5738  14.0645
    14.0645  14.6791  14.9098  14.9172  15.3969  16.5636

[...]

          k = 0.3333-0.5000-0.3382 ( 31472 PWs)   bands (ev):

[...]

          k =-0.5000-0.5000 0.0000 ( 31456 PWs)   bands (ev):

[...]

          k =-0.5000-0.5000-0.3382 ( 31488 PWs)   bands (ev):

   -66.2954 -66.2954 -66.2953 -66.2953 -30.6552 -30.6552 -30.6552 -30.6552
   -30.6358 -30.6358 -30.6358 -30.6358 -30.5388 -30.5388 -30.5388 -30.5388
   -20.4543 -20.4543 -20.4543 -20.4543 -20.4375 -20.4375 -20.4375 -20.4374
   -20.4317 -20.4317 -20.4317 -20.4317 -20.4300 -20.4300 -20.4300 -20.4300
   -20.4268 -20.4267 -20.4267 -20.4267 -20.4245 -20.4245 -20.4245 -20.4245
   -20.4165 -20.4165 -20.4165 -20.4165  -9.4781  -9.4781  -9.4781  -9.4781
    -8.5908  -8.5908  -8.5908  -8.5908  -7.8846  -7.8846  -7.8846  -7.8846
     1.1373   1.1373   1.1373   1.1373   3.0352   3.0352   3.0352   3.0352
     3.2817   3.2817   3.2817   3.2817   4.6375   4.6375   4.6375   4.6375
     5.1938   5.1938   5.1938   5.1938   5.9010   5.9010   5.9010   5.9010
     6.0632   6.0632   6.0632   6.0632   6.5970   6.5970   6.5970   6.5970
     7.3516   7.3516   7.3516   7.3516  11.1568  11.1568  11.1568  11.1568
    12.2699  12.2699  12.2699  12.2699  13.4819  13.4819  13.4819  13.4819
    15.3061  15.3061  15.3061  15.3061  18.0387  18.0387

     the Fermi energy is     9.0019 ev

!    total energy              =   -3130.48372156 Ry
     Harris-Foulkes estimate   =   -3130.48372157 Ry
     estimated scf accuracy    <          4.0E-09 Ry

     The total energy is the sum of the following terms:

     one-electron contribution =   -2382.00200899 Ry
     hartree contribution      =    1308.57458712 Ry
     xc contribution           =    -482.95285164 Ry
     ewald contribution        =   -1574.10343795 Ry
     smearing contrib. (-TS)   =      -0.00001011 Ry

     convergence has been achieved in  12 iterations

     Writing output data file Landau_8.save/

     General routines

     Parallel routines

   This run was terminated on:  23: 2:54  19Nov2019

   JOB DONE.