     Program PWSCF v.6.2 (svn rev. 14038) starts on 25Mar2020 at  0:27:14

     K-points division:     npool     =      40
     Reading input from scf.in

     Current dimensions of program PWSCF are:
     Max number of different atomic species (ntypx) = 10
     Max number of k-points (npk) =  40000
     Max angular momentum in pseudopotentials (lmaxx) =  3

     Subspace diagonalization in iterative solution of the eigenvalue problem:
     a serial algorithm will be used

     bravais-lattice index     =            0
     lattice parameter (alat)  =      14.0745  a.u.
     unit-cell volume          =    2823.3471 (a.u.)^3
     number of atoms/cell      =           32
     number of atomic types    =            2
     number of electrons       =       368.20
     number of Kohn-Sham states=          221
     kinetic-energy cutoff     =     120.0000  Ry
     charge density cutoff     =     480.0000  Ry
     convergence threshold     =      1.0E-08
     mixing beta               =       0.7000
     number of iterations used =            8  plain     mixing
     Exchange-correlation      = SLA PW NOGX NOGC ( 1  4  0  0 0 0)

     celldm(1)=  14.074456  celldm(2)=   0.000000  celldm(3)=   0.000000
     celldm(4)=   0.000000  celldm(5)=   0.000000  celldm(6)=   0.000000

     crystal axes: (cart. coord. in units of alat)
               a(1) = (   1.000000   0.000000   0.000000 )
               a(2) = (   0.000000   1.008964   0.000000 )
               a(3) = (   0.000000   0.000000   1.003677 )

     reciprocal axes: (cart. coord. in units 2 pi/alat)
               b(1) = (  1.000000  0.000000  0.000000 )
               b(2) = (  0.000000  0.991116  0.000000 )
               b(3) = (  0.000000  0.000000  0.996337 )

     PseudoPot. # 1 for W  read from file:
     /cluster/scratch/mnoe/QE/pps/W_ONCV_LDA-4.0.upf
     MD5 check sum: ba0307d5d4cd419d6f1d13dc49d7c13a
     Pseudo is Norm-conserving + core correction, Zval = 28.0
     Generated using ONCVPSP code by D. R. Hamann
     Using radial grid of 1380 points,  8 beta functions with:
                l(1) =   0
                l(2) =   0
                l(3) =   1
                l(4) =   1
                l(5) =   2
                l(6) =   2
                l(7) =   3
                l(8) =   3

     PseudoPot. # 2 for O  read from file:
     /cluster/scratch/mnoe/QE/pps/O_ONCV_LDA-3.0.upf
     MD5 check sum: a1bd6164e7280c17a38c229939bfbd54
     Pseudo is Norm-conserving + core correction, Zval =  6.0
     Generated using ONCVPSP code by D. R. Hamann
     Using radial grid of  926 points,  5 beta functions with:
                l(1) =   0
                l(2) =   0
                l(3) =   1
                l(4) =   1
                l(5) =   2

     atomic species   valence    mass     pseudopotential
        W             28.00   183.84000     W ( 1.00)
        O              6.00    15.99940     O ( 1.00)

      4 Sym. Ops. (no inversion) found ( 3 have fractional translation)

   Cartesian axes

     site n.     atom                  positions (alat units)
         1           W   tau(   1) = (   0.2254974   0.2754952   0.0074347  )
         2           W   tau(   2) = (   0.7587973   0.7334686  -0.0241269  )
         3           W   tau(   3) = (   0.2745026   0.2289867   0.5092729  )
         4           W   tau(   4) = (   0.7412026   0.7799771   0.4777113  )
         5           W   tau(   5) = (   0.7745025   0.2754952   0.4944036  )
         6           W   tau(   6) = (   0.2412026   0.7334686   0.5259652  )
         7           W   tau(   7) = (   0.7254974   0.2289867  -0.0074346  )
         8           W   tau(   8) = (   0.2587974   0.7799771   0.0241269  )
         9           O   tau(   9) = (   0.2168423   0.0059723  -0.0104925  )
        10           O   tau(  10) = (   0.7782762  -0.0059723  -0.0203025  )
        11           O   tau(  11) = (   0.2831577   0.4985096   0.4913457  )
        12           O   tau(  12) = (   0.7217237   0.5104543   0.4815358  )
        13           O   tau(  13) = (   0.7831577   0.0059723   0.5123308  )
        14           O   tau(  14) = (   0.2217237  -0.0059723   0.5221407  )
        15           O   tau(  15) = (   0.7168422   0.4985096   0.0104925  )
        16           O   tau(  16) = (   0.2782763   0.5104543   0.0203025  )
        17           O   tau(  17) = (   0.5080016   0.2169846   0.4728200  )
        18           O   tau(  18) = (   0.4988936   0.7850495   0.5308567  )
        19           O   tau(  19) = (  -0.0080016   0.2874973   0.9746583  )
        20           O   tau(  20) = (   0.0011064   0.7283964   0.0290182  )
        21           O   tau(  21) = (   0.4919984   0.2169846   0.0290182  )
        22           O   tau(  22) = (   0.5011064   0.7850495   0.9746583  )
        23           O   tau(  23) = (   0.0080015   0.2874973   0.5308567  )
        24           O   tau(  24) = (  -0.0011065   0.7283964   0.4728200  )
        25           O   tau(  25) = (   0.7210880   0.2611810   0.7481118  )
        26           O   tau(  26) = (   0.2789120   0.7795383   0.2601303  )
        27           O   tau(  27) = (   0.7789121   0.2433009   0.2462736  )
        28           O   tau(  28) = (   0.2210880   0.7339076   0.7619685  )
        29           O   tau(  29) = (   0.2789120   0.2611810   0.7574030  )
        30           O   tau(  30) = (   0.7210880   0.7795383   0.2417080  )
        31           O   tau(  31) = (   0.2210880   0.2433009   0.2555647  )
        32           O   tau(  32) = (   0.7789121   0.7339076   0.7435462  )

     number of k points=    64  gaussian smearing, width (Ry)=  0.0007
                       cart. coord. in units 2pi/alat
        k(    1) = (   0.0000000   0.0000000   0.0000000), wk =   0.0092593
        k(    2) = (   0.0000000   0.0000000   0.1660562), wk =   0.0185185
        k(    3) = (   0.0000000   0.0000000   0.3321123), wk =   0.0185185
        k(    4) = (   0.0000000   0.0000000  -0.4981685), wk =   0.0092593
        k(    5) = (   0.0000000   0.1651860   0.0000000), wk =   0.0185185
        k(    6) = (   0.0000000   0.1651860   0.1660562), wk =   0.0370370
        k(    7) = (   0.0000000   0.1651860   0.3321123), wk =   0.0370370
        k(    8) = (   0.0000000   0.1651860  -0.4981685), wk =   0.0185185
        k(    9) = (   0.0000000   0.3303719   0.0000000), wk =   0.0185185
        k(   10) = (   0.0000000   0.3303719   0.1660562), wk =   0.0370370
        k(   11) = (   0.0000000   0.3303719   0.3321123), wk =   0.0370370
        k(   12) = (   0.0000000   0.3303719  -0.4981685), wk =   0.0185185
        k(   13) = (   0.0000000  -0.4955579   0.0000000), wk =   0.0092593
        k(   14) = (   0.0000000  -0.4955579   0.1660562), wk =   0.0185185
        k(   15) = (   0.0000000  -0.4955579   0.3321123), wk =   0.0185185
        k(   16) = (   0.0000000  -0.4955579  -0.4981685), wk =   0.0092593
        k(   17) = (   0.1666667   0.0000000   0.0000000), wk =   0.0185185
        k(   18) = (   0.1666667   0.0000000   0.1660562), wk =   0.0370370
        k(   19) = (   0.1666667   0.0000000   0.3321123), wk =   0.0370370
        k(   20) = (   0.1666667   0.0000000  -0.4981685), wk =   0.0185185
        k(   21) = (   0.1666667   0.1651860   0.0000000), wk =   0.0370370
        k(   22) = (   0.1666667   0.1651860   0.1660562), wk =   0.0740741
        k(   23) = (   0.1666667   0.1651860   0.3321123), wk =   0.0740741
        k(   24) = (   0.1666667   0.1651860  -0.4981685), wk =   0.0370370
        k(   25) = (   0.1666667   0.3303719   0.0000000), wk =   0.0370370
        k(   26) = (   0.1666667   0.3303719   0.1660562), wk =   0.0740741
        k(   27) = (   0.1666667   0.3303719   0.3321123), wk =   0.0740741
        k(   28) = (   0.1666667   0.3303719  -0.4981685), wk =   0.0370370
        k(   29) = (   0.1666667  -0.4955579   0.0000000), wk =   0.0185185
        k(   30) = (   0.1666667  -0.4955579   0.1660562), wk =   0.0370370
        k(   31) = (   0.1666667  -0.4955579   0.3321123), wk =   0.0370370
        k(   32) = (   0.1666667  -0.4955579  -0.4981685), wk =   0.0185185
        k(   33) = (   0.3333333   0.0000000   0.0000000), wk =   0.0185185
        k(   34) = (   0.3333333   0.0000000   0.1660562), wk =   0.0370370
        k(   35) = (   0.3333333   0.0000000   0.3321123), wk =   0.0370370
        k(   36) = (   0.3333333   0.0000000  -0.4981685), wk =   0.0185185
        k(   37) = (   0.3333333   0.1651860   0.0000000), wk =   0.0370370
        k(   38) = (   0.3333333   0.1651860   0.1660562), wk =   0.0740741
        k(   39) = (   0.3333333   0.1651860   0.3321123), wk =   0.0740741
        k(   40) = (   0.3333333   0.1651860  -0.4981685), wk =   0.0370370
        k(   41) = (   0.3333333   0.3303719   0.0000000), wk =   0.0370370
        k(   42) = (   0.3333333   0.3303719   0.1660562), wk =   0.0740741
        k(   43) = (   0.3333333   0.3303719   0.3321123), wk =   0.0740741
        k(   44) = (   0.3333333   0.3303719  -0.4981685), wk =   0.0370370
        k(   45) = (   0.3333333  -0.4955579   0.0000000), wk =   0.0185185
        k(   46) = (   0.3333333  -0.4955579   0.1660562), wk =   0.0370370
        k(   47) = (   0.3333333  -0.4955579   0.3321123), wk =   0.0370370
        k(   48) = (   0.3333333  -0.4955579  -0.4981685), wk =   0.0185185
        k(   49) = (  -0.5000000   0.0000000   0.0000000), wk =   0.0092593
        k(   50) = (  -0.5000000   0.0000000   0.1660562), wk =   0.0185185
        k(   51) = (  -0.5000000   0.0000000   0.3321123), wk =   0.0185185
        k(   52) = (  -0.5000000   0.0000000  -0.4981685), wk =   0.0092593
        k(   53) = (  -0.5000000   0.1651860   0.0000000), wk =   0.0185185
        k(   54) = (  -0.5000000   0.1651860   0.1660562), wk =   0.0370370
        k(   55) = (  -0.5000000   0.1651860   0.3321123), wk =   0.0370370
        k(   56) = (  -0.5000000   0.1651860  -0.4981685), wk =   0.0185185
        k(   57) = (  -0.5000000   0.3303719   0.0000000), wk =   0.0185185
        k(   58) = (  -0.5000000   0.3303719   0.1660562), wk =   0.0370370
        k(   59) = (  -0.5000000   0.3303719   0.3321123), wk =   0.0370370
        k(   60) = (  -0.5000000   0.3303719  -0.4981685), wk =   0.0185185
        k(   61) = (  -0.5000000  -0.4955579   0.0000000), wk =   0.0092593
        k(   62) = (  -0.5000000  -0.4955579   0.1660562), wk =   0.0185185
        k(   63) = (  -0.5000000  -0.4955579   0.3321123), wk =   0.0185185
        k(   64) = (  -0.5000000  -0.4955579  -0.4981685), wk =   0.0092593

     Initial potential from superposition of free atoms

     starting charge  367.99656, renormalised to  368.20000
     Starting wfc are  232 randomized atomic wfcs

     Self-consistent Calculation

     iteration #  1     ecut=   120.00 Ry     beta= 0.70
     Davidson diagonalization with overlap
     ethr =  1.00E-02,  avg # of iterations =  5.2

     total energy              =   -6253.80703814 Ry
     Harris-Foulkes estimate   =   -6264.47153799 Ry
     estimated scf accuracy    <      13.48299211 Ry

[...]

     total energy              =   -6260.95838999 Ry
     Harris-Foulkes estimate   =   -6260.95839000 Ry
     estimated scf accuracy    <       0.00000002 Ry

     iteration # 14     ecut=   120.00 Ry     beta= 0.70
     Davidson diagonalization with overlap
     ethr =  4.09E-12,  avg # of iterations =  2.8

     End of self-consistent calculation

          k = 0.0000 0.0000 0.0000 ( 62681 PWs)   bands (ev):

   -66.2398 -66.2391 -66.2390 -66.2383 -66.2306 -66.2299 -66.2299 -66.2291
   -30.6682 -30.6631 -30.6630 -30.6599 -30.6013 -30.5998 -30.5996 -30.5928
   -30.5777 -30.5768 -30.5693 -30.5612 -30.5489 -30.5422 -30.5383 -30.5376
   -30.5081 -30.5065 -30.5044 -30.5038 -30.4684 -30.4631 -30.4564 -30.4527
   -20.3994 -20.3992 -20.3991 -20.3989 -20.3896 -20.3894 -20.3888 -20.3887
   -20.3826 -20.3822 -20.3819 -20.3815 -20.3756 -20.3753 -20.3705 -20.3700
   -20.3699 -20.3695 -20.3694 -20.3690 -20.3689 -20.3688 -20.3683 -20.3680
   -20.3677 -20.3674 -20.3674 -20.3670 -20.3667 -20.3666 -20.3657 -20.3650
   -20.3622 -20.3613 -20.3608 -20.3598 -20.3578 -20.3569 -20.3562 -20.3559
   -20.3557 -20.3549 -20.3548 -20.3545 -20.3534 -20.3533 -20.3530 -20.3526
   -20.3521 -20.3517 -20.3485 -20.3482 -20.3431 -20.3420 -20.3414 -20.3403
   -10.0277  -9.6938  -9.6632  -9.6568  -9.3059  -9.2859  -9.2555  -9.0856
    -9.0270  -8.9754  -8.9695  -8.9521  -8.0095  -7.9623  -7.9152  -7.9059
    -7.8338  -7.7872  -7.7745  -7.7507  -7.7412  -7.7341  -7.6852  -7.6796
     1.1045   1.1514   1.1524   1.1887   1.2461   1.2831   1.3346   1.3451
     1.4713   1.4966   1.5343   1.7347   2.3875   2.4153   2.5032   2.5349
     2.5507   2.6180   4.1870   4.2536   4.3941   4.4528   4.4889   4.5083
     4.5521   4.5822   4.5926   4.6806   4.8081   4.8660   5.2082   5.2727
     5.3231   5.3869   5.4413   5.5474   5.5550   5.5593   5.5905   5.6163
     5.6314   5.6902   5.8089   5.8972   5.9033   5.9034   5.9583   5.9910
     6.0706   6.2617   6.2659   6.3132   6.4686   6.5150   6.7874   6.8147
     6.8600   6.8971   6.9213   6.9261   6.9912   6.9991   7.0080   7.0100
     7.1371   7.1814   7.8856   7.8939   7.9700   7.9820   8.0676   8.1064
     9.5143   9.5750   9.6842   9.7122   9.7339   9.7886  12.1901  12.2867
    12.3249  12.4076  12.4297  12.5753  12.6215  12.7055  12.7260  12.7585
    12.9183  12.9441  13.1585  13.4214  13.4264  13.6158  13.7821  13.9638
    14.6047  14.6170  14.7014  14.8288  14.9100  15.0441  15.6900  15.7696
    15.8123  16.7826  16.8569  16.9635  17.2180

[...]

          k = 0.3333-0.4956-0.4982 ( 62640 PWs)   bands (ev):

[...]

          k =-0.5000 0.0000 0.0000 ( 62606 PWs)   bands (ev):

[...]

          k =-0.5000-0.4956-0.4982 ( 62680 PWs)   bands (ev):

   -66.2390 -66.2390 -66.2390 -66.2390 -66.2299 -66.2299 -66.2299 -66.2299
   -30.6248 -30.6248 -30.6243 -30.6243 -30.6214 -30.6214 -30.6213 -30.6213
   -30.5537 -30.5536 -30.5536 -30.5536 -30.5437 -30.5437 -30.5433 -30.5432
   -30.5048 -30.5047 -30.5043 -30.5043 -30.4950 -30.4950 -30.4945 -30.4944
   -20.3992 -20.3991 -20.3991 -20.3991 -20.3892 -20.3891 -20.3891 -20.3891
   -20.3821 -20.3821 -20.3820 -20.3820 -20.3726 -20.3726 -20.3725 -20.3725
   -20.3691 -20.3691 -20.3690 -20.3690 -20.3685 -20.3685 -20.3684 -20.3684
   -20.3672 -20.3672 -20.3671 -20.3671 -20.3660 -20.3660 -20.3659 -20.3659
   -20.3592 -20.3592 -20.3592 -20.3592 -20.3591 -20.3591 -20.3590 -20.3590
   -20.3547 -20.3546 -20.3546 -20.3546 -20.3535 -20.3535 -20.3534 -20.3534
   -20.3510 -20.3510 -20.3508 -20.3508 -20.3419 -20.3419 -20.3419 -20.3419
    -9.0669  -9.0668  -9.0362  -9.0361  -9.0265  -9.0265  -9.0259  -9.0258
    -8.5639  -8.5638  -8.5216  -8.5216  -8.4975  -8.4974  -8.4801  -8.4800
    -8.4192  -8.4192  -8.3969  -8.3969  -8.3906  -8.3906  -8.3667  -8.3667
     2.7994   2.7994   2.8272   2.8272   2.8693   2.8693   2.8832   2.8832
     3.0160   3.0160   3.0673   3.0673   3.1160   3.1160   3.1577   3.1577
     3.2518   3.2518   3.3113   3.3114   3.4401   3.4401   3.4450   3.4451
     4.0049   4.0049   4.0645   4.0645   4.0810   4.0810   4.0922   4.0922
     4.1728   4.1728   4.2244   4.2244   4.2652   4.2652   4.2797   4.2797
     4.3645   4.3645   4.3803   4.3803   4.4390   4.4390   4.4752   4.4752
     7.0105   7.0105   7.0590   7.0590   7.1148   7.1148   7.1756   7.1756
     7.2108   7.2108   7.2281   7.2282   7.3106   7.3107   7.3554   7.3554
     7.4805   7.4805   7.4808   7.4808   7.5129   7.5129   7.5527   7.5527
    11.7725  11.7725  11.8028  11.8028  11.8593  11.8593  11.8686  11.8686
    12.0309  12.0310  12.0585  12.0585  12.1558  12.1558  12.2152  12.2152
    12.2607  12.2607  12.3258  12.3258  12.4039  12.4039  12.4187  12.4187
    16.9590  16.9591  17.0223  17.0224  17.0329  17.0329  17.1464  17.1464
    17.4380  17.4380  17.4715  17.4890  17.4892

     the Fermi energy is     9.6871 ev

!    total energy              =   -6260.95839000 Ry
     Harris-Foulkes estimate   =   -6260.95839000 Ry
     estimated scf accuracy    <          4.8E-09 Ry

     The total energy is the sum of the following terms:

     one-electron contribution =   -4741.26279323 Ry
     hartree contribution      =    2606.49809587 Ry
     xc contribution           =    -965.88243845 Ry
     ewald contribution        =   -3160.31123571 Ry
     smearing contrib. (-TS)   =      -0.00001847 Ry

     convergence has been achieved in  14 iterations

     Writing output data file Landau_18.save

     General routines

     Parallel routines

   This run was terminated on:   1: 2: 9  25Mar2020

   JOB DONE.