     Program PWSCF v.6.2 (svn rev. 14038) starts on 10Sep2019 at 14:56: 8

     K-points division:     npool     =      40
     Reading input from scf.in

     Current dimensions of program PWSCF are:
     Max number of different atomic species (ntypx) = 10
     Max number of k-points (npk) =  40000
     Max angular momentum in pseudopotentials (lmaxx) =  3

     Subspace diagonalization in iterative solution of the eigenvalue problem:
     a serial algorithm will be used

     bravais-lattice index     =            0
     lattice parameter (alat)  =      13.9104  a.u.
     unit-cell volume          =    2732.2478 (a.u.)^3
     number of atoms/cell      =           32
     number of atomic types    =            2
     number of electrons       =       368.05
     number of Kohn-Sham states=          221
     kinetic-energy cutoff     =     120.0000  Ry
     charge density cutoff     =     480.0000  Ry
     convergence threshold     =      1.0E-08
     mixing beta               =       0.7000
     number of iterations used =            8  plain     mixing
     Exchange-correlation      = SLA PW NOGX NOGC ( 1  4  0  0 0 0)

     celldm(1)=  13.910375  celldm(2)=   0.000000  celldm(3)=   0.000000
     celldm(4)=   0.000000  celldm(5)=   0.000000  celldm(6)=   0.000000

     crystal axes: (cart. coord. in units of alat)
               a(1) = (   1.000000   0.000000   0.000000 )
               a(2) = (   0.000000   1.015088   0.000000 )
               a(3) = (   0.000000   0.000000   1.000000 )

     reciprocal axes: (cart. coord. in units 2 pi/alat)
               b(1) = (  1.000000  0.000000  0.000000 )
               b(2) = (  0.000000  0.985137  0.000000 )
               b(3) = (  0.000000  0.000000  1.000000 )

     PseudoPot. # 1 for W  read from file:
     /cluster/scratch/mnoe/QE/pps/W_ONCV_LDA-4.0.upf
     MD5 check sum: ba0307d5d4cd419d6f1d13dc49d7c13a
     Pseudo is Norm-conserving + core correction, Zval = 28.0
     Generated using ONCVPSP code by D. R. Hamann
     Using radial grid of 1380 points,  8 beta functions with:
                l(1) =   0
                l(2) =   0
                l(3) =   1
                l(4) =   1
                l(5) =   2
                l(6) =   2
                l(7) =   3
                l(8) =   3

     PseudoPot. # 2 for O  read from file:
     /cluster/scratch/mnoe/QE/pps/O_ONCV_LDA-3.0.upf
     MD5 check sum: ca1549d10c4e927e51167f6fca52ae32
     Pseudo is Norm-conserving + core correction, Zval =  6.0
     Generated using ONCVPSP code by D. R. Hamann
     Using radial grid of  926 points,  5 beta functions with:
                l(1) =   0
                l(2) =   0
                l(3) =   1
                l(4) =   1
                l(5) =   2

     atomic species   valence    mass     pseudopotential
        W             28.00   183.84000     W ( 1.00)
        O              6.00    15.99940     O ( 1.00)

      8 Sym. Ops. (no inversion) found ( 4 have fractional translation)

   Cartesian axes

     site n.     atom                  positions (alat units)
         1           W   tau(   1) = (   0.2850800   0.2861126   0.2510000  )
         2           W   tau(   2) = (  -0.2510000   0.7289750  -0.7149199  )
         3           W   tau(   3) = (   0.2149200   0.2214312   0.7510000  )
         4           W   tau(   4) = (   0.7510000   0.7936564   0.7850800  )
         5           W   tau(   5) = (   0.7149200   0.2861126   0.7490000  )
         6           W   tau(   6) = (   0.2510000   0.7289750   0.7149200  )
         7           W   tau(   7) = (  -0.2149199   0.2214312  -0.7510000  )
         8           W   tau(   8) = (   0.2490000   0.7936564   0.2149200  )
         9           O   tau(   9) = (   0.2885700   0.0084455   0.2779700  )
        10           O   tau(  10) = (  -0.2779701   1.0066421  -0.7114300  )
        11           O   tau(  11) = (   0.2114300   0.4990983   0.7779700  )
        12           O   tau(  12) = (   0.7779700   0.5159893   0.7885700  )
        13           O   tau(  13) = (   0.7114300   0.0084455   0.7220300  )
        14           O   tau(  14) = (   0.2779700   1.0066421   0.7114300  )
        15           O   tau(  15) = (  -0.2114300   0.4990983  -0.7779701  )
        16           O   tau(  16) = (   0.2220300   0.5159893   0.2114300  )
        17           O   tau(  17) = (   0.4875899   0.2959793   0.6995400  )
        18           O   tau(  18) = (   0.4974500   0.7342331   0.8004600  )
        19           O   tau(  19) = (  -0.9875900   0.2115646   1.1995400  )
        20           O   tau(  20) = (   0.0025500   0.7883982   0.3004600  )
        21           O   tau(  21) = (   0.5124101   0.2959793   0.3004600  )
        22           O   tau(  22) = (   0.5025500   0.7342331   1.1995400  )
        23           O   tau(  23) = (  -0.0124100   0.2115646   0.8004600  )
        24           O   tau(  24) = (  -1.0025500   0.7883982   0.6995400  )
        25           O   tau(  25) = (   0.6995400   0.2266894   2.0025500  )
        26           O   tau(  26) = (   0.3004600   0.7191084   0.4875900  )
        27           O   tau(  27) = (   0.8004600   0.2808545   0.5025500  )
        28           O   tau(  28) = (   0.1995400   0.8035230   1.9875899  )
        29           O   tau(  29) = (   0.3004600   0.2266894   0.9974500  )
        30           O   tau(  30) = (   0.6995400   0.7191084   0.5124100  )
        31           O   tau(  31) = (   0.1995400   0.2808545   0.4974500  )
        32           O   tau(  32) = (   0.8004600   0.8035230   1.0124101  )

     number of k points=    40  gaussian smearing, width (Ry)=  0.0007
                       cart. coord. in units 2pi/alat
        k(    1) = (   0.0000000   0.0000000   0.0000000), wk =   0.0092593
        k(    2) = (   0.0000000   0.0000000   0.1666667), wk =   0.0370370
        k(    3) = (   0.0000000   0.0000000   0.3333333), wk =   0.0370370
        k(    4) = (   0.0000000   0.0000000  -0.5000000), wk =   0.0185185
        k(    5) = (   0.0000000   0.1641894   0.0000000), wk =   0.0185185
        k(    6) = (   0.0000000   0.1641894   0.1666667), wk =   0.0740741
        k(    7) = (   0.0000000   0.1641894   0.3333333), wk =   0.0740741
        k(    8) = (   0.0000000   0.1641894  -0.5000000), wk =   0.0370370
        k(    9) = (   0.0000000   0.3283789   0.0000000), wk =   0.0185185
        k(   10) = (   0.0000000   0.3283789   0.1666667), wk =   0.0740741
        k(   11) = (   0.0000000   0.3283789   0.3333333), wk =   0.0740741
        k(   12) = (   0.0000000   0.3283789  -0.5000000), wk =   0.0370370
        k(   13) = (   0.0000000  -0.4925683   0.0000000), wk =   0.0092593
        k(   14) = (   0.0000000  -0.4925683   0.1666667), wk =   0.0370370
        k(   15) = (   0.0000000  -0.4925683   0.3333333), wk =   0.0370370
        k(   16) = (   0.0000000  -0.4925683  -0.5000000), wk =   0.0185185
        k(   17) = (   0.1666667   0.0000000   0.1666667), wk =   0.0370370
        k(   18) = (   0.1666667   0.0000000   0.3333333), wk =   0.0740741
        k(   19) = (   0.1666667   0.0000000  -0.5000000), wk =   0.0370370
        k(   20) = (   0.1666667   0.1641894   0.1666667), wk =   0.0740741
        k(   21) = (   0.1666667   0.1641894   0.3333333), wk =   0.1481481
        k(   22) = (   0.1666667   0.1641894  -0.5000000), wk =   0.0740741
        k(   23) = (   0.1666667   0.3283789   0.1666667), wk =   0.0740741
        k(   24) = (   0.1666667   0.3283789   0.3333333), wk =   0.1481481
        k(   25) = (   0.1666667   0.3283789  -0.5000000), wk =   0.0740741
        k(   26) = (   0.1666667  -0.4925683   0.1666667), wk =   0.0370370
        k(   27) = (   0.1666667  -0.4925683   0.3333333), wk =   0.0740741
        k(   28) = (   0.1666667  -0.4925683  -0.5000000), wk =   0.0370370
        k(   29) = (   0.3333333   0.0000000   0.3333333), wk =   0.0370370
        k(   30) = (   0.3333333   0.0000000  -0.5000000), wk =   0.0370370
        k(   31) = (   0.3333333   0.1641894   0.3333333), wk =   0.0740741
        k(   32) = (   0.3333333   0.1641894  -0.5000000), wk =   0.0740741
        k(   33) = (   0.3333333   0.3283789   0.3333333), wk =   0.0740741
        k(   34) = (   0.3333333   0.3283789  -0.5000000), wk =   0.0740741
        k(   35) = (   0.3333333  -0.4925683   0.3333333), wk =   0.0370370
        k(   36) = (   0.3333333  -0.4925683  -0.5000000), wk =   0.0370370
        k(   37) = (  -0.5000000   0.0000000  -0.5000000), wk =   0.0092593
        k(   38) = (  -0.5000000   0.1641894  -0.5000000), wk =   0.0185185
        k(   39) = (  -0.5000000   0.3283789  -0.5000000), wk =   0.0185185
        k(   40) = (  -0.5000000  -0.4925683  -0.5000000), wk =   0.0092593

     Initial potential from superposition of free atoms

     starting charge  367.99656, renormalised to  368.05000
     Starting wfc are  232 randomized atomic wfcs

     Self-consistent Calculation

     iteration #  1     ecut=   120.00 Ry     beta= 0.70
     Davidson diagonalization with overlap
     ethr =  1.00E-02,  avg # of iterations =  4.1

     total energy              =   -6253.92966088 Ry
     Harris-Foulkes estimate   =   -6264.42276688 Ry
     estimated scf accuracy    <      13.28795275 Ry

[...]

     total energy              =   -6260.99462000 Ry
     Harris-Foulkes estimate   =   -6260.99462004 Ry
     estimated scf accuracy    <       0.00000008 Ry

     iteration # 12     ecut=   120.00 Ry     beta= 0.70
     Davidson diagonalization with overlap
     ethr =  2.22E-11,  avg # of iterations =  2.0

     End of self-consistent calculation

          k = 0.0000 0.0000 0.0000 ( 60685 PWs)   bands (ev):

   -65.6796 -65.6788 -65.6787 -65.6787 -65.6779 -65.6779 -65.6778 -65.6770
   -30.2214 -30.2189 -30.2160 -30.2160 -30.1362 -30.1362 -30.1345 -30.1294
   -30.0345 -30.0287 -30.0287 -30.0230 -29.9538 -29.9507 -29.9506 -29.9471
   -29.9420 -29.9399 -29.9326 -29.9326 -29.8614 -29.8614 -29.8569 -29.8551
   -19.8338 -19.8336 -19.8334 -19.8333 -19.8329 -19.8329 -19.8326 -19.8324
   -19.8236 -19.8236 -19.8235 -19.8232 -19.8222 -19.8220 -19.8218 -19.8217
   -19.8122 -19.8120 -19.8118 -19.8118 -19.8079 -19.8079 -19.8076 -19.8075
   -19.7957 -19.7954 -19.7953 -19.7953 -19.7951 -19.7951 -19.7950 -19.7949
   -19.7933 -19.7931 -19.7930 -19.7927 -19.7893 -19.7887 -19.7887 -19.7881
   -19.7850 -19.7847 -19.7844 -19.7844 -19.7810 -19.7810 -19.7809 -19.7804
   -19.7762 -19.7757 -19.7756 -19.7755 -19.7739 -19.7739 -19.7737 -19.7732
    -9.5562  -9.2072  -9.1398  -9.1398  -8.6553  -8.6553  -8.6379  -8.5197
    -8.3434  -8.2533  -8.2533  -8.2488  -7.7313  -7.6599  -7.5445  -7.5445
    -7.3591  -7.2864  -7.2864  -7.2302  -7.2159  -7.1973  -7.0726  -7.0726
     1.7711   1.8299   1.8478   1.8478   2.0290   2.0468   2.0693   2.0693
     2.2618   2.2618   2.3734   2.5411   2.7542   2.8390   2.9339   3.0912
     3.1002   3.1002   4.6039   4.6039   4.8132   5.0099   5.0099   5.0104
     5.0105   5.1428   5.1652   5.1652   5.5426   5.5757   5.5757   5.7228
     5.7473   5.8337   5.8410   5.8410   6.1050   6.1050   6.1205   6.1529
     6.1675   6.1675   6.1851   6.3035   6.3234   6.3234   6.4724   6.4754
     6.6367   6.7254   6.8096   6.8096   6.9953   7.0669   7.2263   7.2263
     7.2540   7.3945   7.4116   7.4116   7.4164   7.5695   7.5695   7.6270
     7.9156   7.9156   8.0419   8.1098   8.2296   8.3634   8.3634   8.5481
    10.4127  10.6031  10.7179  10.7179  10.7696  10.8452  12.4779  12.5414
    12.5414  12.7446  12.7446  12.8276  13.0748  13.3073  13.3073  13.4209
    13.5203  13.6172  13.6388  13.6388  14.0743  14.0743  14.0962  14.3661
    15.1307  15.2950  15.2950  15.3574  15.6630  16.1092  16.2572  16.2703
    16.2703  17.0239  17.2811  17.2811  18.1585

[...]

          k = 0.3333-0.4926-0.5000 ( 60672 PWs)   bands (ev):

[...]

          k =-0.5000 0.0000-0.5000 ( 60676 PWs)   bands (ev):

[...]

          k =-0.5000-0.4926-0.5000 ( 60632 PWs)   bands (ev):

   -65.6783 -65.6783 -65.6783 -65.6783 -65.6783 -65.6783 -65.6783 -65.6783
   -30.1765 -30.1765 -30.1755 -30.1755 -30.1754 -30.1754 -30.1753 -30.1753
   -29.9909 -29.9909 -29.9908 -29.9908 -29.9908 -29.9908 -29.9901 -29.9901
   -29.8979 -29.8979 -29.8979 -29.8979 -29.8979 -29.8979 -29.8976 -29.8976
   -19.8332 -19.8332 -19.8331 -19.8331 -19.8331 -19.8331 -19.8331 -19.8331
   -19.8227 -19.8227 -19.8227 -19.8227 -19.8226 -19.8226 -19.8226 -19.8226
   -19.8100 -19.8100 -19.8100 -19.8100 -19.8100 -19.8100 -19.8099 -19.8099
   -19.7944 -19.7944 -19.7944 -19.7943 -19.7942 -19.7942 -19.7942 -19.7942
   -19.7920 -19.7920 -19.7920 -19.7919 -19.7918 -19.7918 -19.7918 -19.7918
   -19.7827 -19.7827 -19.7826 -19.7826 -19.7826 -19.7826 -19.7826 -19.7826
   -19.7749 -19.7749 -19.7749 -19.7749 -19.7749 -19.7749 -19.7748 -19.7748
    -8.6522  -8.6522  -8.5709  -8.5709  -8.5495  -8.5494  -8.5494  -8.5494
    -8.0797  -8.0797  -7.9730  -7.9730  -7.9729  -7.9729  -7.9131  -7.9130
    -7.7721  -7.7721  -7.7721  -7.7721  -7.6906  -7.6906  -7.6702  -7.6702
     3.2387   3.2388   3.2460   3.2460   3.2461   3.2461   3.3248   3.3248
     3.4150   3.4150   3.5982   3.5983   3.5983   3.5983   3.7826   3.7826
     3.8673   3.8673   3.9171   3.9171   3.9763   3.9763   3.9763   3.9763
     4.5160   4.5160   4.5217   4.5217   4.6454   4.6454   4.6454   4.6455
     4.8062   4.8062   4.8497   4.8497   4.8497   4.8497   4.9187   4.9188
     5.0340   5.0340   5.1012   5.1012   5.1012   5.1012   5.1246   5.1246
     7.3426   7.3426   7.4820   7.4821   7.4821   7.4821   7.6545   7.6545
     7.7408   7.7408   7.7408   7.7408   7.8388   7.8388   7.9214   7.9214
     8.0714   8.0715   8.0715   8.0715   8.1053   8.1053   8.1449   8.1449
    12.2233  12.2233  12.3046  12.3046  12.3046  12.3046  12.3866  12.3866
    12.7331  12.7331  12.7331  12.7331  12.8034  12.8034  12.9398  12.9398
    13.0206  13.0206  13.1721  13.1721  13.1721  13.1721  13.2145  13.2145
    17.0371  17.0371  17.0371  17.0371  17.1989  17.1989  17.2317  17.2317
    17.6495  17.6495  17.7595  17.7598  17.7599

     the Fermi energy is    10.5339 ev

!    total energy              =   -6260.99462001 Ry
     Harris-Foulkes estimate   =   -6260.99462002 Ry
     estimated scf accuracy    <          9.9E-09 Ry

     The total energy is the sum of the following terms:

     one-electron contribution =   -4583.99926025 Ry
     hartree contribution      =    2535.05477542 Ry
     xc contribution           =    -965.65711451 Ry
     ewald contribution        =   -3246.39301323 Ry
     smearing contrib. (-TS)   =      -0.00000744 Ry

     convergence has been achieved in  12 iterations

     Writing output data file Landau_39.save

     General routines

     Parallel routines

   This run was terminated on:  15: 6: 9  10Sep2019

   JOB DONE.