     Program PWSCF v.6.4.1 starts on 21Nov2019 at 18: 4: 1

     K-points division:     npool     =      40
     Reading input from rscf.in

     Current dimensions of program PWSCF are:
     Max number of different atomic species (ntypx) = 10
     Max number of k-points (npk) =  40000
     Max angular momentum in pseudopotentials (lmaxx) =  3

     Subspace diagonalization in iterative solution of the eigenvalue problem:
     a serial algorithm will be used

     Message from routine setup:
     using ibrav=0 with symmetry is DISCOURAGED, use correct ibrav instead

     bravais-lattice index     =            0
     lattice parameter (alat)  =       9.7849  a.u.
     unit-cell volume          =    1402.1515 (a.u.)^3
     number of atoms/cell      =           16
     number of atomic types    =            2
     number of electrons       =       184.00
     number of Kohn-Sham states=          110
     kinetic-energy cutoff     =     120.0000  Ry
     charge density cutoff     =     480.0000  Ry
     convergence threshold     =      1.0E-08
     mixing beta               =       0.7000
     number of iterations used =            8  plain     mixing
     Exchange-correlation      = SLA PW NOGX NOGC ( 1  4  0  0 0 0)
     nstep                     =           50

     celldm(1)=   9.784926  celldm(2)=   0.000000  celldm(3)=   0.000000
     celldm(4)=   0.000000  celldm(5)=   0.000000  celldm(6)=   0.000000

     crystal axes: (cart. coord. in units of alat)
               a(1) = (   1.000000   0.000000   0.000000 )
               a(2) = (   0.000000   1.000000   0.000000 )
               a(3) = (   0.000000   0.000000   1.496657 )

     reciprocal axes: (cart. coord. in units 2 pi/alat)
               b(1) = (  1.000000  0.000000  0.000000 )
               b(2) = (  0.000000  1.000000  0.000000 )
               b(3) = (  0.000000  0.000000  0.668156 )

     PseudoPot. # 1 for W  read from file:
     /cluster/scratch/mnoe/QE/pps/W_ONCV_LDA-4.0.upf
     MD5 check sum: ba0307d5d4cd419d6f1d13dc49d7c13a
     Pseudo is Norm-conserving + core correction, Zval = 28.0
     Generated using ONCVPSP code by D. R. Hamann
     Using radial grid of 1380 points,  8 beta functions with:
                l(1) =   0
                l(2) =   0
                l(3) =   1
                l(4) =   1
                l(5) =   2
                l(6) =   2
                l(7) =   3
                l(8) =   3

     PseudoPot. # 2 for O  read from file:
     /cluster/scratch/mnoe/QE/pps/O_ONCV_LDA-3.0.upf
     MD5 check sum: b55cdb4f45ae2203d24ad12cf8d61a31
     Pseudo is Norm-conserving + core correction, Zval =  6.0
     Generated using ONCVPSP code by D. R. Hamann
     Using radial grid of  926 points,  5 beta functions with:
                l(1) =   0
                l(2) =   0
                l(3) =   1
                l(4) =   1
                l(5) =   2

     atomic species   valence    mass     pseudopotential
        W             28.00   183.84000     W ( 1.00)
        O              6.00    15.99940     O ( 1.00)

     16 Sym. Ops., with inversion, found (14 have fractional translation)

   Cartesian axes

     site n.     atom                  positions (alat units)
         1           W   tau(   1) = (   0.2500000   0.2500000   0.3066345  )
         2           W   tau(   2) = (   0.7500000   0.7500000   1.1900225  )
         3           W   tau(   3) = (   0.7500000   0.7500000   0.4416940  )
         4           W   tau(   4) = (   0.2500000   0.2500000   1.0549630  )
         5           O   tau(   5) = (   0.2500000   0.2500000   0.6983608  )
         6           O   tau(   6) = (   0.7500000   0.7500000   0.7982962  )
         7           O   tau(   7) = (   0.7500000   0.7500000   0.0499677  )
         8           O   tau(   8) = (   0.2500000   0.2500000   1.4466893  )
         9           O   tau(   9) = (   0.5178711   0.4821289   0.3741643  )
        10           O   tau(  10) = (   0.4821289   0.5178711   1.1224928  )
        11           O   tau(  11) = (  -0.0178711   1.0178711   0.3741643  )
        12           O   tau(  12) = (   1.0178710  -0.0178711   1.1224928  )
        13           O   tau(  13) = (   1.0178711   0.5178711   0.3741643  )
        14           O   tau(  14) = (  -0.0178711   0.4821289   1.1224928  )
        15           O   tau(  15) = (   0.4821289  -0.0178711   0.3741643  )
        16           O   tau(  16) = (   0.5178711   1.0178710   1.1224928  )

     number of k points=    60  gaussian smearing, width (Ry)=  0.0007
                       cart. coord. in units 2pi/alat
        k(    1) = (   0.0000000   0.0000000   0.0000000), wk =   0.0041152
        k(    2) = (   0.0000000   0.0000000   0.1113593), wk =   0.0082305
        k(    3) = (   0.0000000   0.0000000   0.2227186), wk =   0.0082305
        k(    4) = (   0.0000000   0.0000000  -0.3340779), wk =   0.0041152
        k(    5) = (   0.0000000   0.1111111   0.0000000), wk =   0.0164609
        k(    6) = (   0.0000000   0.1111111   0.1113593), wk =   0.0329218
        k(    7) = (   0.0000000   0.1111111   0.2227186), wk =   0.0329218
        k(    8) = (   0.0000000   0.1111111  -0.3340779), wk =   0.0164609
        k(    9) = (   0.0000000   0.2222222   0.0000000), wk =   0.0164609
        k(   10) = (   0.0000000   0.2222222   0.1113593), wk =   0.0329218
        k(   11) = (   0.0000000   0.2222222   0.2227186), wk =   0.0329218
        k(   12) = (   0.0000000   0.2222222  -0.3340779), wk =   0.0164609
        k(   13) = (   0.0000000   0.3333333   0.0000000), wk =   0.0164609
        k(   14) = (   0.0000000   0.3333333   0.1113593), wk =   0.0329218
        k(   15) = (   0.0000000   0.3333333   0.2227186), wk =   0.0329218
        k(   16) = (   0.0000000   0.3333333  -0.3340779), wk =   0.0164609
        k(   17) = (   0.0000000   0.4444444   0.0000000), wk =   0.0164609
        k(   18) = (   0.0000000   0.4444444   0.1113593), wk =   0.0329218
        k(   19) = (   0.0000000   0.4444444   0.2227186), wk =   0.0329218
        k(   20) = (   0.0000000   0.4444444  -0.3340779), wk =   0.0164609
        k(   21) = (   0.1111111   0.1111111   0.0000000), wk =   0.0164609
        k(   22) = (   0.1111111   0.1111111   0.1113593), wk =   0.0329218
        k(   23) = (   0.1111111   0.1111111   0.2227186), wk =   0.0329218
        k(   24) = (   0.1111111   0.1111111  -0.3340779), wk =   0.0164609
        k(   25) = (   0.1111111   0.2222222   0.0000000), wk =   0.0329218
        k(   26) = (   0.1111111   0.2222222   0.1113593), wk =   0.0658436
        k(   27) = (   0.1111111   0.2222222   0.2227186), wk =   0.0658436
        k(   28) = (   0.1111111   0.2222222  -0.3340779), wk =   0.0329218
        k(   29) = (   0.1111111   0.3333333   0.0000000), wk =   0.0329218
        k(   30) = (   0.1111111   0.3333333   0.1113593), wk =   0.0658436
        k(   31) = (   0.1111111   0.3333333   0.2227186), wk =   0.0658436
        k(   32) = (   0.1111111   0.3333333  -0.3340779), wk =   0.0329218
        k(   33) = (   0.1111111   0.4444444   0.0000000), wk =   0.0329218
        k(   34) = (   0.1111111   0.4444444   0.1113593), wk =   0.0658436
        k(   35) = (   0.1111111   0.4444444   0.2227186), wk =   0.0658436
        k(   36) = (   0.1111111   0.4444444  -0.3340779), wk =   0.0329218
        k(   37) = (   0.2222222   0.2222222   0.0000000), wk =   0.0164609
        k(   38) = (   0.2222222   0.2222222   0.1113593), wk =   0.0329218
        k(   39) = (   0.2222222   0.2222222   0.2227186), wk =   0.0329218
        k(   40) = (   0.2222222   0.2222222  -0.3340779), wk =   0.0164609
        k(   41) = (   0.2222222   0.3333333   0.0000000), wk =   0.0329218
        k(   42) = (   0.2222222   0.3333333   0.1113593), wk =   0.0658436
        k(   43) = (   0.2222222   0.3333333   0.2227186), wk =   0.0658436
        k(   44) = (   0.2222222   0.3333333  -0.3340779), wk =   0.0329218
        k(   45) = (   0.2222222   0.4444444   0.0000000), wk =   0.0329218
        k(   46) = (   0.2222222   0.4444444   0.1113593), wk =   0.0658436
        k(   47) = (   0.2222222   0.4444444   0.2227186), wk =   0.0658436
        k(   48) = (   0.2222222   0.4444444  -0.3340779), wk =   0.0329218
        k(   49) = (   0.3333333   0.3333333   0.0000000), wk =   0.0164609
        k(   50) = (   0.3333333   0.3333333   0.1113593), wk =   0.0329218
        k(   51) = (   0.3333333   0.3333333   0.2227186), wk =   0.0329218
        k(   52) = (   0.3333333   0.3333333  -0.3340779), wk =   0.0164609
        k(   53) = (   0.3333333   0.4444444   0.0000000), wk =   0.0329218
        k(   54) = (   0.3333333   0.4444444   0.1113593), wk =   0.0658436
        k(   55) = (   0.3333333   0.4444444   0.2227186), wk =   0.0658436
        k(   56) = (   0.3333333   0.4444444  -0.3340779), wk =   0.0329218
        k(   57) = (   0.4444444   0.4444444   0.0000000), wk =   0.0164609
        k(   58) = (   0.4444444   0.4444444   0.1113593), wk =   0.0329218
        k(   59) = (   0.4444444   0.4444444   0.2227186), wk =   0.0329218
        k(   60) = (   0.4444444   0.4444444  -0.3340779), wk =   0.0164609

     Initial potential from superposition of free atoms

     starting charge  183.99828, renormalised to  184.00000
     Starting wfcs are  116 randomized atomic wfcs

     Self-consistent Calculation

     iteration #  1     ecut=   120.00 Ry     beta= 0.70
     Davidson diagonalization with overlap
     ethr =  1.00E-02,  avg # of iterations =  4.4

     total energy              =   -3126.71034106 Ry
     Harris-Foulkes estimate   =   -3132.26382956 Ry
     estimated scf accuracy    <       7.01917646 Ry

[...]

     End of self-consistent calculation

          k = 0.0000 0.0000 0.0000 ( 31095 PWs)   bands (ev):

   -66.2095 -66.2091 -66.2080 -66.2076 -30.5870 -30.5870 -30.5835 -30.5835
   -30.4987 -30.4987 -30.4962 -30.4962 -30.4561 -30.4530 -30.3967 -30.3949
   -20.3777 -20.3777 -20.3777 -20.3777 -20.3777 -20.3777 -20.3776 -20.3775
   -20.3751 -20.3751 -20.3750 -20.3750 -20.3513 -20.3512 -20.3505 -20.3504
   -20.3420 -20.3415 -20.3385 -20.3385 -20.3373 -20.3373 -20.3361 -20.3361
   -20.3361 -20.3356 -20.3349 -20.3349 -10.0507  -9.7665  -9.0922  -9.0725
    -8.8391  -8.5721  -7.7806  -7.7806  -7.7635  -7.7635  -7.5681  -7.4146
     0.9725   0.9779   1.3654   1.4256   1.6167   1.7537   2.3229   2.4201
     2.5554   2.5554   3.8393   3.8393   4.9638   5.3014   5.3014   5.6101
     5.6101   5.9502   5.9502   6.0271   6.2051   6.3010   6.3010   6.8307
     6.8307   6.8810   7.1165   7.1799   7.1799   7.2605   7.2605   7.3913
     8.3599   8.3637   8.5182   8.5182   8.9536   8.9726   9.6366   9.6366
    12.3046  12.3046  13.4395  13.5203  13.5203  13.6576  13.6715  14.2183
    14.2183  14.5824  14.5838  14.6781  15.2782  16.4336

[...]

     the Fermi energy is     8.7787 ev

!    total energy              =   -3130.45549553 Ry
     Harris-Foulkes estimate   =   -3130.45549553 Ry
     estimated scf accuracy    <          2.8E-09 Ry

     The total energy is the sum of the following terms:

     one-electron contribution =   -2369.04285114 Ry
     hartree contribution      =    1302.95264106 Ry
[...]

     Writing output data file Landau_39.save/
     NEW-OLD atomic charge density approx. for the potential
     extrapolated charge  184.37247, renormalised to  184.00000

[...]

     enthalpy old            =   -3130.4554955281 Ry
     enthalpy new            =   -3130.4701475681 Ry

     CASE: enthalpy_new < enthalpy_old

[...]

     Threshold (ethr) on eigenvalues was too large:
     Diagonalizing with lowered threshold

     Davidson diagonalization with overlap
     ethr =  2.54E-08,  avg # of iterations =  2.8

[...]

     number of scf cycles    =   4
     number of bfgs steps    =   3

     enthalpy old            =   -3130.4701655293 Ry
     enthalpy new            =   -3130.4701658093 Ry

     CASE: enthalpy_new < enthalpy_old

     new trust radius        =       0.0001183152 bohr
     new conv_thr            =            1.0E-10 Ry

     new unit-cell volume =   1405.02408 a.u.^3 (   208.20309 Ang^3 )
     density =      7.39617 g/cm^3

[...]

ATOMIC_POSITIONS (crystal)
W        0.250000000   0.250000000   0.204879636    0   0   0
W        0.750000023   0.750000023   0.795120379    0   0   0
W        0.750000023   0.750000023   0.295120379    0   0   0
W        0.250000000   0.250000000   0.704879621    0   0   0
O        0.250000000   0.250000000   0.466613816    0   0   0
O        0.750000023   0.750000023   0.533386184    0   0   0
O        0.750000023   0.750000023   0.033386197    0   0   0
O        0.250000000   0.250000000   0.966613816    0   0   0
O        0.517871092   0.482128862   0.250000000    0   0   0
O        0.482128908   0.517871138   0.750000000    0   0   0
O       -0.017871109   1.017871138   0.250000000    0   0   0
O        1.017871046  -0.017871075   0.750000000    0   0   0
O        1.017871138   0.517871092   0.250000000    0   0   0
O       -0.017871075   0.482128908   0.750000000    0   0   0
O        0.482128862  -0.017871109   0.250000000    0   0   0
O        0.517871138   1.017871046   0.750000000    0   0   0

     Writing output data file Landau_39.save/
     NEW-OLD atomic charge density approx. for the potential
     extrapolated charge  183.99251, renormalised to  184.00000

[...]

     Threshold (ethr) on eigenvalues was too large:
     Diagonalizing with lowered threshold

     Davidson diagonalization with overlap
     ethr =  3.36E-09,  avg # of iterations =  2.2

[...]

     bfgs converged in   5 scf cycles and   4 bfgs steps
     (criteria: energy <  1.0E-07 Ry, force <  1.0E-07Ry/Bohr, cell <  5.0E-01kbar)

     End of BFGS Geometry Optimization

     Final enthalpy =   -3130.4701658298 Ry
Begin final coordinates
     new unit-cell volume =   1405.02408 a.u.^3 (   208.20309 Ang^3 )
     density =      7.39617 g/cm^3

CELL_PARAMETERS (angstrom)
   5.230700399   0.000000000   0.000000000
   0.000000000   5.230700399   0.000000000
   0.000000000   0.000000000   7.609698857

ATOMIC_POSITIONS (crystal)
W        0.250000000   0.250000000   0.204879636    0   0   0
W        0.750000023   0.750000023   0.795120379    0   0   0
W        0.750000023   0.750000023   0.295120379    0   0   0
W        0.250000000   0.250000000   0.704879621    0   0   0
O        0.250000000   0.250000000   0.466613816    0   0   0
O        0.750000023   0.750000023   0.533386184    0   0   0
O        0.750000023   0.750000023   0.033386197    0   0   0
O        0.250000000   0.250000000   0.966613816    0   0   0
O        0.517871092   0.482128862   0.250000000    0   0   0
O        0.482128908   0.517871138   0.750000000    0   0   0
O       -0.017871109   1.017871138   0.250000000    0   0   0
O        1.017871046  -0.017871075   0.750000000    0   0   0
O        1.017871138   0.517871092   0.250000000    0   0   0
O       -0.017871075   0.482128908   0.750000000    0   0   0
O        0.482128862  -0.017871109   0.250000000    0   0   0
O        0.517871138   1.017871046   0.750000000    0   0   0
End final coordinates

     Writing output data file Landau_39.save/

     Final scf calculation at the relaxed structure.
     The G-vectors are recalculated for the final unit cell
     Results may differ from those at the preceding step.

     bravais-lattice index     =            0
     lattice parameter (alat)  =       9.7849  a.u.
     unit-cell volume          =    1405.0241 (a.u.)^3
     number of atoms/cell      =           16
     number of atomic types    =            2
     number of electrons       =       184.00
     number of Kohn-Sham states=          110
     kinetic-energy cutoff     =     120.0000  Ry
     charge density cutoff     =     480.0000  Ry
     convergence threshold     =      1.0E-10
     mixing beta               =       0.7000
     number of iterations used =            8  plain     mixing
     Exchange-correlation      = SLA PW NOGX NOGC ( 1  4  0  0 0 0)

     celldm(1)=   9.784926  celldm(2)=   0.000000  celldm(3)=   0.000000
     celldm(4)=   0.000000  celldm(5)=   0.000000  celldm(6)=   0.000000

     crystal axes: (cart. coord. in units of alat)
               a(1) = (   1.010186   0.000000   0.000000 )
               a(2) = (   0.000000   1.010186   0.000000 )
               a(3) = (   0.000000   0.000000   1.469633 )

     reciprocal axes: (cart. coord. in units 2 pi/alat)
               b(1) = (  0.989917  0.000000  0.000000 )
               b(2) = (  0.000000  0.989917  0.000000 )
               b(3) = (  0.000000  0.000000  0.680442 )

     PseudoPot. # 1 for W  read from file:
     /cluster/scratch/mnoe/QE/pps/W_ONCV_LDA-4.0.upf
     MD5 check sum: ba0307d5d4cd419d6f1d13dc49d7c13a
     Pseudo is Norm-conserving + core correction, Zval = 28.0
     Generated using ONCVPSP code by D. R. Hamann
     Using radial grid of 1380 points,  8 beta functions with:
                l(1) =   0
                l(2) =   0
                l(3) =   1
                l(4) =   1
                l(5) =   2
                l(6) =   2
                l(7) =   3
                l(8) =   3

     PseudoPot. # 2 for O  read from file:
     /cluster/scratch/mnoe/QE/pps/O_ONCV_LDA-3.0.upf
     MD5 check sum: b55cdb4f45ae2203d24ad12cf8d61a31
     Pseudo is Norm-conserving + core correction, Zval =  6.0
     Generated using ONCVPSP code by D. R. Hamann
     Using radial grid of  926 points,  5 beta functions with:
                l(1) =   0
                l(2) =   0
                l(3) =   1
                l(4) =   1
                l(5) =   2

     atomic species   valence    mass     pseudopotential
        W             28.00   183.84000     W ( 1.00)
        O              6.00    15.99940     O ( 1.00)

     16 Sym. Ops., with inversion, found (14 have fractional translation)

   Cartesian axes

     site n.     atom                  positions (alat units)
         1           W   tau(   1) = (   0.2525464   0.2525464   0.3010978  )
         2           W   tau(   2) = (   0.7576392   0.7576392   1.1685349  )
         3           W   tau(   3) = (   0.7576392   0.7576392   0.4337185  )
         4           W   tau(   4) = (   0.2525464   0.2525464   1.0359141  )
         5           O   tau(   5) = (   0.2525464   0.2525464   0.6857509  )
         6           O   tau(   6) = (   0.7576392   0.7576392   0.7838817  )
         7           O   tau(   7) = (   0.7576392   0.7576392   0.0490654  )
         8           O   tau(   8) = (   0.2525464   0.2525464   1.4205672  )
         9           O   tau(   9) = (   0.5231459   0.4870396   0.3674082  )
        10           O   tau(  10) = (   0.4870397   0.5231460   1.1022245  )
        11           O   tau(  11) = (  -0.0180531   1.0282387   0.3674082  )
        12           O   tau(  12) = (   1.0282386  -0.0180531   1.1022245  )
        13           O   tau(  13) = (   1.0282387   0.5231459   0.3674082  )
        14           O   tau(  14) = (  -0.0180531   0.4870397   1.1022245  )
        15           O   tau(  15) = (   0.4870396  -0.0180531   0.3674082  )
        16           O   tau(  16) = (   0.5231460   1.0282386   1.1022245  )

     number of k points=    60  gaussian smearing, width (Ry)=  0.0007
                       cart. coord. in units 2pi/alat
        k(    1) = (   0.0000000   0.0000000   0.0000000), wk =   0.0041152
        k(    2) = (   0.0000000   0.0000000   0.1134070), wk =   0.0082305
        k(    3) = (   0.0000000   0.0000000   0.2268141), wk =   0.0082305
        k(    4) = (   0.0000000   0.0000000  -0.3402211), wk =   0.0041152
        k(    5) = (   0.0000000   0.1099908   0.0000000), wk =   0.0164609
        k(    6) = (   0.0000000   0.1099908   0.1134070), wk =   0.0329218
        k(    7) = (   0.0000000   0.1099908   0.2268141), wk =   0.0329218
        k(    8) = (   0.0000000   0.1099908  -0.3402211), wk =   0.0164609
        k(    9) = (   0.0000000   0.2199816   0.0000000), wk =   0.0164609
        k(   10) = (   0.0000000   0.2199816   0.1134070), wk =   0.0329218
        k(   11) = (   0.0000000   0.2199816   0.2268141), wk =   0.0329218
        k(   12) = (   0.0000000   0.2199816  -0.3402211), wk =   0.0164609
        k(   13) = (   0.0000000   0.3299724   0.0000000), wk =   0.0164609
        k(   14) = (   0.0000000   0.3299724   0.1134070), wk =   0.0329218
        k(   15) = (   0.0000000   0.3299724   0.2268141), wk =   0.0329218
        k(   16) = (   0.0000000   0.3299724  -0.3402211), wk =   0.0164609
        k(   17) = (   0.0000000   0.4399632   0.0000000), wk =   0.0164609
        k(   18) = (   0.0000000   0.4399632   0.1134070), wk =   0.0329218
        k(   19) = (   0.0000000   0.4399632   0.2268141), wk =   0.0329218
        k(   20) = (   0.0000000   0.4399632  -0.3402211), wk =   0.0164609
        k(   21) = (   0.1099908   0.1099908   0.0000000), wk =   0.0164609
        k(   22) = (   0.1099908   0.1099908   0.1134070), wk =   0.0329218
        k(   23) = (   0.1099908   0.1099908   0.2268141), wk =   0.0329218
        k(   24) = (   0.1099908   0.1099908  -0.3402211), wk =   0.0164609
        k(   25) = (   0.1099908   0.2199816   0.0000000), wk =   0.0329218
        k(   26) = (   0.1099908   0.2199816   0.1134070), wk =   0.0658436
        k(   27) = (   0.1099908   0.2199816   0.2268141), wk =   0.0658436
        k(   28) = (   0.1099908   0.2199816  -0.3402211), wk =   0.0329218
        k(   29) = (   0.1099908   0.3299724   0.0000000), wk =   0.0329218
        k(   30) = (   0.1099908   0.3299724   0.1134070), wk =   0.0658436
        k(   31) = (   0.1099908   0.3299724   0.2268141), wk =   0.0658436
        k(   32) = (   0.1099908   0.3299724  -0.3402211), wk =   0.0329218
        k(   33) = (   0.1099908   0.4399632   0.0000000), wk =   0.0329218
        k(   34) = (   0.1099908   0.4399632   0.1134070), wk =   0.0658436
        k(   35) = (   0.1099908   0.4399632   0.2268141), wk =   0.0658436
        k(   36) = (   0.1099908   0.4399632  -0.3402211), wk =   0.0329218
        k(   37) = (   0.2199816   0.2199816   0.0000000), wk =   0.0164609
        k(   38) = (   0.2199816   0.2199816   0.1134070), wk =   0.0329218
        k(   39) = (   0.2199816   0.2199816   0.2268141), wk =   0.0329218
        k(   40) = (   0.2199816   0.2199816  -0.3402211), wk =   0.0164609
        k(   41) = (   0.2199816   0.3299724   0.0000000), wk =   0.0329218
        k(   42) = (   0.2199816   0.3299724   0.1134070), wk =   0.0658436
        k(   43) = (   0.2199816   0.3299724   0.2268141), wk =   0.0658436
        k(   44) = (   0.2199816   0.3299724  -0.3402211), wk =   0.0329218
        k(   45) = (   0.2199816   0.4399632   0.0000000), wk =   0.0329218
        k(   46) = (   0.2199816   0.4399632   0.1134070), wk =   0.0658436
        k(   47) = (   0.2199816   0.4399632   0.2268141), wk =   0.0658436
        k(   48) = (   0.2199816   0.4399632  -0.3402211), wk =   0.0329218
        k(   49) = (   0.3299724   0.3299724   0.0000000), wk =   0.0164609
        k(   50) = (   0.3299724   0.3299724   0.1134070), wk =   0.0329218
        k(   51) = (   0.3299724   0.3299724   0.2268141), wk =   0.0329218
        k(   52) = (   0.3299724   0.3299724  -0.3402211), wk =   0.0164609
        k(   53) = (   0.3299724   0.4399632   0.0000000), wk =   0.0329218
        k(   54) = (   0.3299724   0.4399632   0.1134070), wk =   0.0658436
        k(   55) = (   0.3299724   0.4399632   0.2268141), wk =   0.0658436
        k(   56) = (   0.3299724   0.4399632  -0.3402211), wk =   0.0329218
        k(   57) = (   0.4399632   0.4399632   0.0000000), wk =   0.0164609
        k(   58) = (   0.4399632   0.4399632   0.1134070), wk =   0.0329218
        k(   59) = (   0.4399632   0.4399632   0.2268141), wk =   0.0329218
        k(   60) = (   0.4399632   0.4399632  -0.3402211), wk =   0.0164609

     Initial potential from superposition of free atoms

     starting charge  183.99828, renormalised to  184.00000
     Starting wfcs are  116 randomized atomic wfcs

     Self-consistent Calculation

[...]

     total energy              =   -3130.47024238 Ry
     Harris-Foulkes estimate   =   -3130.47024238 Ry
     estimated scf accuracy    <          5.5E-10 Ry

     iteration # 13     ecut=   120.00 Ry     beta= 0.70
     Davidson diagonalization with overlap
     ethr =  3.01E-13,  avg # of iterations =  3.0

     End of self-consistent calculation

[...]

          k = 0.4400 0.4400-0.3402 ( 31250 PWs)   bands (ev):

   -66.2399 -66.2399 -66.2399 -66.2399 -30.5787 -30.5787 -30.5765 -30.5765
   -30.5212 -30.5212 -30.5207 -30.5207 -30.4940 -30.4940 -30.4919 -30.4919
   -20.4150 -20.4150 -20.4149 -20.4149 -20.4113 -20.4113 -20.4113 -20.4113
   -20.4095 -20.4095 -20.4094 -20.4094 -20.3846 -20.3845 -20.3845 -20.3845
   -20.3712 -20.3712 -20.3712 -20.3712 -20.3677 -20.3677 -20.3676 -20.3676
   -20.3655 -20.3655 -20.3655 -20.3655  -9.3689  -9.3689  -9.3287  -9.3287
    -8.4035  -8.4035  -8.3976  -8.3976  -7.8380  -7.8380  -7.7878  -7.7878
     1.3088   1.3088   1.4176   1.4176   3.0492   3.0492   3.0599   3.0599
     3.3402   3.3402   3.3603   3.3603   4.5620   4.5620   4.7579   4.7579
     5.3234   5.3235   5.4635   5.4635   5.8603   5.8603   6.0212   6.0212
     6.3267   6.3267   6.4546   6.4546   6.8033   6.8033   6.9154   6.9154
     7.6696   7.6696   7.6762   7.6762  11.2081  11.2081  11.2644  11.2644
    12.3467  12.3467  12.4503  12.4503  13.5411  13.5411  13.6363  13.6363
    15.0118  15.0118  15.1967  15.1967  17.9394  17.9394

     the Fermi energy is     8.7478 ev

!    total energy              =   -3130.47024238 Ry
     Harris-Foulkes estimate   =   -3130.47024238 Ry
     estimated scf accuracy    <          2.0E-11 Ry

     The total energy is the sum of the following terms:

     one-electron contribution =   -2370.59999915 Ry
     hartree contribution      =    1303.52540762 Ry
     xc contribution           =    -482.86616394 Ry
     ewald contribution        =   -1580.52948692 Ry
     smearing contrib. (-TS)   =      -0.00000000 Ry

     convergence has been achieved in  13 iterations

     Forces acting on atoms (cartesian axes, Ry/au):

     atom    1 type  1   force =     0.00000000    0.00000000   -0.02718110
     atom    2 type  1   force =     0.00000000    0.00000000    0.02718110
     atom    3 type  1   force =     0.00000000    0.00000000    0.02718110
     atom    4 type  1   force =     0.00000000    0.00000000   -0.02718110
     atom    5 type  2   force =     0.00000000    0.00000000    0.12574559
     atom    6 type  2   force =     0.00000000    0.00000000   -0.12574559
     atom    7 type  2   force =     0.00000000    0.00000000   -0.12574559
     atom    8 type  2   force =     0.00000000    0.00000000    0.12574559
     atom    9 type  2   force =     0.00150817   -0.00150817    0.00000000
     atom   10 type  2   force =    -0.00150817    0.00150817    0.00000000
     atom   11 type  2   force =    -0.00150817    0.00150817    0.00000000
     atom   12 type  2   force =     0.00150817   -0.00150817    0.00000000
     atom   13 type  2   force =     0.00150817    0.00150817    0.00000000
     atom   14 type  2   force =    -0.00150817   -0.00150817    0.00000000
     atom   15 type  2   force =    -0.00150817   -0.00150817    0.00000000
     atom   16 type  2   force =     0.00150817    0.00150817    0.00000000

     Total force =     0.000000     Total SCF correction =     0.000000

     Computing stress (Cartesian axis) and pressure

          total   stress  (Ry/bohr**3)                   (kbar)     P=    0.26
   0.00000337   0.00000000   0.00000000          0.50      0.00      0.00
   0.00000000   0.00000337   0.00000000          0.00      0.50      0.00
   0.00000000   0.00000000  -0.00000151          0.00      0.00     -0.22

     Writing output data file Landau_39.save/

     General routines

     Parallel routines

   This run was terminated on:  18:42:13  21Nov2019

   JOB DONE.