     Program PWSCF v.6.4.1 starts on 19Nov2019 at 19: 9:55

     K-points division:     npool     =      40
     Reading input from rscf.in

     Current dimensions of program PWSCF are:
     Max number of different atomic species (ntypx) = 10
     Max number of k-points (npk) =  40000
     Max angular momentum in pseudopotentials (lmaxx) =  3

     Subspace diagonalization in iterative solution of the eigenvalue problem:
     a serial algorithm will be used

     Message from routine setup:
     using ibrav=0 with symmetry is DISCOURAGED, use correct ibrav instead

     bravais-lattice index     =            0
     lattice parameter (alat)  =       9.7849  a.u.
     unit-cell volume          =    1402.1515 (a.u.)^3
     number of atoms/cell      =           16
     number of atomic types    =            2
     number of electrons       =       184.00
     number of Kohn-Sham states=          110
     kinetic-energy cutoff     =     120.0000  Ry
     charge density cutoff     =     480.0000  Ry
     convergence threshold     =      1.0E-08
     mixing beta               =       0.7000
     number of iterations used =            8  plain     mixing
     Exchange-correlation      = SLA PW NOGX NOGC ( 1  4  0  0 0 0)
     nstep                     =           50

     celldm(1)=   9.784926  celldm(2)=   0.000000  celldm(3)=   0.000000
     celldm(4)=   0.000000  celldm(5)=   0.000000  celldm(6)=   0.000000

     crystal axes: (cart. coord. in units of alat)
               a(1) = (   1.000000   0.000000   0.000000 )
               a(2) = (   0.000000   1.000000   0.000000 )
               a(3) = (   0.000000   0.000000   1.496657 )

     reciprocal axes: (cart. coord. in units 2 pi/alat)
               b(1) = (  1.000000  0.000000  0.000000 )
               b(2) = (  0.000000  1.000000  0.000000 )
               b(3) = (  0.000000  0.000000  0.668156 )

     PseudoPot. # 1 for W  read from file:
     /cluster/scratch/mnoe/QE/pps/W_ONCV_LDA-4.0.upf
     MD5 check sum: ba0307d5d4cd419d6f1d13dc49d7c13a
     Pseudo is Norm-conserving + core correction, Zval = 28.0
     Generated using ONCVPSP code by D. R. Hamann
     Using radial grid of 1380 points,  8 beta functions with:
                l(1) =   0
                l(2) =   0
                l(3) =   1
                l(4) =   1
                l(5) =   2
                l(6) =   2
                l(7) =   3
                l(8) =   3

     PseudoPot. # 2 for O  read from file:
     /cluster/scratch/mnoe/QE/pps/O_ONCV_LDA-3.0.upf
     MD5 check sum: b55cdb4f45ae2203d24ad12cf8d61a31
     Pseudo is Norm-conserving + core correction, Zval =  6.0
     Generated using ONCVPSP code by D. R. Hamann
     Using radial grid of  926 points,  5 beta functions with:
                l(1) =   0
                l(2) =   0
                l(3) =   1
                l(4) =   1
                l(5) =   2

     atomic species   valence    mass     pseudopotential
        W             28.00   183.84000     W ( 1.00)
        O              6.00    15.99940     O ( 1.00)

     16 Sym. Ops., with inversion, found (14 have fractional translation)

   Cartesian axes

     site n.     atom                  positions (alat units)
         1           W   tau(   1) = (   0.2500000   0.2500000   0.3066345  )
         2           W   tau(   2) = (   0.7500000   0.7500000   1.1900225  )
         3           W   tau(   3) = (   0.7500000   0.7500000   0.4416940  )
         4           W   tau(   4) = (   0.2500000   0.2500000   1.0549630  )
         5           O   tau(   5) = (   0.2500000   0.2500000   0.6983608  )
         6           O   tau(   6) = (   0.7500000   0.7500000   0.7982962  )
         7           O   tau(   7) = (   0.7500000   0.7500000   0.0499677  )
         8           O   tau(   8) = (   0.2500000   0.2500000   1.4466893  )
         9           O   tau(   9) = (   0.5178711   0.4821289   0.3741643  )
        10           O   tau(  10) = (   0.4821289   0.5178711   1.1224928  )
        11           O   tau(  11) = (  -0.0178711   1.0178711   0.3741643  )
        12           O   tau(  12) = (   1.0178710  -0.0178711   1.1224928  )
        13           O   tau(  13) = (   1.0178711   0.5178711   0.3741643  )
        14           O   tau(  14) = (  -0.0178711   0.4821289   1.1224928  )
        15           O   tau(  15) = (   0.4821289  -0.0178711   0.3741643  )
        16           O   tau(  16) = (   0.5178711   1.0178710   1.1224928  )

     number of k points=    40  gaussian smearing, width (Ry)=  0.0007
                       cart. coord. in units 2pi/alat
        k(    1) = (   0.0000000   0.0000000   0.0000000), wk =   0.0092593
        k(    2) = (   0.0000000   0.0000000   0.1113593), wk =   0.0185185
        k(    3) = (   0.0000000   0.0000000   0.2227186), wk =   0.0185185
        k(    4) = (   0.0000000   0.0000000  -0.3340779), wk =   0.0092593
        k(    5) = (   0.0000000   0.1666667   0.0000000), wk =   0.0370370
        k(    6) = (   0.0000000   0.1666667   0.1113593), wk =   0.0740741
        k(    7) = (   0.0000000   0.1666667   0.2227186), wk =   0.0740741
        k(    8) = (   0.0000000   0.1666667  -0.3340779), wk =   0.0370370
        k(    9) = (   0.0000000   0.3333333   0.0000000), wk =   0.0370370
        k(   10) = (   0.0000000   0.3333333   0.1113593), wk =   0.0740741
        k(   11) = (   0.0000000   0.3333333   0.2227186), wk =   0.0740741
        k(   12) = (   0.0000000   0.3333333  -0.3340779), wk =   0.0370370
        k(   13) = (   0.0000000  -0.5000000   0.0000000), wk =   0.0185185
        k(   14) = (   0.0000000  -0.5000000   0.1113593), wk =   0.0370370
        k(   15) = (   0.0000000  -0.5000000   0.2227186), wk =   0.0370370
        k(   16) = (   0.0000000  -0.5000000  -0.3340779), wk =   0.0185185
        k(   17) = (   0.1666667   0.1666667   0.0000000), wk =   0.0370370
        k(   18) = (   0.1666667   0.1666667   0.1113593), wk =   0.0740741
        k(   19) = (   0.1666667   0.1666667   0.2227186), wk =   0.0740741
        k(   20) = (   0.1666667   0.1666667  -0.3340779), wk =   0.0370370
        k(   21) = (   0.1666667   0.3333333   0.0000000), wk =   0.0740741
        k(   22) = (   0.1666667   0.3333333   0.1113593), wk =   0.1481481
        k(   23) = (   0.1666667   0.3333333   0.2227186), wk =   0.1481481
        k(   24) = (   0.1666667   0.3333333  -0.3340779), wk =   0.0740741
        k(   25) = (   0.1666667  -0.5000000   0.0000000), wk =   0.0370370
        k(   26) = (   0.1666667  -0.5000000   0.1113593), wk =   0.0740741
        k(   27) = (   0.1666667  -0.5000000   0.2227186), wk =   0.0740741
        k(   28) = (   0.1666667  -0.5000000  -0.3340779), wk =   0.0370370
        k(   29) = (   0.3333333   0.3333333   0.0000000), wk =   0.0370370
        k(   30) = (   0.3333333   0.3333333   0.1113593), wk =   0.0740741
        k(   31) = (   0.3333333   0.3333333   0.2227186), wk =   0.0740741
        k(   32) = (   0.3333333   0.3333333  -0.3340779), wk =   0.0370370
        k(   33) = (   0.3333333  -0.5000000   0.0000000), wk =   0.0370370
        k(   34) = (   0.3333333  -0.5000000   0.1113593), wk =   0.0740741
        k(   35) = (   0.3333333  -0.5000000   0.2227186), wk =   0.0740741
        k(   36) = (   0.3333333  -0.5000000  -0.3340779), wk =   0.0370370
        k(   37) = (  -0.5000000  -0.5000000   0.0000000), wk =   0.0092593
        k(   38) = (  -0.5000000  -0.5000000   0.1113593), wk =   0.0185185
        k(   39) = (  -0.5000000  -0.5000000   0.2227186), wk =   0.0185185
        k(   40) = (  -0.5000000  -0.5000000  -0.3340779), wk =   0.0092593

     Initial potential from superposition of free atoms

     starting charge  183.99828, renormalised to  184.00000
     Starting wfcs are  116 randomized atomic wfcs

     Self-consistent Calculation

     iteration #  1     ecut=   120.00 Ry     beta= 0.70
     Davidson diagonalization with overlap
     ethr =  1.00E-02,  avg # of iterations =  4.2

     total energy              =   -3126.71075769 Ry
     Harris-Foulkes estimate   =   -3132.26382667 Ry
     estimated scf accuracy    <       7.01869928 Ry

[...]

     End of self-consistent calculation

          k = 0.0000 0.0000 0.0000 ( 31095 PWs)   bands (ev):

   -66.2104 -66.2101 -66.2089 -66.2085 -30.5879 -30.5879 -30.5845 -30.5845
   -30.4996 -30.4996 -30.4971 -30.4971 -30.4567 -30.4536 -30.3973 -30.3955
   -20.3789 -20.3789 -20.3788 -20.3788 -20.3787 -20.3787 -20.3786 -20.3785
   -20.3762 -20.3762 -20.3762 -20.3762 -20.3521 -20.3521 -20.3514 -20.3513
   -20.3428 -20.3423 -20.3394 -20.3394 -20.3382 -20.3382 -20.3370 -20.3370
   -20.3370 -20.3365 -20.3357 -20.3357 -10.0503  -9.7661  -9.0918  -9.0721
    -8.8392  -8.5722  -7.7801  -7.7801  -7.7631  -7.7631  -7.5682  -7.4147
     0.9725   0.9779   1.3654   1.4257   1.6166   1.7535   2.3231   2.4204
     2.5554   2.5554   3.8394   3.8394   4.9639   5.3012   5.3012   5.6104
     5.6104   5.9505   5.9505   6.0274   6.2049   6.3008   6.3008   6.8307
     6.8307   6.8814   7.1170   7.1805   7.1805   7.2611   7.2611   7.3914
     8.3607   8.3645   8.5183   8.5183   8.9529   8.9720   9.6362   9.6362
    12.3042  12.3042  13.4391  13.5201  13.5201  13.6572  13.6711  14.2180
    14.2180  14.5819  14.5833  14.6782  15.2778  16.4333

[...]

          k =-0.5000-0.5000 0.0000 ( 31144 PWs)   bands (ev):

[...]

     the Fermi energy is     8.6490 ev

!    total energy              =   -3130.45537674 Ry
     Harris-Foulkes estimate   =   -3130.45537675 Ry
     estimated scf accuracy    <          3.5E-09 Ry

     The total energy is the sum of the following terms:

     one-electron contribution =   -2369.03811982 Ry
     hartree contribution      =    1302.94819185 Ry
     xc contribution           =    -482.88335016 Ry
     ewald contribution        =   -1581.48209862 Ry
     smearing contrib. (-TS)   =      -0.00000000 Ry

     convergence has been achieved in  12 iterations

     Forces acting on atoms (cartesian axes, Ry/au):

     atom    1 type  1   force =     0.00000000    0.00000000   -0.06269861
     atom    2 type  1   force =     0.00000000    0.00000000    0.06269861
     atom    3 type  1   force =     0.00000000    0.00000000    0.06269861
     atom    4 type  1   force =     0.00000000    0.00000000   -0.06269861
     atom    5 type  2   force =     0.00000000    0.00000000    0.14538645
     atom    6 type  2   force =     0.00000000    0.00000000   -0.14538645
     atom    7 type  2   force =     0.00000000    0.00000000   -0.14538645
     atom    8 type  2   force =     0.00000000    0.00000000    0.14538645
     atom    9 type  2   force =     0.00349268   -0.00349268    0.00000000
     atom   10 type  2   force =    -0.00349268    0.00349268    0.00000000
     atom   11 type  2   force =    -0.00349268    0.00349268    0.00000000
     atom   12 type  2   force =     0.00349268   -0.00349268    0.00000000
     atom   13 type  2   force =     0.00349268    0.00349268    0.00000000
     atom   14 type  2   force =    -0.00349268   -0.00349268    0.00000000
     atom   15 type  2   force =    -0.00349268   -0.00349268    0.00000000
[...]

     new trust radius        =       0.1304192227 bohr
     new conv_thr            =       0.0000000100 Ry

     new unit-cell volume =   1405.00481 a.u.^3 (   208.20023 Ang^3 )
     density =      7.39627 g/cm^3

CELL_PARAMETERS (angstrom)
   5.228955796   0.000000000   0.000000000
   0.000000000   5.228955796   0.000000000
   0.000000000   0.000000000   7.614673069

ATOMIC_POSITIONS (crystal)
W        0.250000000   0.250000000   0.204879636    0   0   0
W        0.750000023   0.750000023   0.795120379    0   0   0
W        0.750000023   0.750000023   0.295120379    0   0   0
W        0.250000000   0.250000000   0.704879621    0   0   0
O        0.250000000   0.250000000   0.466613816    0   0   0
O        0.750000023   0.750000023   0.533386184    0   0   0
O        0.750000023   0.750000023   0.033386197    0   0   0
O        0.250000000   0.250000000   0.966613816    0   0   0
O        0.517871092   0.482128862   0.250000000    0   0   0
O        0.482128908   0.517871138   0.750000000    0   0   0
O       -0.017871109   1.017871138   0.250000000    0   0   0
O        1.017871046  -0.017871075   0.750000000    0   0   0
O        1.017871138   0.517871092   0.250000000    0   0   0
O       -0.017871075   0.482128908   0.750000000    0   0   0
O        0.482128862  -0.017871109   0.250000000    0   0   0
O        0.517871138   1.017871046   0.750000000    0   0   0

     Writing output data file Landau_39.save/
     NEW-OLD atomic charge density approx. for the potential
     extrapolated charge  184.37367, renormalised to  184.00000

[...]

     enthalpy old            =   -3130.4553767439 Ry
     enthalpy new            =   -3130.4700285485 Ry

     CASE: enthalpy_new < enthalpy_old

[...]

     Threshold (ethr) on eigenvalues was too large:
     Diagonalizing with lowered threshold

     Davidson diagonalization with overlap
     ethr =  8.12E-09,  avg # of iterations =  3.0

[...]

     number of scf cycles    =   4
     number of bfgs steps    =   3

     enthalpy old            =   -3130.4700466549 Ry
     enthalpy new            =   -3130.4700467948 Ry

     CASE: enthalpy_new < enthalpy_old

     small trust_radius: resetting bfgs history

     new trust radius        =       0.0000944865 bohr
     new conv_thr            =            1.0E-10 Ry

     new unit-cell volume =   1405.01102 a.u.^3 (   208.20115 Ang^3 )
     density =      7.39624 g/cm^3

[...]

ATOMIC_POSITIONS (crystal)
W        0.250000000   0.250000000   0.204879636    0   0   0
W        0.750000023   0.750000023   0.795120379    0   0   0
W        0.750000023   0.750000023   0.295120379    0   0   0
W        0.250000000   0.250000000   0.704879621    0   0   0
O        0.250000000   0.250000000   0.466613816    0   0   0
O        0.750000023   0.750000023   0.533386184    0   0   0
O        0.750000023   0.750000023   0.033386197    0   0   0
O        0.250000000   0.250000000   0.966613816    0   0   0
O        0.517871092   0.482128862   0.250000000    0   0   0
O        0.482128908   0.517871138   0.750000000    0   0   0
O       -0.017871109   1.017871138   0.250000000    0   0   0
O        1.017871046  -0.017871075   0.750000000    0   0   0
O        1.017871138   0.517871092   0.250000000    0   0   0
O       -0.017871075   0.482128908   0.750000000    0   0   0
O        0.482128862  -0.017871109   0.250000000    0   0   0
O        0.517871138   1.017871046   0.750000000    0   0   0

     Writing output data file Landau_39.save/
     NEW-OLD atomic charge density approx. for the potential
     extrapolated charge  183.99342, renormalised to  184.00000

[...]

     Threshold (ethr) on eigenvalues was too large:
     Diagonalizing with lowered threshold

     Davidson diagonalization with overlap
     ethr =  2.61E-09,  avg # of iterations =  2.1

[...]

     bfgs converged in   5 scf cycles and   4 bfgs steps
     (criteria: energy <  1.0E-07 Ry, force <  1.0E-07Ry/Bohr, cell <  5.0E-01kbar)

     End of BFGS Geometry Optimization

     Final enthalpy =   -3130.4700468019 Ry
Begin final coordinates
     new unit-cell volume =   1405.01102 a.u.^3 (   208.20115 Ang^3 )
     density =      7.39624 g/cm^3

CELL_PARAMETERS (angstrom)
   5.230687212   0.000000000   0.000000000
   0.000000000   5.230687212   0.000000000
   0.000000000   0.000000000   7.609666452

ATOMIC_POSITIONS (crystal)
W        0.250000000   0.250000000   0.204879636    0   0   0
W        0.750000023   0.750000023   0.795120379    0   0   0
W        0.750000023   0.750000023   0.295120379    0   0   0
W        0.250000000   0.250000000   0.704879621    0   0   0
O        0.250000000   0.250000000   0.466613816    0   0   0
O        0.750000023   0.750000023   0.533386184    0   0   0
O        0.750000023   0.750000023   0.033386197    0   0   0
O        0.250000000   0.250000000   0.966613816    0   0   0
O        0.517871092   0.482128862   0.250000000    0   0   0
O        0.482128908   0.517871138   0.750000000    0   0   0
O       -0.017871109   1.017871138   0.250000000    0   0   0
O        1.017871046  -0.017871075   0.750000000    0   0   0
O        1.017871138   0.517871092   0.250000000    0   0   0
O       -0.017871075   0.482128908   0.750000000    0   0   0
O        0.482128862  -0.017871109   0.250000000    0   0   0
O        0.517871138   1.017871046   0.750000000    0   0   0
End final coordinates

     Writing output data file Landau_39.save/

     Final scf calculation at the relaxed structure.
     The G-vectors are recalculated for the final unit cell
     Results may differ from those at the preceding step.

     bravais-lattice index     =            0
     lattice parameter (alat)  =       9.7849  a.u.
     unit-cell volume          =    1405.0110 (a.u.)^3
     number of atoms/cell      =           16
     number of atomic types    =            2
     number of electrons       =       184.00
     number of Kohn-Sham states=          110
     kinetic-energy cutoff     =     120.0000  Ry
     charge density cutoff     =     480.0000  Ry
     convergence threshold     =      1.0E-10
     mixing beta               =       0.7000
     number of iterations used =            8  plain     mixing
     Exchange-correlation      = SLA PW NOGX NOGC ( 1  4  0  0 0 0)

     celldm(1)=   9.784926  celldm(2)=   0.000000  celldm(3)=   0.000000
     celldm(4)=   0.000000  celldm(5)=   0.000000  celldm(6)=   0.000000

     crystal axes: (cart. coord. in units of alat)
               a(1) = (   1.010183   0.000000   0.000000 )
               a(2) = (   0.000000   1.010183   0.000000 )
               a(3) = (   0.000000   0.000000   1.469626 )

     reciprocal axes: (cart. coord. in units 2 pi/alat)
               b(1) = (  0.989920  0.000000  0.000000 )
               b(2) = (  0.000000  0.989920  0.000000 )
               b(3) = (  0.000000  0.000000  0.680445 )

     PseudoPot. # 1 for W  read from file:
     /cluster/scratch/mnoe/QE/pps/W_ONCV_LDA-4.0.upf
     MD5 check sum: ba0307d5d4cd419d6f1d13dc49d7c13a
     Pseudo is Norm-conserving + core correction, Zval = 28.0
     Generated using ONCVPSP code by D. R. Hamann
     Using radial grid of 1380 points,  8 beta functions with:
                l(1) =   0
                l(2) =   0
                l(3) =   1
                l(4) =   1
                l(5) =   2
                l(6) =   2
                l(7) =   3
                l(8) =   3

     PseudoPot. # 2 for O  read from file:
     /cluster/scratch/mnoe/QE/pps/O_ONCV_LDA-3.0.upf
     MD5 check sum: b55cdb4f45ae2203d24ad12cf8d61a31
     Pseudo is Norm-conserving + core correction, Zval =  6.0
     Generated using ONCVPSP code by D. R. Hamann
     Using radial grid of  926 points,  5 beta functions with:
                l(1) =   0
                l(2) =   0
                l(3) =   1
                l(4) =   1
                l(5) =   2

     atomic species   valence    mass     pseudopotential
        W             28.00   183.84000     W ( 1.00)
        O              6.00    15.99940     O ( 1.00)

     16 Sym. Ops., with inversion, found (14 have fractional translation)

   Cartesian axes

     site n.     atom                  positions (alat units)
         1           W   tau(   1) = (   0.2525458   0.2525458   0.3010965  )
         2           W   tau(   2) = (   0.7576373   0.7576373   1.1685299  )
         3           W   tau(   3) = (   0.7576373   0.7576373   0.4337167  )
         4           W   tau(   4) = (   0.2525458   0.2525458   1.0359097  )
         5           O   tau(   5) = (   0.2525458   0.2525458   0.6857480  )
         6           O   tau(   6) = (   0.7576373   0.7576373   0.7838784  )
         7           O   tau(   7) = (   0.7576373   0.7576373   0.0490652  )
         8           O   tau(   8) = (   0.2525458   0.2525458   1.4205612  )
         9           O   tau(   9) = (   0.5231446   0.4870384   0.3674066  )
        10           O   tau(  10) = (   0.4870384   0.5231446   1.1022198  )
        11           O   tau(  11) = (  -0.0180531   1.0282361   0.3674066  )
        12           O   tau(  12) = (   1.0282361  -0.0180531   1.1022198  )
        13           O   tau(  13) = (   1.0282361   0.5231446   0.3674066  )
        14           O   tau(  14) = (  -0.0180531   0.4870384   1.1022198  )
        15           O   tau(  15) = (   0.4870384  -0.0180531   0.3674066  )
        16           O   tau(  16) = (   0.5231446   1.0282361   1.1022198  )

     number of k points=    40  gaussian smearing, width (Ry)=  0.0007
                       cart. coord. in units 2pi/alat
        k(    1) = (   0.0000000   0.0000000   0.0000000), wk =   0.0092593
        k(    2) = (   0.0000000   0.0000000   0.1134075), wk =   0.0185185
        k(    3) = (   0.0000000   0.0000000   0.2268150), wk =   0.0185185
        k(    4) = (   0.0000000   0.0000000  -0.3402225), wk =   0.0092593
        k(    5) = (   0.0000000   0.1649866   0.0000000), wk =   0.0370370
        k(    6) = (   0.0000000   0.1649866   0.1134075), wk =   0.0740741
        k(    7) = (   0.0000000   0.1649866   0.2268150), wk =   0.0740741
        k(    8) = (   0.0000000   0.1649866  -0.3402225), wk =   0.0370370
        k(    9) = (   0.0000000   0.3299732   0.0000000), wk =   0.0370370
        k(   10) = (   0.0000000   0.3299732   0.1134075), wk =   0.0740741
        k(   11) = (   0.0000000   0.3299732   0.2268150), wk =   0.0740741
        k(   12) = (   0.0000000   0.3299732  -0.3402225), wk =   0.0370370
        k(   13) = (   0.0000000  -0.4949598   0.0000000), wk =   0.0185185
        k(   14) = (   0.0000000  -0.4949598   0.1134075), wk =   0.0370370
        k(   15) = (   0.0000000  -0.4949598   0.2268150), wk =   0.0370370
        k(   16) = (   0.0000000  -0.4949598  -0.3402225), wk =   0.0185185
        k(   17) = (   0.1649866   0.1649866   0.0000000), wk =   0.0370370
        k(   18) = (   0.1649866   0.1649866   0.1134075), wk =   0.0740741
        k(   19) = (   0.1649866   0.1649866   0.2268150), wk =   0.0740741
        k(   20) = (   0.1649866   0.1649866  -0.3402225), wk =   0.0370370
        k(   21) = (   0.1649866   0.3299732   0.0000000), wk =   0.0740741
        k(   22) = (   0.1649866   0.3299732   0.1134075), wk =   0.1481481
        k(   23) = (   0.1649866   0.3299732   0.2268150), wk =   0.1481481
        k(   24) = (   0.1649866   0.3299732  -0.3402225), wk =   0.0740741
        k(   25) = (   0.1649866  -0.4949598   0.0000000), wk =   0.0370370
        k(   26) = (   0.1649866  -0.4949598   0.1134075), wk =   0.0740741
        k(   27) = (   0.1649866  -0.4949598   0.2268150), wk =   0.0740741
        k(   28) = (   0.1649866  -0.4949598  -0.3402225), wk =   0.0370370
        k(   29) = (   0.3299732   0.3299732   0.0000000), wk =   0.0370370
        k(   30) = (   0.3299732   0.3299732   0.1134075), wk =   0.0740741
        k(   31) = (   0.3299732   0.3299732   0.2268150), wk =   0.0740741
        k(   32) = (   0.3299732   0.3299732  -0.3402225), wk =   0.0370370
        k(   33) = (   0.3299732  -0.4949598   0.0000000), wk =   0.0370370
        k(   34) = (   0.3299732  -0.4949598   0.1134075), wk =   0.0740741
        k(   35) = (   0.3299732  -0.4949598   0.2268150), wk =   0.0740741
        k(   36) = (   0.3299732  -0.4949598  -0.3402225), wk =   0.0370370
        k(   37) = (  -0.4949598  -0.4949598   0.0000000), wk =   0.0092593
        k(   38) = (  -0.4949598  -0.4949598   0.1134075), wk =   0.0185185
        k(   39) = (  -0.4949598  -0.4949598   0.2268150), wk =   0.0185185
        k(   40) = (  -0.4949598  -0.4949598  -0.3402225), wk =   0.0092593

     Initial potential from superposition of free atoms

     starting charge  183.99828, renormalised to  184.00000
     Starting wfcs are  116 randomized atomic wfcs

     Self-consistent Calculation

[...]

     total energy              =   -3130.47012312 Ry
     Harris-Foulkes estimate   =   -3130.47012312 Ry
     estimated scf accuracy    <          5.7E-10 Ry

     iteration # 13     ecut=   120.00 Ry     beta= 0.70
     Davidson diagonalization with overlap
     ethr =  3.12E-13,  avg # of iterations =  3.0

     End of self-consistent calculation

[...]

          k = 0.3300-0.4950-0.3402 ( 31204 PWs)   bands (ev):

[...]

          k =-0.4950-0.4950-0.3402 ( 31216 PWs)   bands (ev):

   -66.2406 -66.2406 -66.2406 -66.2406 -30.5796 -30.5796 -30.5796 -30.5796
   -30.5214 -30.5214 -30.5213 -30.5213 -30.4926 -30.4926 -30.4926 -30.4926
   -20.4160 -20.4160 -20.4160 -20.4160 -20.4121 -20.4121 -20.4121 -20.4121
   -20.4103 -20.4103 -20.4103 -20.4103 -20.3853 -20.3853 -20.3852 -20.3852
   -20.3718 -20.3718 -20.3718 -20.3718 -20.3684 -20.3684 -20.3684 -20.3684
   -20.3662 -20.3662 -20.3662 -20.3662  -9.3628  -9.3628  -9.3628  -9.3628
    -8.4005  -8.4005  -8.4004  -8.4004  -7.7890  -7.7890  -7.7890  -7.7890
     1.3084   1.3084   1.3084   1.3084   3.0509   3.0509   3.0509   3.0509
     3.3407   3.3407   3.3407   3.3407   4.7250   4.7250   4.7250   4.7250
     5.4358   5.4358   5.4358   5.4358   6.0152   6.0152   6.0152   6.0152
     6.3229   6.3229   6.3229   6.3229   6.8057   6.8057   6.8057   6.8057
     7.6738   7.6738   7.6738   7.6738  11.2093  11.2093  11.2093  11.2093
    12.4280  12.4280  12.4280  12.4280  13.6354  13.6354  13.6354  13.6354
    15.0179  15.0179  15.0179  15.0179  18.1138  18.1138

     the Fermi energy is     8.9030 ev

!    total energy              =   -3130.47012312 Ry
     Harris-Foulkes estimate   =   -3130.47012312 Ry
     estimated scf accuracy    <          1.8E-11 Ry

     The total energy is the sum of the following terms:

     one-electron contribution =   -2370.58716977 Ry
     hartree contribution      =    1303.51786591 Ry
     xc contribution           =    -482.86646674 Ry
     ewald contribution        =   -1580.53435252 Ry
     smearing contrib. (-TS)   =      -0.00000000 Ry

     convergence has been achieved in  13 iterations

     Forces acting on atoms (cartesian axes, Ry/au):

     atom    1 type  1   force =     0.00000000    0.00000000   -0.02717418
     atom    2 type  1   force =     0.00000000    0.00000000    0.02717418
     atom    3 type  1   force =     0.00000000    0.00000000    0.02717418
     atom    4 type  1   force =     0.00000000    0.00000000   -0.02717418
     atom    5 type  2   force =     0.00000000    0.00000000    0.12574969
     atom    6 type  2   force =     0.00000000    0.00000000   -0.12574969
     atom    7 type  2   force =     0.00000000    0.00000000   -0.12574969
     atom    8 type  2   force =     0.00000000    0.00000000    0.12574969
     atom    9 type  2   force =     0.00151080   -0.00151080    0.00000000
     atom   10 type  2   force =    -0.00151080    0.00151080    0.00000000
     atom   11 type  2   force =    -0.00151080    0.00151080    0.00000000
     atom   12 type  2   force =     0.00151080   -0.00151080    0.00000000
     atom   13 type  2   force =     0.00151080    0.00151080    0.00000000
     atom   14 type  2   force =    -0.00151080   -0.00151080    0.00000000
     atom   15 type  2   force =    -0.00151080   -0.00151080    0.00000000
     atom   16 type  2   force =     0.00151080    0.00151080    0.00000000

     Total force =     0.000000     Total SCF correction =     0.000000

     Computing stress (Cartesian axis) and pressure

          total   stress  (Ry/bohr**3)                   (kbar)     P=    0.28
   0.00000352   0.00000000   0.00000000          0.52      0.00      0.00
   0.00000000   0.00000352   0.00000000          0.00      0.52      0.00
   0.00000000   0.00000000  -0.00000126          0.00      0.00     -0.19

     Writing output data file Landau_39.save/

     General routines

     Parallel routines

   This run was terminated on:  19:25:49  19Nov2019

   JOB DONE.