     Program PWSCF v.6.2 (svn rev. 14038) starts on  5Mar2020 at  2:20:16

     K-points division:     npool     =      64
     Reading input from rscf.in

     Current dimensions of program PWSCF are:
     Max number of different atomic species (ntypx) = 10
     Max number of k-points (npk) =  40000
     Max angular momentum in pseudopotentials (lmaxx) =  3

     Subspace diagonalization in iterative solution of the eigenvalue problem:
     a serial algorithm will be used

     Found symmetry operation: I + (  0.5000  0.0000 -0.5000)
     This is a supercell, fractional translations are disabled

     bravais-lattice index     =            0
     lattice parameter (alat)  =      13.8397  a.u.
     unit-cell volume          =    2804.9816 (a.u.)^3
     number of atoms/cell      =           32
     number of atomic types    =            2
     number of electrons       =       368.00
     number of Kohn-Sham states=          221
     kinetic-energy cutoff     =     120.0000  Ry
     charge density cutoff     =     480.0000  Ry
     convergence threshold     =      1.0E-08
     mixing beta               =       0.7000
     number of iterations used =            8  plain     mixing
     Exchange-correlation      = SLA PW NOGX NOGC ( 1  4  0  0 0 0)
     nstep                     =           50

     celldm(1)=  13.839685  celldm(2)=   0.000000  celldm(3)=   0.000000
     celldm(4)=   0.000000  celldm(5)=   0.000000  celldm(6)=   0.000000

     crystal axes: (cart. coord. in units of alat)
               a(1) = (   1.000000   0.000000   0.000000 )
               a(2) = (   0.000000   1.058160   0.000000 )
               a(3) = (   0.000000   0.000000   1.000000 )

     reciprocal axes: (cart. coord. in units 2 pi/alat)
               b(1) = (  1.000000  0.000000  0.000000 )
               b(2) = (  0.000000  0.945037  0.000000 )
               b(3) = (  0.000000  0.000000  1.000000 )

     PseudoPot. # 1 for W  read from file:
     /cluster/scratch/mnoe/QE/pps/W_ONCV_LDA-4.0.upf
     MD5 check sum: ba0307d5d4cd419d6f1d13dc49d7c13a
     Pseudo is Norm-conserving + core correction, Zval = 28.0
     Generated using ONCVPSP code by D. R. Hamann
     Using radial grid of 1380 points,  8 beta functions with:
                l(1) =   0
                l(2) =   0
                l(3) =   1
                l(4) =   1
                l(5) =   2
                l(6) =   2
                l(7) =   3
                l(8) =   3

     PseudoPot. # 2 for O  read from file:
     /cluster/scratch/mnoe/QE/pps/O_ONCV_LDA-3.0.upf
     MD5 check sum: a1bd6164e7280c17a38c229939bfbd54
     Pseudo is Norm-conserving + core correction, Zval =  6.0
     Generated using ONCVPSP code by D. R. Hamann
     Using radial grid of  926 points,  5 beta functions with:
                l(1) =   0
                l(2) =   0
                l(3) =   1
                l(4) =   1
                l(5) =   2

     atomic species   valence    mass     pseudopotential
        W             28.00   183.84000     W ( 1.00)
        O              6.00    15.99940     O ( 1.00)

      2 Sym. Ops., with inversion, found

   Cartesian axes

     site n.     atom                  positions (alat units)
         1           W   tau(   1) = (   0.2500000   0.2818290   0.0000000  )
         2           W   tau(   2) = (   0.7499999   0.7763311   0.0000000  )
         3           W   tau(   3) = (   0.2500000   0.2472511   0.5000000  )
         4           W   tau(   4) = (   0.7499999   0.8109092   0.5000000  )
         5           W   tau(   5) = (   0.7499999   0.2818290   0.5000000  )
         6           W   tau(   6) = (   0.2500000   0.7763311   0.5000000  )
         7           W   tau(   7) = (   0.7499999   0.2472511   0.0000000  )
         8           W   tau(   8) = (   0.2500000   0.8109092   0.0000000  )
         9           O   tau(   9) = (   0.2500000   0.0043295   0.0000000  )
        10           O   tau(  10) = (   0.7499999   1.0538305   0.0000000  )
        11           O   tau(  11) = (   0.2500000   0.5247506   0.5000000  )
        12           O   tau(  12) = (   0.7499999   0.5334096   0.5000000  )
        13           O   tau(  13) = (   0.7499999   0.0043295   0.5000000  )
        14           O   tau(  14) = (   0.2500000   1.0538305   0.5000000  )
        15           O   tau(  15) = (   0.7499999   0.5247506   0.0000000  )
        16           O   tau(  16) = (   0.2500000   0.5334096   0.0000000  )
        17           O   tau(  17) = (   0.5000000   0.2645400   0.4874927  )
        18           O   tau(  18) = (   0.5000000   0.7936201   0.5125075  )
        19           O   tau(  19) = (   0.0000000   0.2645400   0.9874927  )
        20           O   tau(  20) = (   0.0000000   0.7936201   0.0125072  )
        21           O   tau(  21) = (   0.5000000   0.2645400   0.0125072  )
        22           O   tau(  22) = (   0.5000000   0.7936201   0.9874927  )
        23           O   tau(  23) = (   0.0000000   0.2645400   0.5125075  )
        24           O   tau(  24) = (   0.0000000   0.7936201   0.4874927  )
        25           O   tau(  25) = (   0.7374926   0.2645400   0.7499999  )
        26           O   tau(  26) = (   0.2625073   0.7936201   0.2500000  )
        27           O   tau(  27) = (   0.7625076   0.2645400   0.2500000  )
        28           O   tau(  28) = (   0.2374927   0.7936201   0.7499999  )
        29           O   tau(  29) = (   0.2625073   0.2645400   0.7499999  )
        30           O   tau(  30) = (   0.7374926   0.7936201   0.2500000  )
        31           O   tau(  31) = (   0.2374927   0.2645400   0.2500000  )
        32           O   tau(  32) = (   0.7625076   0.7936201   0.7499999  )

     number of k points=   112  gaussian smearing, width (Ry)=  0.0007

     Number of k-points >= 100: set verbosity='high' to print them.

     Initial potential from superposition of free atoms

     starting charge  367.99656, renormalised to  368.00000
     Starting wfc are  232 randomized atomic wfcs

     Self-consistent Calculation

     iteration #  1     ecut=   120.00 Ry     beta= 0.70
     Davidson diagonalization with overlap
     ethr =  1.00E-02,  avg # of iterations =  5.5

     total energy              =   -6253.99237042 Ry
     Harris-Foulkes estimate   =   -6264.51284659 Ry
     estimated scf accuracy    <      13.36672394 Ry

[...]

     End of self-consistent calculation

     Number of k-points >= 100: set verbosity='high' to print the bands.

     the Fermi energy is     8.4426 ev

!    total energy              =   -6260.96425170 Ry
     Harris-Foulkes estimate   =   -6260.96425171 Ry
     estimated scf accuracy    <          2.6E-09 Ry

     The total energy is the sum of the following terms:

     one-electron contribution =   -4815.82386131 Ry
     hartree contribution      =    2644.78377931 Ry
     xc contribution           =    -966.70505615 Ry
     ewald contribution        =   -3123.21911356 Ry
     smearing contrib. (-TS)   =      -0.00000000 Ry

     convergence has been achieved in  14 iterations

     Forces acting on atoms (cartesian axes, Ry/au):

     atom    1 type  1   force =     0.00000080    0.06538604   -0.00000201
     atom    2 type  1   force =    -0.00000080   -0.06538604    0.00000201
     atom    3 type  1   force =     0.00003270   -0.06540523    0.00000094
     atom    4 type  1   force =    -0.00003270    0.06540523   -0.00000094
     atom    5 type  1   force =    -0.00002123    0.06545161    0.00001585
     atom    6 type  1   force =     0.00002123   -0.06545161   -0.00001585
     atom    7 type  1   force =    -0.00000349   -0.06546634   -0.00002245
     atom    8 type  1   force =     0.00000349    0.06546634    0.00002245
     atom    9 type  2   force =     0.00000037   -0.03244675    0.00000015
     atom   10 type  2   force =    -0.00000037    0.03244675   -0.00000015
     atom   11 type  2   force =     0.00000070    0.03244712   -0.00000023
     atom   12 type  2   force =    -0.00000070   -0.03244712    0.00000023
     atom   13 type  2   force =     0.00000020   -0.03245083   -0.00000023
     atom   14 type  2   force =    -0.00000020    0.03245083    0.00000023
     atom   15 type  2   force =    -0.00000026    0.03245198   -0.00000003
     atom   16 type  2   force =     0.00000026   -0.03245198    0.00000003
     atom   17 type  2   force =    -0.00000222    0.00000006   -0.00749570
     atom   18 type  2   force =     0.00000222   -0.00000006    0.00749570
     atom   19 type  2   force =    -0.00000068    0.00000105   -0.00749536
     atom   20 type  2   force =     0.00000068   -0.00000105    0.00749536
     atom   21 type  2   force =    -0.00000087    0.00000016    0.00749616
     atom   22 type  2   force =     0.00000087   -0.00000016   -0.00749616
     atom   23 type  2   force =     0.00000115   -0.00000106    0.00749509
     atom   24 type  2   force =    -0.00000115    0.00000106   -0.00749509
     atom   25 type  2   force =    -0.00749624   -0.00000031    0.00000087
     atom   26 type  2   force =     0.00749624    0.00000031   -0.00000087
     atom   27 type  2   force =     0.00749682   -0.00000027   -0.00000020
     atom   28 type  2   force =    -0.00749682    0.00000027    0.00000020
     atom   29 type  2   force =     0.00749556   -0.00000006    0.00000027
     atom   30 type  2   force =    -0.00749556    0.00000006   -0.00000027
     atom   31 type  2   force =    -0.00749612   -0.00000006   -0.00000006
     atom   32 type  2   force =     0.00749612    0.00000006    0.00000006

     Total force =     0.000000     Total SCF correction =     0.000000

     Computing stress (Cartesian axis) and pressure

          total   stress  (Ry/bohr**3)                   (kbar)     P=   99.50
   0.00135603   0.00000000  -0.00000000        199.48      0.00     -0.00
   0.00000000  -0.00068300   0.00000000          0.00   -100.47      0.00
  -0.00000000   0.00000000   0.00135604         -0.00      0.00    199.48

     BFGS Geometry Optimization

     number of scf cycles    =   1
     number of bfgs steps    =   0

     enthalpy new            =   -6260.9642517043 Ry

     new trust radius        =       0.3590929253 bohr
     new conv_thr            =       0.0000000100 Ry

     new unit-cell volume =   2947.19027 a.u.^3 (   436.72853 Ang^3 )
     density =      7.05200 g/cm^3

CELL_PARAMETERS (angstrom)
   7.571923288   0.000000167  -0.000000098
   0.000000176   7.617265274   0.000000276
  -0.000000098   0.000000260   7.571924615

ATOMIC_POSITIONS (crystal)
W        0.250000000   0.266338697   0.000000000    0   0   0
W        0.749999917   0.733661303   0.000000000    0   0   0
W        0.250000000   0.233661323   0.500000000    0   0   0
W        0.749999917   0.766338826   0.500000000    0   0   0
W        0.749999917   0.266338697   0.500000000    0   0   0
W        0.250000000   0.733661303   0.500000000    0   0   0
W        0.749999917   0.233661323   0.000000000    0   0   0
W        0.250000000   0.766338826   0.000000000    0   0   0
O        0.250000000   0.004091536   0.000000000    0   0   0
O        0.749999917   0.995908379   0.000000000    0   0   0
[...]
O        0.500000000   0.750000062   0.512507485    0   0   0
O       -0.000000000   0.250000000   0.987492685    0   0   0
O       -0.000000000   0.750000062   0.012507220    0   0   0
O        0.500000000   0.250000000   0.012507220    0   0   0
O        0.500000000   0.750000062   0.987492685    0   0   0
O        0.000000000   0.250000000   0.512507485    0   0   0
O       -0.000000000   0.750000062   0.487492652    0   0   0
O        0.737492597   0.250000000   0.749999917    0   0   0
O        0.262507266   0.750000062   0.250000000    0   0   0
O        0.762507568   0.250000000   0.250000000    0   0   0
O        0.237492668   0.750000062   0.749999917    0   0   0
O        0.262507266   0.250000000   0.749999917    0   0   0
O        0.737492597   0.750000062   0.250000000    0   0   0
O        0.237492668   0.250000000   0.250000000    0   0   0
O        0.762507568   0.750000062   0.749999917    0   0   0

     Writing output data file Landau_39.save
     NEW-OLD atomic charge density approx. for the potential
     extrapolated charge  385.75667, renormalised to  368.00000

[...]

     iteration #  1     ecut=   120.00 Ry     beta= 0.70
     Davidson diagonalization with overlap
     c_bands:  1 eigenvalues not converged
     ethr =  1.00E-06,  avg # of iterations = 15.5

[...]

     enthalpy old            =   -6260.9642517043 Ry
     enthalpy new            =   -6261.0661938106 Ry

     CASE: enthalpy_new < enthalpy_old

[...]

     Threshold (ethr) on eigenvalues was too large:
     Diagonalizing with lowered threshold

     Davidson diagonalization with overlap
     ethr =  2.89E-08,  avg # of iterations =  3.0

[...]

     number of scf cycles    =   5
     number of bfgs steps    =   4

     enthalpy old            =   -6261.0767748789 Ry
     enthalpy new            =   -6261.0767868081 Ry

     CASE: enthalpy_new < enthalpy_old

     small trust_radius: resetting bfgs history

     new trust radius        =       0.0000549841 bohr
     new conv_thr            =            1.0E-10 Ry

     new unit-cell volume =   2892.47100 a.u.^3 (   428.61997 Ang^3 )
     density =      7.18541 g/cm^3

[...]

ATOMIC_POSITIONS (crystal)
W        0.250000000   0.266338697  -0.000000000    0   0   0
W        0.749999917   0.733661303  -0.000000000    0   0   0
W        0.250000000   0.233661323   0.500000000    0   0   0
W        0.749999917   0.766338826   0.500000000    0   0   0
W        0.749999917   0.266338697   0.500000000    0   0   0
W        0.250000000   0.733661303   0.500000000    0   0   0
W        0.749999917   0.233661323  -0.000000000    0   0   0
W        0.250000000   0.766338826   0.000000000    0   0   0
O        0.250000000   0.004091536  -0.000000000    0   0   0
O        0.749999917   0.995908379   0.000000000    0   0   0
O        0.250000000   0.495908508   0.500000000    0   0   0
O        0.749999917   0.504091621   0.500000000    0   0   0
O        0.749999917   0.004091536   0.500000000    0   0   0
O        0.250000000   0.995908379   0.500000000    0   0   0
O        0.749999917   0.495908508  -0.000000000    0   0   0
O        0.250000000   0.504091621   0.000000000    0   0   0
O        0.500000000   0.250000000   0.487492652    0   0   0
O        0.500000000   0.750000062   0.512507485    0   0   0
O       -0.000000000   0.250000000   0.987492685    0   0   0
O       -0.000000000   0.750000062   0.012507220    0   0   0
O        0.500000000   0.250000000   0.012507220    0   0   0
O        0.500000000   0.750000062   0.987492685    0   0   0
O       -0.000000000   0.250000000   0.512507485    0   0   0
O       -0.000000000   0.750000062   0.487492652    0   0   0
O        0.737492597   0.250000000   0.749999917    0   0   0
O        0.262507266   0.750000062   0.250000000    0   0   0
O        0.762507568   0.250000000   0.250000000    0   0   0
O        0.237492668   0.750000062   0.749999917    0   0   0
O        0.262507266   0.250000000   0.749999917    0   0   0
O        0.737492597   0.750000062   0.250000000    0   0   0
O        0.237492668   0.250000000   0.250000000    0   0   0
O        0.762507568   0.750000062   0.749999917    0   0   0

     Writing output data file Landau_39.save
     NEW-OLD atomic charge density approx. for the potential
     extrapolated charge  367.99657, renormalised to  368.00000

[...]

     Threshold (ethr) on eigenvalues was too large:
     Diagonalizing with lowered threshold

     Davidson diagonalization with overlap
     ethr =  1.80E-10,  avg # of iterations =  2.1

[...]

     bfgs converged in   6 scf cycles and   5 bfgs steps
     (criteria: energy <  1.0E-07 Ry, force <  1.0E-07Ry/Bohr, cell <  5.0E-01kbar)

     End of BFGS Geometry Optimization

     Final enthalpy =   -6261.0767868081 Ry
Begin final coordinates
     new unit-cell volume =   2892.47100 a.u.^3 (   428.61997 Ang^3 )
     density =      7.18541 g/cm^3

CELL_PARAMETERS (angstrom)
   7.510210082   0.000000035  -0.000000046
   0.000000034   7.599205956   0.000000190
  -0.000000046   0.000000176   7.510210430

ATOMIC_POSITIONS (crystal)
W        0.250000000   0.266338697  -0.000000000    0   0   0
W        0.749999917   0.733661303  -0.000000000    0   0   0
W        0.250000000   0.233661323   0.500000000    0   0   0
W        0.749999917   0.766338826   0.500000000    0   0   0
W        0.749999917   0.266338697   0.500000000    0   0   0
W        0.250000000   0.733661303   0.500000000    0   0   0
W        0.749999917   0.233661323  -0.000000000    0   0   0
W        0.250000000   0.766338826   0.000000000    0   0   0
O        0.250000000   0.004091536  -0.000000000    0   0   0
O        0.749999917   0.995908379   0.000000000    0   0   0
O        0.250000000   0.495908508   0.500000000    0   0   0
O        0.749999917   0.504091621   0.500000000    0   0   0
O        0.749999917   0.004091536   0.500000000    0   0   0
O        0.250000000   0.995908379   0.500000000    0   0   0
O        0.749999917   0.495908508  -0.000000000    0   0   0
O        0.250000000   0.504091621   0.000000000    0   0   0
O        0.500000000   0.250000000   0.487492652    0   0   0
O        0.500000000   0.750000062   0.512507485    0   0   0
O       -0.000000000   0.250000000   0.987492685    0   0   0
O       -0.000000000   0.750000062   0.012507220    0   0   0
O        0.500000000   0.250000000   0.012507220    0   0   0
O        0.500000000   0.750000062   0.987492685    0   0   0
O       -0.000000000   0.250000000   0.512507485    0   0   0
O       -0.000000000   0.750000062   0.487492652    0   0   0
O        0.737492597   0.250000000   0.749999917    0   0   0
O        0.262507266   0.750000062   0.250000000    0   0   0
O        0.762507568   0.250000000   0.250000000    0   0   0
O        0.237492668   0.750000062   0.749999917    0   0   0
O        0.262507266   0.250000000   0.749999917    0   0   0
O        0.737492597   0.750000062   0.250000000    0   0   0
O        0.237492668   0.250000000   0.250000000    0   0   0
O        0.762507568   0.750000062   0.749999917    0   0   0
End final coordinates

     A final scf calculation at the relaxed structure.
     The G-vectors are recalculated for the final unit cell
     Results may differ from those at the preceding step.

     bravais-lattice index     =            0
     lattice parameter (alat)  =      13.8397  a.u.
     unit-cell volume          =    2892.4710 (a.u.)^3
     number of atoms/cell      =           32
     number of atomic types    =            2
     number of electrons       =       368.00
     number of Kohn-Sham states=          221
     kinetic-energy cutoff     =     120.0000  Ry
     charge density cutoff     =     480.0000  Ry
     convergence threshold     =      1.0E-10
     mixing beta               =       0.7000
     number of iterations used =            8  plain     mixing
     Exchange-correlation      = SLA PW NOGX NOGC ( 1  4  0  0 0 0)

     celldm(1)=  13.839685  celldm(2)=   0.000000  celldm(3)=   0.000000
     celldm(4)=   0.000000  celldm(5)=   0.000000  celldm(6)=   0.000000

     crystal axes: (cart. coord. in units of alat)
               a(1) = (   1.025474   0.000000  -0.000000 )
               a(2) = (   0.000000   1.037626   0.000000 )
               a(3) = (  -0.000000   0.000000   1.025474 )

     reciprocal axes: (cart. coord. in units 2 pi/alat)
               b(1) = (  0.975159 -0.000000  0.000000 )
               b(2) = ( -0.000000  0.963738 -0.000000 )
               b(3) = (  0.000000 -0.000000  0.975159 )

     PseudoPot. # 1 for W  read from file:
     /cluster/scratch/mnoe/QE/pps/W_ONCV_LDA-4.0.upf
     MD5 check sum: ba0307d5d4cd419d6f1d13dc49d7c13a
     Pseudo is Norm-conserving + core correction, Zval = 28.0
     Generated using ONCVPSP code by D. R. Hamann
     Using radial grid of 1380 points,  8 beta functions with:
                l(1) =   0
                l(2) =   0
                l(3) =   1
                l(4) =   1
                l(5) =   2
                l(6) =   2
                l(7) =   3
                l(8) =   3

     PseudoPot. # 2 for O  read from file:
     /cluster/scratch/mnoe/QE/pps/O_ONCV_LDA-3.0.upf
     MD5 check sum: a1bd6164e7280c17a38c229939bfbd54
     Pseudo is Norm-conserving + core correction, Zval =  6.0
     Generated using ONCVPSP code by D. R. Hamann
     Using radial grid of  926 points,  5 beta functions with:
                l(1) =   0
                l(2) =   0
                l(3) =   1
                l(4) =   1
                l(5) =   2

     atomic species   valence    mass     pseudopotential
        W             28.00   183.84000     W ( 1.00)
        O              6.00    15.99940     O ( 1.00)

      2 Sym. Ops., with inversion, found

   Cartesian axes

     site n.     atom                  positions (alat units)
         1           W   tau(   1) = (   0.2563686   0.2763600   0.0000000  )
         2           W   tau(   2) = (   0.7691056   0.7612661   0.0000000  )
         3           W   tau(   3) = (   0.2563685   0.2424531   0.5127371  )
         4           W   tau(   4) = (   0.7691056   0.7951731   0.5127371  )
         5           W   tau(   5) = (   0.7691056   0.2763600   0.5127371  )
         6           W   tau(   6) = (   0.2563685   0.7612661   0.5127371  )
         7           W   tau(   7) = (   0.7691056   0.2424531   0.0000000  )
         8           W   tau(   8) = (   0.2563686   0.7951731   0.0000000  )
         9           O   tau(   9) = (   0.2563685   0.0042455  -0.0000000  )
        10           O   tau(  10) = (   0.7691056   1.0333805   0.0000000  )
        11           O   tau(  11) = (   0.2563685   0.5145676   0.5127371  )
        12           O   tau(  12) = (   0.7691056   0.5230586   0.5127371  )
        13           O   tau(  13) = (   0.7691056   0.0042455   0.5127371  )
        14           O   tau(  14) = (   0.2563686   1.0333805   0.5127371  )
        15           O   tau(  15) = (   0.7691056   0.5145676   0.0000000  )
        16           O   tau(  16) = (   0.2563686   0.5230586   0.0000000  )
        17           O   tau(  17) = (   0.5127371   0.2594065   0.4999112  )
        18           O   tau(  18) = (   0.5127371   0.7782196   0.5255632  )
        19           O   tau(  19) = (  -0.0000000   0.2594065   1.0126483  )
        20           O   tau(  20) = (   0.0000000   0.7782196   0.0128259  )
        21           O   tau(  21) = (   0.5127371   0.2594065   0.0128258  )
        22           O   tau(  22) = (   0.5127371   0.7782196   1.0126483  )
        23           O   tau(  23) = (  -0.0000000   0.2594065   0.5255632  )
        24           O   tau(  24) = (   0.0000000   0.7782196   0.4999112  )
        25           O   tau(  25) = (   0.7562796   0.2594065   0.7691056  )
        26           O   tau(  26) = (   0.2691944   0.7782196   0.2563686  )
        27           O   tau(  27) = (   0.7819318   0.2594065   0.2563686  )
        28           O   tau(  28) = (   0.2435426   0.7782196   0.7691056  )
        29           O   tau(  29) = (   0.2691944   0.2594065   0.7691056  )
        30           O   tau(  30) = (   0.7562796   0.7782196   0.2563686  )
        31           O   tau(  31) = (   0.2435426   0.2594065   0.2563686  )
        32           O   tau(  32) = (   0.7819318   0.7782196   0.7691056  )

     number of k points=   112  gaussian smearing, width (Ry)=  0.0007

     Number of k-points >= 100: set verbosity='high' to print them.

     Initial potential from superposition of free atoms

     starting charge  367.99656, renormalised to  368.00000
     Starting wfc are  232 randomized atomic wfcs

     Writing output data file Landau_39.save

     Self-consistent Calculation

[...]

     total energy              =   -6261.07815642 Ry
     Harris-Foulkes estimate   =   -6261.07815642 Ry
     estimated scf accuracy    <          2.6E-10 Ry

     iteration # 17     ecut=   120.00 Ry     beta= 0.70
     Davidson diagonalization with overlap
     ethr =  1.00E-13,  avg # of iterations =  2.0

     End of self-consistent calculation

     Number of k-points >= 100: set verbosity='high' to print the bands.

     the Fermi energy is     8.3680 ev

!    total energy              =   -6261.07815642 Ry
     Harris-Foulkes estimate   =   -6261.07815642 Ry
     estimated scf accuracy    <          1.7E-11 Ry

     The total energy is the sum of the following terms:

     one-electron contribution =   -4857.65637869 Ry
     hartree contribution      =    2658.44371381 Ry
     xc contribution           =    -965.68157292 Ry
     ewald contribution        =   -3096.18391861 Ry
     smearing contrib. (-TS)   =      -0.00000000 Ry

     convergence has been achieved in  17 iterations

     Forces acting on atoms (cartesian axes, Ry/au):

     atom    1 type  1   force =     0.00000580    0.02200695    0.00000096
     atom    2 type  1   force =    -0.00000580   -0.02200695   -0.00000096
     atom    3 type  1   force =     0.00000531   -0.02201500   -0.00000096
     atom    4 type  1   force =    -0.00000531    0.02201500    0.00000096
     atom    5 type  1   force =    -0.00000635    0.02200916   -0.00000492
     atom    6 type  1   force =     0.00000635   -0.02200916    0.00000492
     atom    7 type  1   force =    -0.00000338   -0.02201657    0.00000479
     atom    8 type  1   force =     0.00000338    0.02201657   -0.00000479
     atom    9 type  2   force =     0.00000007   -0.01209440   -0.00000002
     atom   10 type  2   force =    -0.00000007    0.01209440    0.00000002
     atom   11 type  2   force =    -0.00000003    0.01209413   -0.00000002
     atom   12 type  2   force =     0.00000003   -0.01209413    0.00000002
     atom   13 type  2   force =     0.00000000   -0.01209417   -0.00000000
     atom   14 type  2   force =    -0.00000000    0.01209417    0.00000000
     atom   15 type  2   force =    -0.00000004    0.01209428    0.00000002
     atom   16 type  2   force =     0.00000004   -0.01209428   -0.00000002
     atom   17 type  2   force =    -0.00000016    0.00000001   -0.00083185
     atom   18 type  2   force =     0.00000016   -0.00000001    0.00083185
     atom   19 type  2   force =    -0.00000019   -0.00000002   -0.00083212
     atom   20 type  2   force =     0.00000019    0.00000002    0.00083212
     atom   21 type  2   force =     0.00000025    0.00000008    0.00083209
     atom   22 type  2   force =    -0.00000025   -0.00000008   -0.00083209
     atom   23 type  2   force =     0.00000021   -0.00000003    0.00083185
     atom   24 type  2   force =    -0.00000021    0.00000003   -0.00083185
     atom   25 type  2   force =    -0.00083205   -0.00000006    0.00000086
     atom   26 type  2   force =     0.00083205    0.00000006   -0.00000086
     atom   27 type  2   force =     0.00083176   -0.00000004   -0.00000087
     atom   28 type  2   force =    -0.00083176    0.00000004    0.00000087
     atom   29 type  2   force =     0.00083193    0.00000004    0.00000048
     atom   30 type  2   force =    -0.00083193   -0.00000004   -0.00000048
     atom   31 type  2   force =    -0.00083189    0.00000008   -0.00000046
     atom   32 type  2   force =     0.00083189   -0.00000008    0.00000046

     Total force =     0.000000     Total SCF correction =     0.000000

     Computing stress (Cartesian axis) and pressure

          total   stress  (Ry/bohr**3)                   (kbar)     P=    2.02
   0.00001946   0.00000000   0.00000000          2.86      0.00      0.00
   0.00000000   0.00000225  -0.00000000          0.00      0.33     -0.00
   0.00000000  -0.00000000   0.00001946          0.00     -0.00      2.86

     Writing output data file Landau_39.save

     General routines

     Parallel routines

   This run was terminated on:   7: 0:44   5Mar2020

   JOB DONE.