     Program PWSCF v.6.4.1 starts on  3Dec2019 at 16: 7:48

     K-points division:     npool     =      40
     Reading input from scf.in

     Current dimensions of program PWSCF are:
     Max number of different atomic species (ntypx) = 10
     Max number of k-points (npk) =  40000
     Max angular momentum in pseudopotentials (lmaxx) =  3

     Subspace diagonalization in iterative solution of the eigenvalue problem:
     a serial algorithm will be used

     Message from routine setup:
     using ibrav=0 with symmetry is DISCOURAGED, use correct ibrav instead

     bravais-lattice index     =            0
     lattice parameter (alat)  =       9.9244  a.u.
     unit-cell volume          =    1421.2455 (a.u.)^3
     number of atoms/cell      =           16
     number of atomic types    =            2
     number of electrons       =       184.45
     number of Kohn-Sham states=          111
     kinetic-energy cutoff     =     120.0000  Ry
     charge density cutoff     =     480.0000  Ry
     convergence threshold     =      1.0E-08
     mixing beta               =       0.7000
     number of iterations used =            8  plain     mixing
     Exchange-correlation      = SLA PW NOGX NOGC ( 1  4  0  0 0 0)

     celldm(1)=   9.924367  celldm(2)=   0.000000  celldm(3)=   0.000000
     celldm(4)=   0.000000  celldm(5)=   0.000000  celldm(6)=   0.000000

     crystal axes: (cart. coord. in units of alat)
               a(1) = (   1.000000   0.000000   0.000000 )
               a(2) = (   0.000000   1.000000   0.000000 )
               a(3) = (   0.000000   0.000000   1.453988 )

     reciprocal axes: (cart. coord. in units 2 pi/alat)
               b(1) = (  1.000000  0.000000  0.000000 )
               b(2) = (  0.000000  1.000000  0.000000 )
               b(3) = (  0.000000  0.000000  0.687764 )

     PseudoPot. # 1 for W  read from file:
     /cluster/scratch/mnoe/QE/pps/W_ONCV_LDA-4.0.upf
     MD5 check sum: ba0307d5d4cd419d6f1d13dc49d7c13a
     Pseudo is Norm-conserving + core correction, Zval = 28.0
     Generated using ONCVPSP code by D. R. Hamann
     Using radial grid of 1380 points,  8 beta functions with:
                l(1) =   0
                l(2) =   0
                l(3) =   1
                l(4) =   1
                l(5) =   2
                l(6) =   2
                l(7) =   3
                l(8) =   3

     PseudoPot. # 2 for O  read from file:
     /cluster/scratch/mnoe/QE/pps/O_ONCV_LDA-3.0.upf
     MD5 check sum: b55cdb4f45ae2203d24ad12cf8d61a31
     Pseudo is Norm-conserving + core correction, Zval =  6.0
     Generated using ONCVPSP code by D. R. Hamann
     Using radial grid of  926 points,  5 beta functions with:
                l(1) =   0
                l(2) =   0
                l(3) =   1
                l(4) =   1
                l(5) =   2

     atomic species   valence    mass     pseudopotential
        W             28.00   183.84000     W ( 1.00)
        O              6.00    15.99940     O ( 1.00)

     16 Sym. Ops., with inversion, found (14 have fractional translation)

   Cartesian axes

     site n.     atom                  positions (alat units)
         1           W   tau(   1) = (   0.2500000   0.2500000   0.3028287  )
         2           W   tau(   2) = (   0.7500000   0.7500000   1.1511589  )
         3           W   tau(   3) = (   0.7500000   0.7500000   0.4241651  )
         4           W   tau(   4) = (   0.2500000   0.2500000   1.0298224  )
         5           O   tau(   5) = (   0.2500000   0.2500000   0.6877920  )
         6           O   tau(   6) = (   0.7500000   0.7500000   0.7661955  )
         7           O   tau(   7) = (   0.7500000   0.7500000   0.0392017  )
         8           O   tau(   8) = (   0.2500000   0.2500000   1.4147858  )
         9           O   tau(   9) = (   0.5003170   0.4996830   0.3634969  )
        10           O   tau(  10) = (   0.4996830   0.5003170   1.0904906  )
        11           O   tau(  11) = (  -0.0003170   1.0003170   0.3634969  )
        12           O   tau(  12) = (   1.0003169  -0.0003169   1.0904906  )
        13           O   tau(  13) = (   1.0003170   0.5003170   0.3634969  )
        14           O   tau(  14) = (  -0.0003169   0.4996830   1.0904906  )
        15           O   tau(  15) = (   0.4996830  -0.0003170   0.3634969  )
        16           O   tau(  16) = (   0.5003170   1.0003169   1.0904906  )

     number of k points=    60  gaussian smearing, width (Ry)=  0.0007
                       cart. coord. in units 2pi/alat
        k(    1) = (   0.0000000   0.0000000   0.0000000), wk =   0.0041152
        k(    2) = (   0.0000000   0.0000000   0.1146273), wk =   0.0082305
        k(    3) = (   0.0000000   0.0000000   0.2292546), wk =   0.0082305
        k(    4) = (   0.0000000   0.0000000  -0.3438819), wk =   0.0041152
        k(    5) = (   0.0000000   0.1111111   0.0000000), wk =   0.0164609
        k(    6) = (   0.0000000   0.1111111   0.1146273), wk =   0.0329218
        k(    7) = (   0.0000000   0.1111111   0.2292546), wk =   0.0329218
        k(    8) = (   0.0000000   0.1111111  -0.3438819), wk =   0.0164609
        k(    9) = (   0.0000000   0.2222222   0.0000000), wk =   0.0164609
        k(   10) = (   0.0000000   0.2222222   0.1146273), wk =   0.0329218
        k(   11) = (   0.0000000   0.2222222   0.2292546), wk =   0.0329218
        k(   12) = (   0.0000000   0.2222222  -0.3438819), wk =   0.0164609
        k(   13) = (   0.0000000   0.3333333   0.0000000), wk =   0.0164609
        k(   14) = (   0.0000000   0.3333333   0.1146273), wk =   0.0329218
        k(   15) = (   0.0000000   0.3333333   0.2292546), wk =   0.0329218
        k(   16) = (   0.0000000   0.3333333  -0.3438819), wk =   0.0164609
        k(   17) = (   0.0000000   0.4444444   0.0000000), wk =   0.0164609
        k(   18) = (   0.0000000   0.4444444   0.1146273), wk =   0.0329218
        k(   19) = (   0.0000000   0.4444444   0.2292546), wk =   0.0329218
        k(   20) = (   0.0000000   0.4444444  -0.3438819), wk =   0.0164609
        k(   21) = (   0.1111111   0.1111111   0.0000000), wk =   0.0164609
        k(   22) = (   0.1111111   0.1111111   0.1146273), wk =   0.0329218
        k(   23) = (   0.1111111   0.1111111   0.2292546), wk =   0.0329218
        k(   24) = (   0.1111111   0.1111111  -0.3438819), wk =   0.0164609
        k(   25) = (   0.1111111   0.2222222   0.0000000), wk =   0.0329218
        k(   26) = (   0.1111111   0.2222222   0.1146273), wk =   0.0658436
        k(   27) = (   0.1111111   0.2222222   0.2292546), wk =   0.0658436
        k(   28) = (   0.1111111   0.2222222  -0.3438819), wk =   0.0329218
        k(   29) = (   0.1111111   0.3333333   0.0000000), wk =   0.0329218
        k(   30) = (   0.1111111   0.3333333   0.1146273), wk =   0.0658436
        k(   31) = (   0.1111111   0.3333333   0.2292546), wk =   0.0658436
        k(   32) = (   0.1111111   0.3333333  -0.3438819), wk =   0.0329218
        k(   33) = (   0.1111111   0.4444444   0.0000000), wk =   0.0329218
        k(   34) = (   0.1111111   0.4444444   0.1146273), wk =   0.0658436
        k(   35) = (   0.1111111   0.4444444   0.2292546), wk =   0.0658436
        k(   36) = (   0.1111111   0.4444444  -0.3438819), wk =   0.0329218
        k(   37) = (   0.2222222   0.2222222   0.0000000), wk =   0.0164609
        k(   38) = (   0.2222222   0.2222222   0.1146273), wk =   0.0329218
        k(   39) = (   0.2222222   0.2222222   0.2292546), wk =   0.0329218
        k(   40) = (   0.2222222   0.2222222  -0.3438819), wk =   0.0164609
        k(   41) = (   0.2222222   0.3333333   0.0000000), wk =   0.0329218
        k(   42) = (   0.2222222   0.3333333   0.1146273), wk =   0.0658436
        k(   43) = (   0.2222222   0.3333333   0.2292546), wk =   0.0658436
        k(   44) = (   0.2222222   0.3333333  -0.3438819), wk =   0.0329218
        k(   45) = (   0.2222222   0.4444444   0.0000000), wk =   0.0329218
        k(   46) = (   0.2222222   0.4444444   0.1146273), wk =   0.0658436
        k(   47) = (   0.2222222   0.4444444   0.2292546), wk =   0.0658436
        k(   48) = (   0.2222222   0.4444444  -0.3438819), wk =   0.0329218
        k(   49) = (   0.3333333   0.3333333   0.0000000), wk =   0.0164609
        k(   50) = (   0.3333333   0.3333333   0.1146273), wk =   0.0329218
        k(   51) = (   0.3333333   0.3333333   0.2292546), wk =   0.0329218
        k(   52) = (   0.3333333   0.3333333  -0.3438819), wk =   0.0164609
        k(   53) = (   0.3333333   0.4444444   0.0000000), wk =   0.0329218
        k(   54) = (   0.3333333   0.4444444   0.1146273), wk =   0.0658436
        k(   55) = (   0.3333333   0.4444444   0.2292546), wk =   0.0658436
        k(   56) = (   0.3333333   0.4444444  -0.3438819), wk =   0.0329218
        k(   57) = (   0.4444444   0.4444444   0.0000000), wk =   0.0164609
        k(   58) = (   0.4444444   0.4444444   0.1146273), wk =   0.0329218
        k(   59) = (   0.4444444   0.4444444   0.2292546), wk =   0.0329218
        k(   60) = (   0.4444444   0.4444444  -0.3438819), wk =   0.0164609

     Initial potential from superposition of free atoms

     starting charge  183.99828, renormalised to  184.45000
     Starting wfcs are  116 randomized atomic wfcs

     Self-consistent Calculation

     iteration #  1     ecut=   120.00 Ry     beta= 0.70
     Davidson diagonalization with overlap
     ethr =  1.00E-02,  avg # of iterations =  4.8

     total energy              =   -3126.44722936 Ry
     Harris-Foulkes estimate   =   -3132.06843019 Ry
     estimated scf accuracy    <       7.05659008 Ry

[...]

     total energy              =   -3130.19718882 Ry
     Harris-Foulkes estimate   =   -3130.19718885 Ry
     estimated scf accuracy    <       0.00000004 Ry

     iteration # 12     ecut=   120.00 Ry     beta= 0.70
     Davidson diagonalization with overlap
     ethr =  2.44E-11,  avg # of iterations =  2.0

     End of self-consistent calculation

          k = 0.0000 0.0000 0.0000 ( 31591 PWs)   bands (ev):

   -66.2096 -66.2090 -66.2083 -66.2078 -30.6118 -30.6079 -30.5396 -30.5396
   -30.5384 -30.5357 -30.5353 -30.5353 -30.4602 -30.4602 -30.4568 -30.4568
   -20.3583 -20.3583 -20.3582 -20.3582 -20.3581 -20.3581 -20.3514 -20.3513
   -20.3490 -20.3490 -20.3489 -20.3488 -20.3480 -20.3480 -20.3466 -20.3466
   -20.3452 -20.3452 -20.3436 -20.3436 -20.3239 -20.3239 -20.3237 -20.3237
   -20.3217 -20.3217 -20.3217 -20.3217 -10.1390  -9.7157  -9.3741  -9.0669
    -9.0418  -8.9800  -7.9349  -7.8269  -7.8269  -7.8036  -7.8025  -7.8025
     1.0533   1.0648   1.0663   1.2478   1.3995   1.4749   2.3593   2.3593
     2.4377   2.5554   3.9639   3.9639   4.6841   4.6841   4.9101   5.5247
     5.5247   5.6718   5.6718   5.7906   5.7906   5.8700   5.9233   6.5064
     6.5064   6.7695   7.0651   7.1168   7.1168   7.1336   7.1336   7.1376
     8.2507   8.2507   8.3335   8.3446   8.9200   8.9226   9.4796   9.4796
    12.4100  12.4100  13.2657  13.2657  13.4578  13.8338  13.8547  14.0658
    14.0741  14.1583  14.1583  14.5509  15.5526  16.3511  17.0158

[...]

          k = 0.4444 0.4444-0.3439 ( 31568 PWs)   bands (ev):

   -66.2087 -66.2087 -66.2087 -66.2087 -30.5738 -30.5738 -30.5737 -30.5737
   -30.5421 -30.5421 -30.5395 -30.5395 -30.4567 -30.4567 -30.4544 -30.4544
   -20.3582 -20.3582 -20.3582 -20.3582 -20.3548 -20.3548 -20.3548 -20.3548
   -20.3491 -20.3491 -20.3490 -20.3490 -20.3473 -20.3473 -20.3471 -20.3471
   -20.3444 -20.3444 -20.3444 -20.3444 -20.3255 -20.3255 -20.3255 -20.3255
   -20.3201 -20.3201 -20.3200 -20.3200  -9.4825  -9.4825  -9.4424  -9.4424
    -8.5876  -8.5876  -8.5819  -8.5819  -7.9189  -7.9189  -7.8662  -7.8662
     1.1991   1.1991   1.3115   1.3115   2.9521   2.9521   2.9595   2.9595
     3.2082   3.2082   3.2317   3.2317   4.4460   4.4461   4.6352   4.6352
     5.1354   5.1355   5.2706   5.2706   5.7668   5.7668   5.9313   5.9313
     6.1845   6.1845   6.3209   6.3209   6.6218   6.6218   6.7223   6.7223
     7.4448   7.4449   7.4530   7.4530  11.1222  11.1222  11.1799  11.1799
    12.3862  12.3862  12.5000  12.5000  13.4687  13.4687  13.5670  13.5670
    14.9825  14.9825  15.1766  15.1766  17.6202  17.6205  17.7765

     the Fermi energy is     9.5536 ev

!    total energy              =   -3130.19718883 Ry
     Harris-Foulkes estimate   =   -3130.19718883 Ry
     estimated scf accuracy    <          1.1E-09 Ry

     The total energy is the sum of the following terms:

     one-electron contribution =   -2393.38004485 Ry
     hartree contribution      =    1315.00975055 Ry
     xc contribution           =    -483.35619618 Ry
     ewald contribution        =   -1568.47067588 Ry
     smearing contrib. (-TS)   =      -0.00002247 Ry

     convergence has been achieved in  12 iterations

     Writing output data file chempot_9.save/

     General routines

     Parallel routines

   This run was terminated on:  16:14: 0   3Dec2019

   JOB DONE.