     Program PWSCF v.6.2 (svn rev. 14038) starts on 30Apr2019 at 21:35: 8

     K-points division:     npool     =      32
     Reading input from rscf.in

     Current dimensions of program PWSCF are:
     Max number of different atomic species (ntypx) = 10
     Max number of k-points (npk) =  40000
     Max angular momentum in pseudopotentials (lmaxx) =  3

     Subspace diagonalization in iterative solution of the eigenvalue problem:
     a serial algorithm will be used

     bravais-lattice index     =            0
     lattice parameter (alat)  =      13.8397  a.u.
     unit-cell volume          =    2804.9816 (a.u.)^3
     number of atoms/cell      =           32
     number of atomic types    =            2
     number of electrons       =       368.00
     number of Kohn-Sham states=          221
     kinetic-energy cutoff     =     120.0000  Ry
     charge density cutoff     =     480.0000  Ry
     convergence threshold     =      1.0E-08
     mixing beta               =       0.7000
     number of iterations used =            8  plain     mixing
     Exchange-correlation      = SLA PW NOGX NOGC ( 1  4  0  0 0 0)
     nstep                     =           50

     celldm(1)=  13.839685  celldm(2)=   0.000000  celldm(3)=   0.000000
     celldm(4)=   0.000000  celldm(5)=   0.000000  celldm(6)=   0.000000

     crystal axes: (cart. coord. in units of alat)
               a(1) = (   1.000000   0.000000   0.000000 )
               a(2) = (   0.000000   1.058160   0.000000 )
               a(3) = (   0.000000   0.000000   1.000000 )

     reciprocal axes: (cart. coord. in units 2 pi/alat)
               b(1) = (  1.000000  0.000000  0.000000 )
               b(2) = (  0.000000  0.945037  0.000000 )
               b(3) = (  0.000000  0.000000  1.000000 )

     PseudoPot. # 1 for W  read from file:
     /cluster/scratch/mnoe/QE/pps/W_ONCV_LDA-4.0.upf
     MD5 check sum: ba0307d5d4cd419d6f1d13dc49d7c13a
     Pseudo is Norm-conserving + core correction, Zval = 28.0
     Generated using ONCVPSP code by D. R. Hamann
     Using radial grid of 1380 points,  8 beta functions with:
                l(1) =   0
                l(2) =   0
                l(3) =   1
                l(4) =   1
                l(5) =   2
                l(6) =   2
                l(7) =   3
                l(8) =   3

     PseudoPot. # 2 for O  read from file:
     /cluster/scratch/mnoe/QE/pps/O_ONCV_LDA-3.0.upf
     MD5 check sum: a1bd6164e7280c17a38c229939bfbd54
     Pseudo is Norm-conserving + core correction, Zval =  6.0
     Generated using ONCVPSP code by D. R. Hamann
     Using radial grid of  926 points,  5 beta functions with:
                l(1) =   0
                l(2) =   0
                l(3) =   1
                l(4) =   1
                l(5) =   2

     atomic species   valence    mass     pseudopotential
        W             28.00   183.84000     W ( 1.00)
        O              6.00    15.99940     O ( 1.00)

      8 Sym. Ops. (no inversion) found ( 4 have fractional translation)

   Cartesian axes

     site n.     atom                  positions (alat units)
         1           W   tau(   1) = (   0.2544900   0.2982530   0.2501300  )
         2           W   tau(   2) = (  -0.2501300   0.7599071  -0.7455100  )
         3           W   tau(   3) = (   0.2455100   0.2308271   0.7501300  )
         4           W   tau(   4) = (   0.7501300   0.8273330   0.7544900  )
         5           W   tau(   5) = (   0.7455100   0.2982530   0.7498700  )
         6           W   tau(   6) = (   0.2501300   0.7599071   0.7455100  )
         7           W   tau(   7) = (  -0.2455100   0.2308271  -0.7501300  )
         8           W   tau(   8) = (   0.2498700   0.8273330   0.2455100  )
         9           O   tau(   9) = (   0.2549500   0.0088039   0.2535900  )
        10           O   tau(  10) = (  -0.2535900   1.0493562  -0.7450499  )
        11           O   tau(  11) = (   0.2450499   0.5202761   0.7535900  )
        12           O   tau(  12) = (   0.7535900   0.5378839   0.7549500  )
        13           O   tau(  13) = (   0.7450500   0.0088039   0.7464100  )
        14           O   tau(  14) = (   0.2535900   1.0493562   0.7450500  )
        15           O   tau(  15) = (  -0.2450499   0.5202761  -0.7535900  )
        16           O   tau(  16) = (   0.2464100   0.5378839   0.2450500  )
        17           O   tau(  17) = (   0.4984100   0.2701906   0.6995400  )
        18           O   tau(  18) = (   0.4996700   0.7900011   0.8004600  )
        19           O   tau(  19) = (  -0.9984100   0.2588895   1.1995400  )
        20           O   tau(  20) = (   0.0003300   0.7972389   0.3004600  )
        21           O   tau(  21) = (   0.5015900   0.2701906   0.3004600  )
        22           O   tau(  22) = (   0.5003300   0.7900011   1.1995400  )
        23           O   tau(  23) = (  -0.0015900   0.2588895   0.8004600  )
        24           O   tau(  24) = (  -1.0003300   0.7972389   0.6995400  )
        25           O   tau(  25) = (   0.6995400   0.2609211   2.0003300  )
        26           O   tau(  26) = (   0.3004600   0.7879694   0.4984100  )
        27           O   tau(  27) = (   0.8004600   0.2681589   0.5003300  )
        28           O   tau(  28) = (   0.1995400   0.7992706   1.9984100  )
        29           O   tau(  29) = (   0.3004600   0.2609211   0.9996700  )
        30           O   tau(  30) = (   0.6995400   0.7879694   0.5015900  )
        31           O   tau(  31) = (   0.1995400   0.2681589   0.4996700  )
        32           O   tau(  32) = (   0.8004600   0.7992706   1.0015900  )

     number of k points=    40  gaussian smearing, width (Ry)=  0.0007
                       cart. coord. in units 2pi/alat
        k(    1) = (   0.0000000   0.0000000   0.0000000), wk =   0.0092593
        k(    2) = (   0.0000000   0.0000000   0.1666667), wk =   0.0370370
        k(    3) = (   0.0000000   0.0000000   0.3333333), wk =   0.0370370
        k(    4) = (   0.0000000   0.0000000  -0.5000000), wk =   0.0185185
        k(    5) = (   0.0000000   0.1575061   0.0000000), wk =   0.0185185
        k(    6) = (   0.0000000   0.1575061   0.1666667), wk =   0.0740741
        k(    7) = (   0.0000000   0.1575061   0.3333333), wk =   0.0740741
        k(    8) = (   0.0000000   0.1575061  -0.5000000), wk =   0.0370370
        k(    9) = (   0.0000000   0.3150122   0.0000000), wk =   0.0185185
        k(   10) = (   0.0000000   0.3150122   0.1666667), wk =   0.0740741
        k(   11) = (   0.0000000   0.3150122   0.3333333), wk =   0.0740741
        k(   12) = (   0.0000000   0.3150122  -0.5000000), wk =   0.0370370
        k(   13) = (   0.0000000  -0.4725183   0.0000000), wk =   0.0092593
        k(   14) = (   0.0000000  -0.4725183   0.1666667), wk =   0.0370370
        k(   15) = (   0.0000000  -0.4725183   0.3333333), wk =   0.0370370
        k(   16) = (   0.0000000  -0.4725183  -0.5000000), wk =   0.0185185
        k(   17) = (   0.1666667   0.0000000   0.1666667), wk =   0.0370370
        k(   18) = (   0.1666667   0.0000000   0.3333333), wk =   0.0740741
        k(   19) = (   0.1666667   0.0000000  -0.5000000), wk =   0.0370370
        k(   20) = (   0.1666667   0.1575061   0.1666667), wk =   0.0740741
        k(   21) = (   0.1666667   0.1575061   0.3333333), wk =   0.1481481
        k(   22) = (   0.1666667   0.1575061  -0.5000000), wk =   0.0740741
        k(   23) = (   0.1666667   0.3150122   0.1666667), wk =   0.0740741
        k(   24) = (   0.1666667   0.3150122   0.3333333), wk =   0.1481481
        k(   25) = (   0.1666667   0.3150122  -0.5000000), wk =   0.0740741
        k(   26) = (   0.1666667  -0.4725183   0.1666667), wk =   0.0370370
        k(   27) = (   0.1666667  -0.4725183   0.3333333), wk =   0.0740741
        k(   28) = (   0.1666667  -0.4725183  -0.5000000), wk =   0.0370370
        k(   29) = (   0.3333333   0.0000000   0.3333333), wk =   0.0370370
        k(   30) = (   0.3333333   0.0000000  -0.5000000), wk =   0.0370370
        k(   31) = (   0.3333333   0.1575061   0.3333333), wk =   0.0740741
        k(   32) = (   0.3333333   0.1575061  -0.5000000), wk =   0.0740741
        k(   33) = (   0.3333333   0.3150122   0.3333333), wk =   0.0740741
        k(   34) = (   0.3333333   0.3150122  -0.5000000), wk =   0.0740741
        k(   35) = (   0.3333333  -0.4725183   0.3333333), wk =   0.0370370
        k(   36) = (   0.3333333  -0.4725183  -0.5000000), wk =   0.0370370
        k(   37) = (  -0.5000000   0.0000000  -0.5000000), wk =   0.0092593
        k(   38) = (  -0.5000000   0.1575061  -0.5000000), wk =   0.0185185
        k(   39) = (  -0.5000000   0.3150122  -0.5000000), wk =   0.0185185
        k(   40) = (  -0.5000000  -0.4725183  -0.5000000), wk =   0.0092593

     Initial potential from superposition of free atoms

     starting charge  367.99656, renormalised to  368.00000
     Starting wfc are  232 randomized atomic wfcs

     Self-consistent Calculation

     iteration #  1     ecut=   120.00 Ry     beta= 0.70
     Davidson diagonalization with overlap
     ethr =  1.00E-02,  avg # of iterations =  5.0

     total energy              =   -6253.97813595 Ry
     Harris-Foulkes estimate   =   -6264.58578944 Ry
     estimated scf accuracy    <      13.43092308 Ry

[...]

     End of self-consistent calculation

          k = 0.0000 0.0000 0.0000 ( 62239 PWs)   bands (ev):

   -66.1753 -66.1749 -66.1743 -66.1743 -66.1739 -66.1739 -66.1733 -66.1729
   -30.5666 -30.5629 -30.5629 -30.5594 -30.5245 -30.5221 -30.5182 -30.5182
   -30.5175 -30.5159 -30.5118 -30.5118 -30.5036 -30.5023 -30.5023 -30.5018
   -30.4215 -30.4215 -30.4179 -30.4167 -30.4166 -30.4166 -30.4127 -30.4117
   -20.3359 -20.3358 -20.3358 -20.3358 -20.3357 -20.3357 -20.3357 -20.3356
   -20.3178 -20.3176 -20.3176 -20.3173 -20.3138 -20.3134 -20.3131 -20.3131
   -20.3130 -20.3128 -20.3126 -20.3126 -20.3123 -20.3123 -20.3122 -20.3119
   -20.3118 -20.3116 -20.3116 -20.3116 -20.3107 -20.3107 -20.3107 -20.3102
   -20.3040 -20.3038 -20.3035 -20.3035 -20.3035 -20.3030 -20.3030 -20.3030
   -20.3008 -20.3008 -20.3006 -20.3005 -20.3005 -20.3004 -20.3003 -20.3003
   -20.2958 -20.2958 -20.2953 -20.2952 -20.2949 -20.2949 -20.2944 -20.2943
    -9.9504  -9.6772  -9.5060  -9.5060  -9.2444  -9.2444  -9.0622  -9.0553
    -9.0432  -8.8692  -8.8444  -8.8444  -7.8539  -7.7910  -7.7910  -7.7861
    -7.7854  -7.7626  -7.7578  -7.7383  -7.6321  -7.6321  -7.6092  -7.6092
     1.1854   1.1855   1.2692   1.2692   1.2867   1.2867   1.3767   1.6367
     1.6398   1.6398   1.6468   1.8589   2.3832   2.4568   2.5819   2.5872
     2.7329   2.7329   4.1333   4.1333   4.3530   4.3535   4.8326   4.8366
     4.8366   4.8475   4.8628   4.8628   5.0442   5.0442   5.0769   5.4471
     5.4471   5.5161   5.5161   5.5301   5.5301   5.5903   5.5903   5.8157
     5.8157   5.8788   5.8799   5.9337   5.9626   6.0257   6.0298   6.1025
     6.1030   6.2433   6.2439   6.5717   6.5717   6.8093   6.8093   6.8357
     6.8366   6.8744   7.0113   7.0155   7.0820   7.0820   7.3801   7.3801
     7.4278   7.4278   7.7737   7.7875   8.0724   8.0724   8.1379   8.1459
     9.2446   9.2501   9.9918   9.9937  10.0310  10.0310  12.2235  12.2235
[...]
W        0.245510046   0.218140012   0.750129996    0   0   0
W        0.750129975   0.781859972   0.754489986    0   0   0
W        0.745510025   0.281860003   0.749870020    0   0   0
W        0.250130012   0.718139997   0.745510030    0   0   0
W       -0.245510014   0.218140012  -0.750129964    0   0   0
W        0.249870036   0.781859972   0.245510025    0   0   0
O        0.254950002   0.008320000   0.253590038    0   0   0
O       -0.253590009   0.991680023  -0.745049933    0   0   0
O        0.245049949   0.491679992   0.753589993    0   0   0
O        0.753590038   0.508319977   0.754950018    0   0   0
O        0.745049962   0.008320000   0.746409990    0   0   0
O        0.253589977   0.991680023   0.745049965    0   0   0
O       -0.245049933   0.491679992  -0.753590009    0   0   0
O        0.246409974   0.508319977   0.245049962    0   0   0
O        0.498409967   0.255340011   0.699540004    0   0   0
O        0.499670013   0.746579955   0.800459963    0   0   0
O       -0.998409983   0.244660021   1.199540037    0   0   0
O        0.000329973   0.753419955   0.300460012    0   0   0
O        0.501590033   0.255340011   0.300460012    0   0   0
O        0.500329987   0.746579955   1.199540037    0   0   0
O       -0.001590015   0.244660021   0.800459963    0   0   0
O       -1.000329971   0.753419955   0.699540004    0   0   0
O        0.699540037   0.246580031   2.000329987    0   0   0
O        0.300459996   0.744659960   0.498409983    0   0   0
O        0.800459963   0.253420001   0.500329971    0   0   0
O        0.199540020   0.755339950   1.998409967    0   0   0
O        0.300459996   0.246580031   0.999670011    0   0   0
O        0.699540037   0.744659960   0.501590017    0   0   0
O        0.199540020   0.253420001   0.499670029    0   0   0
O        0.800459963   0.755339950   1.001590031    0   0   0
End final coordinates

     A final scf calculation at the relaxed structure.
     The G-vectors are recalculated for the final unit cell
     Results may differ from those at the preceding step.

     bravais-lattice index     =            0
     lattice parameter (alat)  =      13.8397  a.u.
     unit-cell volume          =    2803.5162 (a.u.)^3
     number of atoms/cell      =           32
     number of atomic types    =            2
     number of electrons       =       368.00
     number of Kohn-Sham states=          221
     kinetic-energy cutoff     =     120.0000  Ry
     charge density cutoff     =     480.0000  Ry
     convergence threshold     =      1.0E-10
     mixing beta               =       0.7000
     number of iterations used =            8  plain     mixing
     Exchange-correlation      = SLA PW NOGX NOGC ( 1  4  0  0 0 0)

     celldm(1)=  13.839685  celldm(2)=   0.000000  celldm(3)=   0.000000
     celldm(4)=   0.000000  celldm(5)=   0.000000  celldm(6)=   0.000000

     crystal axes: (cart. coord. in units of alat)
               a(1) = (   1.000054   0.000000   0.000000 )
               a(2) = (   0.000000   1.057492   0.000000 )
               a(3) = (   0.000000   0.000000   1.000054 )

     reciprocal axes: (cart. coord. in units 2 pi/alat)
               b(1) = (  0.999946  0.000000  0.000000 )
               b(2) = (  0.000000  0.945634  0.000000 )
               b(3) = (  0.000000  0.000000  0.999946 )

     PseudoPot. # 1 for W  read from file:
     /cluster/scratch/mnoe/QE/pps/W_ONCV_LDA-4.0.upf
     MD5 check sum: ba0307d5d4cd419d6f1d13dc49d7c13a
     Pseudo is Norm-conserving + core correction, Zval = 28.0
     Generated using ONCVPSP code by D. R. Hamann
     Using radial grid of 1380 points,  8 beta functions with:
                l(1) =   0
                l(2) =   0
                l(3) =   1
                l(4) =   1
                l(5) =   2
                l(6) =   2
                l(7) =   3
                l(8) =   3

     PseudoPot. # 2 for O  read from file:
     /cluster/scratch/mnoe/QE/pps/O_ONCV_LDA-3.0.upf
     MD5 check sum: a1bd6164e7280c17a38c229939bfbd54
     Pseudo is Norm-conserving + core correction, Zval =  6.0
     Generated using ONCVPSP code by D. R. Hamann
     Using radial grid of  926 points,  5 beta functions with:
                l(1) =   0
                l(2) =   0
                l(3) =   1
                l(4) =   1
                l(5) =   2

     atomic species   valence    mass     pseudopotential
        W             28.00   183.84000     W ( 1.00)
        O              6.00    15.99940     O ( 1.00)

      8 Sym. Ops. (no inversion) found ( 4 have fractional translation)

   Cartesian axes

     site n.     atom                  positions (alat units)
         1           W   tau(   1) = (   0.2545039   0.2980647   0.2501436  )
         2           W   tau(   2) = (  -0.2501436   0.7594274  -0.7455506  )
         3           W   tau(   3) = (   0.2455234   0.2306813   0.7501708  )
         4           W   tau(   4) = (   0.7501708   0.8268108   0.7545311  )
         5           W   tau(   5) = (   0.7455506   0.2980647   0.7499108  )
         6           W   tau(   6) = (   0.2501436   0.7594274   0.7455506  )
         7           W   tau(   7) = (  -0.2455234   0.2306813  -0.7501708  )
         8           W   tau(   8) = (   0.2498836   0.8268108   0.2455234  )
         9           O   tau(   9) = (   0.2549639   0.0087983   0.2536038  )
        10           O   tau(  10) = (  -0.2536038   1.0486938  -0.7450905  )
        11           O   tau(  11) = (   0.2450633   0.5199477   0.7536310  )
        12           O   tau(  12) = (   0.7536311   0.5375444   0.7549911  )
        13           O   tau(  13) = (   0.7450905   0.0087983   0.7464506  )
        14           O   tau(  14) = (   0.2536038   1.0486938   0.7450905  )
        15           O   tau(  15) = (  -0.2450633   0.5199477  -0.7536310  )
        16           O   tau(  16) = (   0.2464234   0.5375444   0.2450633  )
        17           O   tau(  17) = (   0.4984371   0.2700201   0.6995781  )
        18           O   tau(  18) = (   0.4996972   0.7895024   0.8005035  )
        19           O   tau(  19) = (  -0.9984643   0.2587260   1.1996053  )
        20           O   tau(  20) = (   0.0003300   0.7967357   0.3004764  )
        21           O   tau(  21) = (   0.5016173   0.2700201   0.3004764  )
        22           O   tau(  22) = (   0.5003572   0.7895024   1.1996053  )
        23           O   tau(  23) = (  -0.0015901   0.2587260   0.8005035  )
        24           O   tau(  24) = (  -1.0003844   0.7967357   0.6995781  )
        25           O   tau(  25) = (   0.6995781   0.2607564   2.0004389  )
        26           O   tau(  26) = (   0.3004763   0.7874720   0.4984371  )
        27           O   tau(  27) = (   0.8005035   0.2679897   0.5003572  )
        28           O   tau(  28) = (   0.1995509   0.7987660   1.9985187  )
        29           O   tau(  29) = (   0.3004763   0.2607564   0.9997244  )
        30           O   tau(  30) = (   0.6995781   0.7874720   0.5016173  )
        31           O   tau(  31) = (   0.1995509   0.2679897   0.4996972  )
        32           O   tau(  32) = (   0.8005035   0.7987660   1.0016445  )

     number of k points=    40  gaussian smearing, width (Ry)=  0.0007
                       cart. coord. in units 2pi/alat
        k(    1) = (   0.0000000   0.0000000   0.0000000), wk =   0.0092593
        k(    2) = (   0.0000000   0.0000000   0.1666576), wk =   0.0370370
        k(    3) = (   0.0000000   0.0000000   0.3333152), wk =   0.0370370
        k(    4) = (   0.0000000   0.0000000  -0.4999728), wk =   0.0185185
        k(    5) = (   0.0000000   0.1576056   0.0000000), wk =   0.0185185
        k(    6) = (   0.0000000   0.1576056   0.1666576), wk =   0.0740741
        k(    7) = (   0.0000000   0.1576056   0.3333152), wk =   0.0740741
        k(    8) = (   0.0000000   0.1576056  -0.4999728), wk =   0.0370370
        k(    9) = (   0.0000000   0.3152112   0.0000000), wk =   0.0185185
        k(   10) = (   0.0000000   0.3152112   0.1666576), wk =   0.0740741
        k(   11) = (   0.0000000   0.3152112   0.3333152), wk =   0.0740741
        k(   12) = (   0.0000000   0.3152112  -0.4999728), wk =   0.0370370
        k(   13) = (   0.0000000  -0.4728168   0.0000000), wk =   0.0092593
        k(   14) = (   0.0000000  -0.4728168   0.1666576), wk =   0.0370370
        k(   15) = (   0.0000000  -0.4728168   0.3333152), wk =   0.0370370
        k(   16) = (   0.0000000  -0.4728168  -0.4999728), wk =   0.0185185
        k(   17) = (   0.1666576   0.0000000   0.1666576), wk =   0.0370370
        k(   18) = (   0.1666576   0.0000000   0.3333152), wk =   0.0740741
        k(   19) = (   0.1666576   0.0000000  -0.4999728), wk =   0.0370370
        k(   20) = (   0.1666576   0.1576056   0.1666576), wk =   0.0740741
        k(   21) = (   0.1666576   0.1576056   0.3333152), wk =   0.1481481
        k(   22) = (   0.1666576   0.1576056  -0.4999728), wk =   0.0740741
        k(   23) = (   0.1666576   0.3152112   0.1666576), wk =   0.0740741
        k(   24) = (   0.1666576   0.3152112   0.3333152), wk =   0.1481481
        k(   25) = (   0.1666576   0.3152112  -0.4999728), wk =   0.0740741
        k(   26) = (   0.1666576  -0.4728168   0.1666576), wk =   0.0370370
        k(   27) = (   0.1666576  -0.4728168   0.3333152), wk =   0.0740741
        k(   28) = (   0.1666576  -0.4728168  -0.4999728), wk =   0.0370370
        k(   29) = (   0.3333152   0.0000000   0.3333152), wk =   0.0370370
        k(   30) = (   0.3333152   0.0000000  -0.4999728), wk =   0.0370370
        k(   31) = (   0.3333152   0.1576056   0.3333152), wk =   0.0740741
        k(   32) = (   0.3333152   0.1576056  -0.4999728), wk =   0.0740741
        k(   33) = (   0.3333152   0.3152112   0.3333152), wk =   0.0740741
        k(   34) = (   0.3333152   0.3152112  -0.4999728), wk =   0.0740741
        k(   35) = (   0.3333152  -0.4728168   0.3333152), wk =   0.0370370
        k(   36) = (   0.3333152  -0.4728168  -0.4999728), wk =   0.0370370
        k(   37) = (  -0.4999728   0.0000000  -0.4999728), wk =   0.0092593
        k(   38) = (  -0.4999728   0.1576056  -0.4999728), wk =   0.0185185
        k(   39) = (  -0.4999728   0.3152112  -0.4999728), wk =   0.0185185
        k(   40) = (  -0.4999728  -0.4728168  -0.4999728), wk =   0.0092593

     Initial potential from superposition of free atoms

     starting charge  367.99656, renormalised to  368.00000
     Starting wfc are  232 randomized atomic wfcs

     Writing output data file Landau_5.save

     Self-consistent Calculation

[...]

     total energy              =   -6261.10977753 Ry
     Harris-Foulkes estimate   =   -6261.10977753 Ry
     estimated scf accuracy    <          5.7E-10 Ry

     iteration # 14     ecut=   120.00 Ry     beta= 0.70
     Davidson diagonalization with overlap
     ethr =  1.55E-13,  avg # of iterations =  2.0

     End of self-consistent calculation

[...]

          k = 0.3333-0.4728-0.5000 ( 62176 PWs)   bands (ev):

[...]

          k =-0.5000-0.4728-0.5000 ( 62224 PWs)   bands (ev):

   -66.1640 -66.1640 -66.1640 -66.1640 -66.1640 -66.1640 -66.1640 -66.1640
   -30.5284 -30.5284 -30.5282 -30.5282 -30.5282 -30.5282 -30.5280 -30.5280
   -30.4590 -30.4590 -30.4590 -30.4590 -30.4588 -30.4588 -30.4586 -30.4586
   -30.4535 -30.4535 -30.4533 -30.4533 -30.4532 -30.4532 -30.4532 -30.4532
   -20.3252 -20.3252 -20.3252 -20.3252 -20.3252 -20.3252 -20.3251 -20.3251
   -20.3046 -20.3045 -20.3045 -20.3045 -20.3045 -20.3045 -20.3045 -20.3045
   -20.3020 -20.3020 -20.3020 -20.3020 -20.3020 -20.3020 -20.3019 -20.3019
   -20.3008 -20.3008 -20.3008 -20.3007 -20.3007 -20.3007 -20.3007 -20.3007
   -20.2917 -20.2917 -20.2916 -20.2916 -20.2916 -20.2916 -20.2916 -20.2916
   -20.2887 -20.2887 -20.2887 -20.2887 -20.2886 -20.2886 -20.2886 -20.2886
   -20.2870 -20.2870 -20.2870 -20.2870 -20.2869 -20.2869 -20.2869 -20.2869
    -8.9327  -8.9327  -8.9263  -8.9263  -8.9263  -8.9263  -8.9241  -8.9241
    -8.4166  -8.4166  -8.4088  -8.4088  -8.4088  -8.4088  -8.4057  -8.4057
    -8.3320  -8.3319  -8.3314  -8.3314  -8.3314  -8.3314  -8.3218  -8.3217
     2.9898   2.9898   2.9949   2.9949   2.9949   2.9950   3.0032   3.0032
     3.1436   3.1436   3.1528   3.1528   3.1528   3.1528   3.1648   3.1648
     3.4142   3.4143   3.4570   3.4570   3.4570   3.4570   3.4890   3.4891
     4.1511   4.1511   4.1602   4.1602   4.1603   4.1603   4.1644   4.1644
     4.3837   4.3837   4.3837   4.3837   4.3888   4.3889   4.3908   4.3908
     4.4663   4.4664   4.4798   4.4798   4.4799   4.4799   4.4841   4.4841
     7.1684   7.1684   7.2111   7.2111   7.2112   7.2112   7.2608   7.2608
     7.3397   7.3397   7.3451   7.3451   7.3451   7.3451   7.3479   7.3479
     7.5987   7.5987   7.6095   7.6095   7.6095   7.6095   7.6232   7.6232
    11.8048  11.8048  11.8066  11.8066  11.8066  11.8066  11.8105  11.8105
    12.2523  12.2523  12.2896  12.2896  12.2896  12.2896  12.3348  12.3348
    12.5239  12.5239  12.5443  12.5443  12.5443  12.5443  12.5588  12.5588
    17.1546  17.1548  17.1713  17.1713  17.1713  17.1713  17.1844  17.1844
    17.3719  17.3719  17.3719  17.3719  17.3845

     the Fermi energy is     9.1447 ev

!    total energy              =   -6261.10977753 Ry
     Harris-Foulkes estimate   =   -6261.10977753 Ry
     estimated scf accuracy    <          8.7E-11 Ry

     The total energy is the sum of the following terms:

     one-electron contribution =   -4719.19125835 Ry
     hartree contribution      =    2596.41944236 Ry
     xc contribution           =    -965.66905132 Ry
     ewald contribution        =   -3172.66891022 Ry
     smearing contrib. (-TS)   =      -0.00000000 Ry

     convergence has been achieved in  14 iterations

     Forces acting on atoms (cartesian axes, Ry/au):

     atom    1 type  1   force =     0.00124399   -0.00032914    0.00025598
     atom    2 type  1   force =    -0.00025598    0.00032914    0.00124399
     atom    3 type  1   force =    -0.00124399    0.00032914    0.00025598
     atom    4 type  1   force =     0.00025598   -0.00032914    0.00124399
     atom    5 type  1   force =    -0.00124399   -0.00032914   -0.00025598
     atom    6 type  1   force =     0.00025598    0.00032914   -0.00124399
     atom    7 type  1   force =     0.00124399    0.00032914   -0.00025598
     atom    8 type  1   force =    -0.00025598   -0.00032914   -0.00124399
     atom    9 type  2   force =     0.00027987    0.00021526    0.00004260
     atom   10 type  2   force =    -0.00004260   -0.00021526    0.00027987
     atom   11 type  2   force =    -0.00027987   -0.00021526    0.00004260
     atom   12 type  2   force =     0.00004260    0.00021526    0.00027987
     atom   13 type  2   force =    -0.00027987    0.00021526   -0.00004260
     atom   14 type  2   force =     0.00004260   -0.00021526   -0.00027987
     atom   15 type  2   force =     0.00027987   -0.00021526   -0.00004260
     atom   16 type  2   force =    -0.00004260    0.00021526   -0.00027987
     atom   17 type  2   force =     0.00057322    0.00036893    0.00002946
     atom   18 type  2   force =    -0.00011267    0.00048259   -0.00010784
     atom   19 type  2   force =    -0.00057322   -0.00036893    0.00002946
     atom   20 type  2   force =     0.00011267   -0.00048259   -0.00010784
     atom   21 type  2   force =    -0.00057322    0.00036893   -0.00002946
     atom   22 type  2   force =     0.00011267    0.00048259    0.00010784
     atom   23 type  2   force =     0.00057322   -0.00036893   -0.00002946
     atom   24 type  2   force =    -0.00011267   -0.00048259    0.00010784
     atom   25 type  2   force =     0.00010784    0.00048259    0.00011267
     atom   26 type  2   force =    -0.00002946   -0.00036893    0.00057322
     atom   27 type  2   force =    -0.00010784   -0.00048259    0.00011267
     atom   28 type  2   force =     0.00002946    0.00036893    0.00057322
     atom   29 type  2   force =    -0.00010784    0.00048259   -0.00011267
     atom   30 type  2   force =     0.00002946   -0.00036893   -0.00057322
     atom   31 type  2   force =     0.00010784   -0.00048259   -0.00011267
     atom   32 type  2   force =    -0.00002946    0.00036893   -0.00057322

     Total force =     0.000000     Total SCF correction =     0.000000

     Computing stress (Cartesian axis) and pressure

          total   stress  (Ry/bohr**3)                   (kbar)     P=   -0.03
  -0.00000015   0.00000000   0.00000000         -0.02      0.00      0.00
   0.00000000  -0.00000032   0.00000000          0.00     -0.05      0.00
   0.00000000   0.00000000  -0.00000015          0.00      0.00     -0.02

     Writing output data file Landau_5.save

     General routines

     Parallel routines

   This run was terminated on:  23:49: 1  30Apr2019

   JOB DONE.