     Program PWSCF v.6.2 (svn rev. 14038) starts on  4Mar2020 at 22: 2: 7

     K-points division:     npool     =      64
     Reading input from rscf.in

     Current dimensions of program PWSCF are:
     Max number of different atomic species (ntypx) = 10
     Max number of k-points (npk) =  40000
     Max angular momentum in pseudopotentials (lmaxx) =  3

     Subspace diagonalization in iterative solution of the eigenvalue problem:
     a serial algorithm will be used

     Found symmetry operation: I + (  0.5000  0.0000 -0.5000)
     This is a supercell, fractional translations are disabled

     bravais-lattice index     =            0
     lattice parameter (alat)  =      13.8397  a.u.
     unit-cell volume          =    2804.9816 (a.u.)^3
     number of atoms/cell      =           32
     number of atomic types    =            2
     number of electrons       =       368.00
     number of Kohn-Sham states=          221
     kinetic-energy cutoff     =     120.0000  Ry
     charge density cutoff     =     480.0000  Ry
     convergence threshold     =      1.0E-08
     mixing beta               =       0.7000
     number of iterations used =            8  plain     mixing
     Exchange-correlation      = SLA PW NOGX NOGC ( 1  4  0  0 0 0)
     nstep                     =           50

     celldm(1)=  13.839685  celldm(2)=   0.000000  celldm(3)=   0.000000
     celldm(4)=   0.000000  celldm(5)=   0.000000  celldm(6)=   0.000000

     crystal axes: (cart. coord. in units of alat)
               a(1) = (   1.000000   0.000000   0.000000 )
               a(2) = (   0.000000   1.058160   0.000000 )
               a(3) = (   0.000000   0.000000   1.000000 )

     reciprocal axes: (cart. coord. in units 2 pi/alat)
               b(1) = (  1.000000  0.000000  0.000000 )
               b(2) = (  0.000000  0.945037  0.000000 )
               b(3) = (  0.000000  0.000000  1.000000 )

     PseudoPot. # 1 for W  read from file:
     /cluster/scratch/mnoe/QE/pps/W_ONCV_LDA-4.0.upf
     MD5 check sum: ba0307d5d4cd419d6f1d13dc49d7c13a
     Pseudo is Norm-conserving + core correction, Zval = 28.0
     Generated using ONCVPSP code by D. R. Hamann
     Using radial grid of 1380 points,  8 beta functions with:
                l(1) =   0
                l(2) =   0
                l(3) =   1
                l(4) =   1
                l(5) =   2
                l(6) =   2
                l(7) =   3
                l(8) =   3

     PseudoPot. # 2 for O  read from file:
     /cluster/scratch/mnoe/QE/pps/O_ONCV_LDA-3.0.upf
     MD5 check sum: a1bd6164e7280c17a38c229939bfbd54
     Pseudo is Norm-conserving + core correction, Zval =  6.0
     Generated using ONCVPSP code by D. R. Hamann
     Using radial grid of  926 points,  5 beta functions with:
                l(1) =   0
                l(2) =   0
                l(3) =   1
                l(4) =   1
                l(5) =   2

     atomic species   valence    mass     pseudopotential
        W             28.00   183.84000     W ( 1.00)
        O              6.00    15.99940     O ( 1.00)

      2 Sym. Ops., with inversion, found

   Cartesian axes

     site n.     atom                  positions (alat units)
         1           W   tau(   1) = (   0.2500000   0.2944628   0.0000000  )
         2           W   tau(   2) = (   0.7500000   0.7636972   0.0000000  )
         3           W   tau(   3) = (   0.2500000   0.2346172   0.5000000  )
         4           W   tau(   4) = (   0.7500000   0.8235429   0.5000000  )
         5           W   tau(   5) = (   0.7500000   0.2944628   0.5000000  )
         6           W   tau(   6) = (   0.2500000   0.7636972   0.5000000  )
         7           W   tau(   7) = (   0.7500000   0.2346172   0.0000000  )
         8           W   tau(   8) = (   0.2500000   0.8235429   0.0000000  )
         9           O   tau(   9) = (   0.2500000   0.0077713   0.0000000  )
        10           O   tau(  10) = (   0.7500000   1.0503887   0.0000000  )
        11           O   tau(  11) = (   0.2500000   0.5213087   0.5000000  )
        12           O   tau(  12) = (   0.7500000   0.5368514   0.5000000  )
        13           O   tau(  13) = (   0.7500000   0.0077713   0.5000000  )
        14           O   tau(  14) = (   0.2500000   1.0503887   0.5000000  )
        15           O   tau(  15) = (   0.7500000   0.5213087   0.0000000  )
        16           O   tau(  16) = (   0.2500000   0.5368514   0.0000000  )
        17           O   tau(  17) = (   0.5000000   0.2645400   0.4582983  )
        18           O   tau(  18) = (   0.5000000   0.7936201   0.5417017  )
        19           O   tau(  19) = (   0.0000000   0.2645400   0.9582983  )
        20           O   tau(  20) = (   0.0000000   0.7936201   0.0417017  )
        21           O   tau(  21) = (   0.5000000   0.2645400   0.0417017  )
        22           O   tau(  22) = (   0.5000000   0.7936201   0.9582983  )
        23           O   tau(  23) = (   0.0000000   0.2645400   0.5417017  )
        24           O   tau(  24) = (   0.0000000   0.7936201   0.4582983  )
        25           O   tau(  25) = (   0.7082983   0.2645400   0.7500000  )
        26           O   tau(  26) = (   0.2917017   0.7936201   0.2500000  )
        27           O   tau(  27) = (   0.7917017   0.2645400   0.2500000  )
        28           O   tau(  28) = (   0.2082983   0.7936201   0.7500000  )
        29           O   tau(  29) = (   0.2917017   0.2645400   0.7500000  )
        30           O   tau(  30) = (   0.7082983   0.7936201   0.2500000  )
        31           O   tau(  31) = (   0.2082983   0.2645400   0.2500000  )
        32           O   tau(  32) = (   0.7917017   0.7936201   0.7500000  )

     number of k points=   112  gaussian smearing, width (Ry)=  0.0007

     Number of k-points >= 100: set verbosity='high' to print them.

     Initial potential from superposition of free atoms

     starting charge  367.99656, renormalised to  368.00000
     Starting wfc are  232 randomized atomic wfcs

     Self-consistent Calculation

     iteration #  1     ecut=   120.00 Ry     beta= 0.70
     Davidson diagonalization with overlap
     ethr =  1.00E-02,  avg # of iterations =  5.2

     total energy              =   -6254.03314774 Ry
     Harris-Foulkes estimate   =   -6264.58558931 Ry
     estimated scf accuracy    <      13.37650702 Ry

[...]

     End of self-consistent calculation

     Number of k-points >= 100: set verbosity='high' to print the bands.

     the Fermi energy is     9.0033 ev

!    total energy              =   -6261.09618579 Ry
     Harris-Foulkes estimate   =   -6261.09618579 Ry
     estimated scf accuracy    <          4.3E-09 Ry

     The total energy is the sum of the following terms:

     one-electron contribution =   -4751.29881802 Ry
     hartree contribution      =    2612.39303928 Ry
     xc contribution           =    -965.99197874 Ry
     ewald contribution        =   -3156.19842831 Ry
     smearing contrib. (-TS)   =      -0.00000000 Ry

     convergence has been achieved in  14 iterations

     Forces acting on atoms (cartesian axes, Ry/au):

     atom    1 type  1   force =    -0.00000434    0.02903897   -0.00000115
     atom    2 type  1   force =     0.00000434   -0.02903897    0.00000115
     atom    3 type  1   force =    -0.00000521   -0.02902255    0.00000006
     atom    4 type  1   force =     0.00000521    0.02902255   -0.00000006
     atom    5 type  1   force =     0.00000183    0.02904949   -0.00000028
     atom    6 type  1   force =    -0.00000183   -0.02904949    0.00000028
     atom    7 type  1   force =     0.00000290   -0.02905389   -0.00000068
     atom    8 type  1   force =    -0.00000290    0.02905389    0.00000068
     atom    9 type  2   force =    -0.00000058   -0.01447946   -0.00000003
     atom   10 type  2   force =     0.00000058    0.01447946    0.00000003
     atom   11 type  2   force =     0.00000069    0.01447955    0.00000005
     atom   12 type  2   force =    -0.00000069   -0.01447955   -0.00000005
     atom   13 type  2   force =    -0.00000045   -0.01448512   -0.00000004
     atom   14 type  2   force =     0.00000045    0.01448512    0.00000004
     atom   15 type  2   force =     0.00000008    0.01448104    0.00000002
     atom   16 type  2   force =    -0.00000008   -0.01448104   -0.00000002
     atom   17 type  2   force =    -0.00000079    0.00000124   -0.00728890
     atom   18 type  2   force =     0.00000079   -0.00000124    0.00728890
     atom   19 type  2   force =     0.00000153   -0.00000031   -0.00728874
     atom   20 type  2   force =    -0.00000153    0.00000031    0.00728874
     atom   21 type  2   force =    -0.00000081    0.00000042    0.00728878
     atom   22 type  2   force =     0.00000081   -0.00000042   -0.00728878
     atom   23 type  2   force =     0.00000050    0.00000051    0.00728874
     atom   24 type  2   force =    -0.00000050   -0.00000051   -0.00728874
     atom   25 type  2   force =    -0.00728926   -0.00000017    0.00000184
     atom   26 type  2   force =     0.00728926    0.00000017   -0.00000184
     atom   27 type  2   force =     0.00728853   -0.00000011   -0.00000186
     atom   28 type  2   force =    -0.00728853    0.00000011    0.00000186
     atom   29 type  2   force =     0.00728906    0.00000054    0.00000248
     atom   30 type  2   force =    -0.00728906   -0.00000054   -0.00000248
     atom   31 type  2   force =    -0.00728837    0.00000056   -0.00000256
     atom   32 type  2   force =     0.00728837   -0.00000056    0.00000256

     Total force =     0.000000     Total SCF correction =     0.000000

     Computing stress (Cartesian axis) and pressure

          total   stress  (Ry/bohr**3)                   (kbar)     P=   28.92
   0.00038950  -0.00000001  -0.00000000         57.30     -0.00     -0.00
  -0.00000001  -0.00018927  -0.00000000         -0.00    -27.84     -0.00
  -0.00000000  -0.00000000   0.00038947         -0.00     -0.00     57.29

     BFGS Geometry Optimization

     number of scf cycles    =   1
     number of bfgs steps    =   0

     enthalpy new            =   -6261.0961857886 Ry

     new trust radius        =       0.1031441752 bohr
     new conv_thr            =       0.0000000100 Ry

     new unit-cell volume =   2846.34113 a.u.^3 (   421.78423 Ang^3 )
     density =      7.30186 g/cm^3

CELL_PARAMETERS (angstrom)
   7.394960439  -0.000001185  -0.000000004
  -0.000001254   7.712921749  -0.000000015
  -0.000000004  -0.000000015   7.394955449

ATOMIC_POSITIONS (crystal)
W        0.250000000   0.278278163   0.000000000    0   0   0
W        0.749999981   0.721721837  -0.000000000    0   0   0
W        0.250000000   0.221721853   0.500000000    0   0   0
W        0.749999981   0.778278169   0.500000000    0   0   0
W        0.749999981   0.278278163   0.500000000    0   0   0
W        0.250000000   0.721721837   0.500000000    0   0   0
W        0.749999981   0.221721853   0.000000000    0   0   0
W        0.250000000   0.778278169   0.000000000    0   0   0
O        0.250000000   0.007344201   0.000000000    0   0   0
O        0.749999981   0.992655797   0.000000000    0   0   0
[...]
O        0.749999981   0.492655803   0.000000000    0   0   0
O        0.250000000   0.507344203   0.000000000    0   0   0
O        0.500000000   0.250000000   0.458298307    0   0   0
O        0.500000000   0.750000003   0.541701699    0   0   0
O        0.000000000   0.250000000   0.958298340    0   0   0
O       -0.000000000   0.750000003   0.041701675    0   0   0
O        0.500000000   0.250000000   0.041701675    0   0   0
O        0.500000000   0.750000003   0.958298340    0   0   0
O       -0.000000000   0.250000000   0.541701699    0   0   0
O       -0.000000000   0.750000003   0.458298307    0   0   0
O        0.708298320   0.250000000   0.749999981    0   0   0
O        0.291701674   0.750000003   0.250000000    0   0   0
O        0.791701718   0.250000000   0.250000000    0   0   0
O        0.208298323   0.750000003   0.749999981    0   0   0
O        0.291701674   0.250000000   0.749999981    0   0   0
O        0.708298320   0.750000003   0.250000000    0   0   0
O        0.208298323   0.250000000   0.250000000    0   0   0
O        0.791701718   0.750000003   0.749999981    0   0   0

     Writing output data file Landau_9.save
     NEW-OLD atomic charge density approx. for the potential
     extrapolated charge  373.34727, renormalised to  368.00000

[...]

     enthalpy old            =   -6261.0961857886 Ry
     enthalpy new            =   -6261.1058136741 Ry

     CASE: enthalpy_new < enthalpy_old

[...]

     Threshold (ethr) on eigenvalues was too large:
     Diagonalizing with lowered threshold

     Davidson diagonalization with overlap
     ethr =  1.23E-11,  avg # of iterations =  3.9

[...]

     number of scf cycles    =   5
     number of bfgs steps    =   4

     enthalpy old            =   -6261.1063156274 Ry
     enthalpy new            =   -6261.1063157647 Ry

     CASE: enthalpy_new < enthalpy_old

     small trust_radius: resetting bfgs history

     new trust radius        =       0.0000186370 bohr
     new conv_thr            =            1.0E-10 Ry

     new unit-cell volume =   2834.09095 a.u.^3 (   419.96894 Ang^3 )
     density =      7.33343 g/cm^3

[...]

ATOMIC_POSITIONS (crystal)
W        0.250000000   0.278278163  -0.000000000    0   0   0
W        0.749999981   0.721721837  -0.000000000    0   0   0
W        0.250000000   0.221721853   0.500000000    0   0   0
W        0.749999981   0.778278169   0.500000000    0   0   0
W        0.749999981   0.278278163   0.500000000    0   0   0
W        0.250000000   0.721721837   0.500000000    0   0   0
W        0.749999981   0.221721853  -0.000000000    0   0   0
W        0.250000000   0.778278169   0.000000000    0   0   0
O        0.250000000   0.007344201  -0.000000000    0   0   0
O        0.749999981   0.992655797  -0.000000000    0   0   0
O        0.250000000   0.492655803   0.500000000    0   0   0
O        0.749999981   0.507344203   0.500000000    0   0   0
O        0.749999981   0.007344201   0.500000000    0   0   0
O        0.250000000   0.992655797   0.500000000    0   0   0
O        0.749999981   0.492655803  -0.000000000    0   0   0
O        0.250000000   0.507344203   0.000000000    0   0   0
O        0.500000000   0.250000000   0.458298307    0   0   0
O        0.500000000   0.750000003   0.541701699    0   0   0
O       -0.000000000   0.250000000   0.958298340    0   0   0
O       -0.000000000   0.750000003   0.041701675    0   0   0
O        0.500000000   0.250000000   0.041701675    0   0   0
O        0.500000000   0.750000003   0.958298340    0   0   0
O       -0.000000000   0.250000000   0.541701699    0   0   0
O       -0.000000000   0.750000003   0.458298307    0   0   0
O        0.708298320   0.250000000   0.749999981    0   0   0
O        0.291701674   0.750000003   0.250000000    0   0   0
O        0.791701718   0.250000000   0.250000000    0   0   0
O        0.208298323   0.750000003   0.749999981    0   0   0
O        0.291701674   0.250000000   0.749999981    0   0   0
O        0.708298320   0.750000003   0.250000000    0   0   0
O        0.208298323   0.250000000   0.250000000    0   0   0
O        0.791701718   0.750000003   0.749999981    0   0   0

     Writing output data file Landau_9.save
     NEW-OLD atomic charge density approx. for the potential
     extrapolated charge  367.99810, renormalised to  368.00000

[...]

     Threshold (ethr) on eigenvalues was too large:
     Diagonalizing with lowered threshold

     Davidson diagonalization with overlap
     ethr =  5.49E-11,  avg # of iterations =  2.0

[...]

     bfgs converged in   6 scf cycles and   5 bfgs steps
     (criteria: energy <  1.0E-07 Ry, force <  1.0E-07Ry/Bohr, cell <  5.0E-01kbar)

     End of BFGS Geometry Optimization

     Final enthalpy =   -6261.1063157645 Ry
Begin final coordinates
     new unit-cell volume =   2834.09095 a.u.^3 (   419.96894 Ang^3 )
     density =      7.33343 g/cm^3

CELL_PARAMETERS (angstrom)
   7.382218876  -0.000000300  -0.000000007
  -0.000000308   7.706254503   0.000000011
  -0.000000007   0.000000009   7.382218762

ATOMIC_POSITIONS (crystal)
W        0.250000000   0.278278163  -0.000000000    0   0   0
W        0.749999981   0.721721837  -0.000000000    0   0   0
W        0.250000000   0.221721853   0.500000000    0   0   0
W        0.749999981   0.778278169   0.500000000    0   0   0
W        0.749999981   0.278278163   0.500000000    0   0   0
W        0.250000000   0.721721837   0.500000000    0   0   0
W        0.749999981   0.221721853  -0.000000000    0   0   0
W        0.250000000   0.778278169   0.000000000    0   0   0
O        0.250000000   0.007344201  -0.000000000    0   0   0
O        0.749999981   0.992655797  -0.000000000    0   0   0
O        0.250000000   0.492655803   0.500000000    0   0   0
O        0.749999981   0.507344203   0.500000000    0   0   0
O        0.749999981   0.007344201   0.500000000    0   0   0
O        0.250000000   0.992655797   0.500000000    0   0   0
O        0.749999981   0.492655803  -0.000000000    0   0   0
O        0.250000000   0.507344203   0.000000000    0   0   0
O        0.500000000   0.250000000   0.458298307    0   0   0
O        0.500000000   0.750000003   0.541701699    0   0   0
O       -0.000000000   0.250000000   0.958298340    0   0   0
O       -0.000000000   0.750000003   0.041701675    0   0   0
O        0.500000000   0.250000000   0.041701675    0   0   0
O        0.500000000   0.750000003   0.958298340    0   0   0
O       -0.000000000   0.250000000   0.541701699    0   0   0
O       -0.000000000   0.750000003   0.458298307    0   0   0
O        0.708298320   0.250000000   0.749999981    0   0   0
O        0.291701674   0.750000003   0.250000000    0   0   0
O        0.791701718   0.250000000   0.250000000    0   0   0
O        0.208298323   0.750000003   0.749999981    0   0   0
O        0.291701674   0.250000000   0.749999981    0   0   0
O        0.708298320   0.750000003   0.250000000    0   0   0
O        0.208298323   0.250000000   0.250000000    0   0   0
O        0.791701718   0.750000003   0.749999981    0   0   0
End final coordinates

     A final scf calculation at the relaxed structure.
     The G-vectors are recalculated for the final unit cell
     Results may differ from those at the preceding step.

     bravais-lattice index     =            0
     lattice parameter (alat)  =      13.8397  a.u.
     unit-cell volume          =    2834.0909 (a.u.)^3
     number of atoms/cell      =           32
     number of atomic types    =            2
     number of electrons       =       368.00
     number of Kohn-Sham states=          221
     kinetic-energy cutoff     =     120.0000  Ry
     charge density cutoff     =     480.0000  Ry
     convergence threshold     =      1.0E-10
     mixing beta               =       0.7000
     number of iterations used =            8  plain     mixing
     Exchange-correlation      = SLA PW NOGX NOGC ( 1  4  0  0 0 0)

     celldm(1)=  13.839685  celldm(2)=   0.000000  celldm(3)=   0.000000
     celldm(4)=   0.000000  celldm(5)=   0.000000  celldm(6)=   0.000000

     crystal axes: (cart. coord. in units of alat)
               a(1) = (   1.007998  -0.000000  -0.000000 )
               a(2) = (  -0.000000   1.052243   0.000000 )
               a(3) = (  -0.000000   0.000000   1.007998 )

     reciprocal axes: (cart. coord. in units 2 pi/alat)
               b(1) = (  0.992066  0.000000  0.000000 )
               b(2) = (  0.000000  0.950351 -0.000000 )
               b(3) = (  0.000000 -0.000000  0.992066 )

     PseudoPot. # 1 for W  read from file:
     /cluster/scratch/mnoe/QE/pps/W_ONCV_LDA-4.0.upf
     MD5 check sum: ba0307d5d4cd419d6f1d13dc49d7c13a
     Pseudo is Norm-conserving + core correction, Zval = 28.0
     Generated using ONCVPSP code by D. R. Hamann
     Using radial grid of 1380 points,  8 beta functions with:
                l(1) =   0
                l(2) =   0
                l(3) =   1
                l(4) =   1
                l(5) =   2
                l(6) =   2
                l(7) =   3
                l(8) =   3

     PseudoPot. # 2 for O  read from file:
     /cluster/scratch/mnoe/QE/pps/O_ONCV_LDA-3.0.upf
     MD5 check sum: a1bd6164e7280c17a38c229939bfbd54
     Pseudo is Norm-conserving + core correction, Zval =  6.0
     Generated using ONCVPSP code by D. R. Hamann
     Using radial grid of  926 points,  5 beta functions with:
                l(1) =   0
                l(2) =   0
                l(3) =   1
                l(4) =   1
                l(5) =   2

     atomic species   valence    mass     pseudopotential
        W             28.00   183.84000     W ( 1.00)
        O              6.00    15.99940     O ( 1.00)

      2 Sym. Ops., with inversion, found

   Cartesian axes

     site n.     atom                  positions (alat units)
         1           W   tau(   1) = (   0.2519994   0.2928162   0.0000000  )
         2           W   tau(   2) = (   0.7559983   0.7594266   0.0000000  )
         3           W   tau(   3) = (   0.2519994   0.2333052   0.5039989  )
         4           W   tau(   4) = (   0.7559983   0.8189376   0.5039989  )
         5           W   tau(   5) = (   0.7559983   0.2928162   0.5039989  )
         6           W   tau(   6) = (   0.2519994   0.7594267   0.5039989  )
         7           W   tau(   7) = (   0.7559983   0.2333052  -0.0000000  )
         8           W   tau(   8) = (   0.2519994   0.8189377   0.0000000  )
         9           O   tau(   9) = (   0.2519994   0.0077279  -0.0000000  )
        10           O   tau(  10) = (   0.7559983   1.0445150   0.0000000  )
        11           O   tau(  11) = (   0.2519994   0.5183936   0.5039989  )
        12           O   tau(  12) = (   0.7559983   0.5338493   0.5039989  )
        13           O   tau(  13) = (   0.7559983   0.0077279   0.5039989  )
        14           O   tau(  14) = (   0.2519994   1.0445150   0.5039989  )
        15           O   tau(  15) = (   0.7559983   0.5183935   0.0000000  )
        16           O   tau(  16) = (   0.2519994   0.5338493   0.0000000  )
        17           O   tau(  17) = (   0.5039989   0.2630607   0.4619637  )
        18           O   tau(  18) = (   0.5039989   0.7891822   0.5460341  )
        19           O   tau(  19) = (  -0.0000000   0.2630607   0.9659626  )
        20           O   tau(  20) = (  -0.0000000   0.7891822   0.0420352  )
        21           O   tau(  21) = (   0.5039989   0.2630607   0.0420352  )
        22           O   tau(  22) = (   0.5039989   0.7891822   0.9659626  )
        23           O   tau(  23) = (  -0.0000000   0.2630607   0.5460341  )
        24           O   tau(  24) = (  -0.0000000   0.7891822   0.4619637  )
        25           O   tau(  25) = (   0.7139631   0.2630607   0.7559983  )
        26           O   tau(  26) = (   0.2940346   0.7891822   0.2519994  )
        27           O   tau(  27) = (   0.7980336   0.2630607   0.2519994  )
        28           O   tau(  28) = (   0.2099642   0.7891822   0.7559983  )
        29           O   tau(  29) = (   0.2940346   0.2630607   0.7559983  )
        30           O   tau(  30) = (   0.7139631   0.7891821   0.2519994  )
        31           O   tau(  31) = (   0.2099642   0.2630607   0.2519994  )
        32           O   tau(  32) = (   0.7980335   0.7891821   0.7559983  )

     number of k points=   112  gaussian smearing, width (Ry)=  0.0007

     Number of k-points >= 100: set verbosity='high' to print them.

     Initial potential from superposition of free atoms

     starting charge  367.99656, renormalised to  368.00000
     Starting wfc are  232 randomized atomic wfcs

     Writing output data file Landau_9.save

     Self-consistent Calculation

[...]

     total energy              =   -6261.10650091 Ry
     Harris-Foulkes estimate   =   -6261.10650091 Ry
     estimated scf accuracy    <          3.3E-10 Ry

     iteration # 17     ecut=   120.00 Ry     beta= 0.70
     Davidson diagonalization with overlap
     ethr =  1.00E-13,  avg # of iterations =  2.0

     End of self-consistent calculation

     Number of k-points >= 100: set verbosity='high' to print the bands.

     the Fermi energy is     8.8761 ev

!    total energy              =   -6261.10650091 Ry
     Harris-Foulkes estimate   =   -6261.10650091 Ry
     estimated scf accuracy    <          9.5E-11 Ry

     The total energy is the sum of the following terms:

     one-electron contribution =   -4765.60834355 Ry
     hartree contribution      =    2617.10767405 Ry
     xc contribution           =    -965.66949903 Ry
     ewald contribution        =   -3146.93633237 Ry
     smearing contrib. (-TS)   =      -0.00000000 Ry

     convergence has been achieved in  17 iterations

     Forces acting on atoms (cartesian axes, Ry/au):

     atom    1 type  1   force =     0.00000211    0.00864611    0.00000285
     atom    2 type  1   force =    -0.00000211   -0.00864611   -0.00000285
     atom    3 type  1   force =     0.00000055   -0.00864264   -0.00000241
     atom    4 type  1   force =    -0.00000055    0.00864264    0.00000241
     atom    5 type  1   force =    -0.00000083    0.00864724   -0.00000034
     atom    6 type  1   force =     0.00000083   -0.00864724    0.00000034
     atom    7 type  1   force =    -0.00000202   -0.00864334    0.00000041
     atom    8 type  1   force =     0.00000202    0.00864334   -0.00000041
     atom    9 type  2   force =     0.00000010   -0.00444257   -0.00000001
     atom   10 type  2   force =    -0.00000010    0.00444257    0.00000001
     atom   11 type  2   force =     0.00000002    0.00444196    0.00000002
     atom   12 type  2   force =    -0.00000002   -0.00444196   -0.00000002
     atom   13 type  2   force =    -0.00000008   -0.00444226   -0.00000004
     atom   14 type  2   force =     0.00000008    0.00444226    0.00000004
     atom   15 type  2   force =    -0.00000002    0.00444171    0.00000003
     atom   16 type  2   force =     0.00000002   -0.00444171   -0.00000003
     atom   17 type  2   force =     0.00000031    0.00000008   -0.00125384
     atom   18 type  2   force =    -0.00000031   -0.00000008    0.00125384
     atom   19 type  2   force =     0.00000000    0.00000025   -0.00125387
     atom   20 type  2   force =    -0.00000000   -0.00000025    0.00125387
     atom   21 type  2   force =    -0.00000008    0.00000005    0.00125386
     atom   22 type  2   force =     0.00000008   -0.00000005   -0.00125386
     atom   23 type  2   force =    -0.00000043    0.00000029    0.00125382
     atom   24 type  2   force =     0.00000043   -0.00000029   -0.00125382
     atom   25 type  2   force =    -0.00125390    0.00000009    0.00000000
     atom   26 type  2   force =     0.00125390   -0.00000009   -0.00000000
     atom   27 type  2   force =     0.00125376   -0.00000001    0.00000000
     atom   28 type  2   force =    -0.00125376    0.00000001   -0.00000000
     atom   29 type  2   force =     0.00125393    0.00000017    0.00000038
     atom   30 type  2   force =    -0.00125393   -0.00000017   -0.00000038
     atom   31 type  2   force =    -0.00125375    0.00000023   -0.00000040
     atom   32 type  2   force =     0.00125375   -0.00000023    0.00000040

     Total force =     0.000000     Total SCF correction =     0.000000

     Computing stress (Cartesian axis) and pressure

          total   stress  (Ry/bohr**3)                   (kbar)     P=    0.32
   0.00000318   0.00000000  -0.00000000          0.47      0.00     -0.00
   0.00000000   0.00000014  -0.00000000          0.00      0.02     -0.00
  -0.00000000  -0.00000000   0.00000317         -0.00     -0.00      0.47

     Writing output data file Landau_9.save

     General routines

     Parallel routines

   This run was terminated on:   3: 2:28   5Mar2020

   JOB DONE.