     Program PWSCF v.6.4.1 starts on 21Nov2019 at 17:23:28

     K-points division:     npool     =      40
     Reading input from rscf.in

     Current dimensions of program PWSCF are:
     Max number of different atomic species (ntypx) = 10
     Max number of k-points (npk) =  40000
     Max angular momentum in pseudopotentials (lmaxx) =  3

     Subspace diagonalization in iterative solution of the eigenvalue problem:
     a serial algorithm will be used

     Message from routine setup:
     using ibrav=0 with symmetry is DISCOURAGED, use correct ibrav instead

     bravais-lattice index     =            0
     lattice parameter (alat)  =       9.7849  a.u.
     unit-cell volume          =    1402.1515 (a.u.)^3
     number of atoms/cell      =           16
     number of atomic types    =            2
     number of electrons       =       184.00
     number of Kohn-Sham states=          110
     kinetic-energy cutoff     =     120.0000  Ry
     charge density cutoff     =     480.0000  Ry
     convergence threshold     =      1.0E-08
     mixing beta               =       0.7000
     number of iterations used =            8  plain     mixing
     Exchange-correlation      = SLA PW NOGX NOGC ( 1  4  0  0 0 0)
     nstep                     =           50

     celldm(1)=   9.784926  celldm(2)=   0.000000  celldm(3)=   0.000000
     celldm(4)=   0.000000  celldm(5)=   0.000000  celldm(6)=   0.000000

     crystal axes: (cart. coord. in units of alat)
               a(1) = (   1.000000   0.000000   0.000000 )
               a(2) = (   0.000000   1.000000   0.000000 )
               a(3) = (   0.000000   0.000000   1.496657 )

     reciprocal axes: (cart. coord. in units 2 pi/alat)
               b(1) = (  1.000000  0.000000  0.000000 )
               b(2) = (  0.000000  1.000000  0.000000 )
               b(3) = (  0.000000  0.000000  0.668156 )

     PseudoPot. # 1 for W  read from file:
     /cluster/scratch/mnoe/QE/pps/W_ONCV_LDA-4.0.upf
     MD5 check sum: ba0307d5d4cd419d6f1d13dc49d7c13a
     Pseudo is Norm-conserving + core correction, Zval = 28.0
     Generated using ONCVPSP code by D. R. Hamann
     Using radial grid of 1380 points,  8 beta functions with:
                l(1) =   0
                l(2) =   0
                l(3) =   1
                l(4) =   1
                l(5) =   2
                l(6) =   2
                l(7) =   3
                l(8) =   3

     PseudoPot. # 2 for O  read from file:
     /cluster/scratch/mnoe/QE/pps/O_ONCV_LDA-3.0.upf
     MD5 check sum: b55cdb4f45ae2203d24ad12cf8d61a31
     Pseudo is Norm-conserving + core correction, Zval =  6.0
     Generated using ONCVPSP code by D. R. Hamann
     Using radial grid of  926 points,  5 beta functions with:
                l(1) =   0
                l(2) =   0
                l(3) =   1
                l(4) =   1
                l(5) =   2

     atomic species   valence    mass     pseudopotential
        W             28.00   183.84000     W ( 1.00)
        O              6.00    15.99940     O ( 1.00)

     16 Sym. Ops., with inversion, found (14 have fractional translation)

   Cartesian axes

     site n.     atom                  positions (alat units)
         1           W   tau(   1) = (   0.2500000   0.2500000   0.3218778  )
         2           W   tau(   2) = (   0.7500000   0.7500000   1.1747792  )
         3           W   tau(   3) = (   0.7500000   0.7500000   0.4264507  )
         4           W   tau(   4) = (   0.2500000   0.2500000   1.0702063  )
         5           O   tau(   5) = (   0.2500000   0.2500000   0.7272074  )
         6           O   tau(   6) = (   0.7500000   0.7500000   0.7694496  )
         7           O   tau(   7) = (   0.7500000   0.7500000   0.0211211  )
         8           O   tau(   8) = (   0.2500000   0.2500000   1.4755359  )
         9           O   tau(   9) = (   0.4652087   0.5347913   0.3741643  )
        10           O   tau(  10) = (   0.5347913   0.4652087   1.1224928  )
        11           O   tau(  11) = (   0.0347913   0.9652087   0.3741643  )
        12           O   tau(  12) = (   0.9652086   0.0347913   1.1224928  )
        13           O   tau(  13) = (   0.9652087   0.4652087   0.3741643  )
        14           O   tau(  14) = (   0.0347913   0.5347913   1.1224928  )
        15           O   tau(  15) = (   0.5347913   0.0347913   0.3741643  )
        16           O   tau(  16) = (   0.4652087   0.9652086   1.1224928  )

     number of k points=    60  gaussian smearing, width (Ry)=  0.0007
                       cart. coord. in units 2pi/alat
        k(    1) = (   0.0000000   0.0000000   0.0000000), wk =   0.0041152
        k(    2) = (   0.0000000   0.0000000   0.1113593), wk =   0.0082305
        k(    3) = (   0.0000000   0.0000000   0.2227186), wk =   0.0082305
        k(    4) = (   0.0000000   0.0000000  -0.3340779), wk =   0.0041152
        k(    5) = (   0.0000000   0.1111111   0.0000000), wk =   0.0164609
        k(    6) = (   0.0000000   0.1111111   0.1113593), wk =   0.0329218
        k(    7) = (   0.0000000   0.1111111   0.2227186), wk =   0.0329218
        k(    8) = (   0.0000000   0.1111111  -0.3340779), wk =   0.0164609
        k(    9) = (   0.0000000   0.2222222   0.0000000), wk =   0.0164609
        k(   10) = (   0.0000000   0.2222222   0.1113593), wk =   0.0329218
        k(   11) = (   0.0000000   0.2222222   0.2227186), wk =   0.0329218
        k(   12) = (   0.0000000   0.2222222  -0.3340779), wk =   0.0164609
        k(   13) = (   0.0000000   0.3333333   0.0000000), wk =   0.0164609
        k(   14) = (   0.0000000   0.3333333   0.1113593), wk =   0.0329218
        k(   15) = (   0.0000000   0.3333333   0.2227186), wk =   0.0329218
        k(   16) = (   0.0000000   0.3333333  -0.3340779), wk =   0.0164609
        k(   17) = (   0.0000000   0.4444444   0.0000000), wk =   0.0164609
        k(   18) = (   0.0000000   0.4444444   0.1113593), wk =   0.0329218
        k(   19) = (   0.0000000   0.4444444   0.2227186), wk =   0.0329218
        k(   20) = (   0.0000000   0.4444444  -0.3340779), wk =   0.0164609
        k(   21) = (   0.1111111   0.1111111   0.0000000), wk =   0.0164609
        k(   22) = (   0.1111111   0.1111111   0.1113593), wk =   0.0329218
        k(   23) = (   0.1111111   0.1111111   0.2227186), wk =   0.0329218
        k(   24) = (   0.1111111   0.1111111  -0.3340779), wk =   0.0164609
        k(   25) = (   0.1111111   0.2222222   0.0000000), wk =   0.0329218
        k(   26) = (   0.1111111   0.2222222   0.1113593), wk =   0.0658436
        k(   27) = (   0.1111111   0.2222222   0.2227186), wk =   0.0658436
        k(   28) = (   0.1111111   0.2222222  -0.3340779), wk =   0.0329218
        k(   29) = (   0.1111111   0.3333333   0.0000000), wk =   0.0329218
        k(   30) = (   0.1111111   0.3333333   0.1113593), wk =   0.0658436
        k(   31) = (   0.1111111   0.3333333   0.2227186), wk =   0.0658436
        k(   32) = (   0.1111111   0.3333333  -0.3340779), wk =   0.0329218
        k(   33) = (   0.1111111   0.4444444   0.0000000), wk =   0.0329218
        k(   34) = (   0.1111111   0.4444444   0.1113593), wk =   0.0658436
        k(   35) = (   0.1111111   0.4444444   0.2227186), wk =   0.0658436
        k(   36) = (   0.1111111   0.4444444  -0.3340779), wk =   0.0329218
        k(   37) = (   0.2222222   0.2222222   0.0000000), wk =   0.0164609
        k(   38) = (   0.2222222   0.2222222   0.1113593), wk =   0.0329218
        k(   39) = (   0.2222222   0.2222222   0.2227186), wk =   0.0329218
        k(   40) = (   0.2222222   0.2222222  -0.3340779), wk =   0.0164609
        k(   41) = (   0.2222222   0.3333333   0.0000000), wk =   0.0329218
        k(   42) = (   0.2222222   0.3333333   0.1113593), wk =   0.0658436
        k(   43) = (   0.2222222   0.3333333   0.2227186), wk =   0.0658436
        k(   44) = (   0.2222222   0.3333333  -0.3340779), wk =   0.0329218
        k(   45) = (   0.2222222   0.4444444   0.0000000), wk =   0.0329218
        k(   46) = (   0.2222222   0.4444444   0.1113593), wk =   0.0658436
        k(   47) = (   0.2222222   0.4444444   0.2227186), wk =   0.0658436
        k(   48) = (   0.2222222   0.4444444  -0.3340779), wk =   0.0329218
        k(   49) = (   0.3333333   0.3333333   0.0000000), wk =   0.0164609
        k(   50) = (   0.3333333   0.3333333   0.1113593), wk =   0.0329218
        k(   51) = (   0.3333333   0.3333333   0.2227186), wk =   0.0329218
        k(   52) = (   0.3333333   0.3333333  -0.3340779), wk =   0.0164609
        k(   53) = (   0.3333333   0.4444444   0.0000000), wk =   0.0329218
        k(   54) = (   0.3333333   0.4444444   0.1113593), wk =   0.0658436
        k(   55) = (   0.3333333   0.4444444   0.2227186), wk =   0.0658436
        k(   56) = (   0.3333333   0.4444444  -0.3340779), wk =   0.0329218
        k(   57) = (   0.4444444   0.4444444   0.0000000), wk =   0.0164609
        k(   58) = (   0.4444444   0.4444444   0.1113593), wk =   0.0329218
        k(   59) = (   0.4444444   0.4444444   0.2227186), wk =   0.0329218
        k(   60) = (   0.4444444   0.4444444  -0.3340779), wk =   0.0164609

     Initial potential from superposition of free atoms

     starting charge  183.99828, renormalised to  184.00000
     Starting wfcs are  116 randomized atomic wfcs

     Self-consistent Calculation

     iteration #  1     ecut=   120.00 Ry     beta= 0.70
     Davidson diagonalization with overlap
     ethr =  1.00E-02,  avg # of iterations =  4.3

     total energy              =   -3126.99748219 Ry
     Harris-Foulkes estimate   =   -3132.29003194 Ry
     estimated scf accuracy    <       6.70904721 Ry

[...]

     End of self-consistent calculation

          k = 0.0000 0.0000 0.0000 ( 31095 PWs)   bands (ev):

   -66.1459 -66.1455 -66.1441 -66.1437 -30.5265 -30.5265 -30.5232 -30.5232
   -30.5000 -30.4939 -30.4406 -30.4358 -30.4301 -30.4301 -30.4274 -30.4274
   -20.2976 -20.2976 -20.2976 -20.2975 -20.2775 -20.2775 -20.2775 -20.2775
   -20.2764 -20.2764 -20.2762 -20.2762 -20.2754 -20.2751 -20.2697 -20.2694
   -20.2666 -20.2666 -20.2660 -20.2659 -20.2655 -20.2655 -20.2655 -20.2654
   -20.2608 -20.2608 -20.2599 -20.2599 -10.0254  -9.7711  -9.1465  -9.1306
    -8.9854  -8.8000  -7.7529  -7.6930  -7.6930  -7.6721  -7.6721  -7.6343
     0.9695   0.9698   1.3022   1.4370   1.6865   1.7297   2.2938   2.3778
     2.6349   2.6349   4.0590   4.0590   5.0132   5.0541   5.0541   5.5840
     5.5840   5.6129   5.6129   5.9141   5.9141   5.9240   6.0631   6.7993
     6.7993   6.8322   7.0285   7.1043   7.2530   7.2530   7.2843   7.2843
     8.0905   8.0970   8.1855   8.1855   9.1021   9.1062   9.8940   9.8940
    12.3583  12.3583  13.3910  13.3936  13.5241  13.5241  13.7174  14.2778
    14.2778  14.8177  15.2195  15.2270  15.4921  16.8462

[...]

     the Fermi energy is     8.8402 ev

!    total energy              =   -3130.54325657 Ry
     Harris-Foulkes estimate   =   -3130.54325657 Ry
     estimated scf accuracy    <          1.5E-09 Ry

     The total energy is the sum of the following terms:

     one-electron contribution =   -2375.47392154 Ry
     hartree contribution      =    1306.22615953 Ry
[...]
O        0.034791322   0.534791305   0.750000000    0   0   0
O        0.534791259   0.034791288   0.250000000    0   0   0
O        0.465208741   0.965208649   0.750000000    0   0   0

     Writing output data file Landau_9.save/
     NEW-OLD atomic charge density approx. for the potential
     extrapolated charge  186.83921, renormalised to  184.00000

[...]

     enthalpy old            =   -3130.5432565723 Ry
     enthalpy new            =   -3130.5481968841 Ry

     CASE: enthalpy_new < enthalpy_old

[...]

     number of scf cycles    =   4
     number of bfgs steps    =   3

     enthalpy old            =   -3130.5484348897 Ry
     enthalpy new            =   -3130.5484395098 Ry

     CASE: enthalpy_new < enthalpy_old

     new trust radius        =       0.0002390704 bohr
     new conv_thr            =            1.0E-10 Ry

     new unit-cell volume =   1417.95022 a.u.^3 (   210.11854 Ang^3 )
     density =      7.32875 g/cm^3

[...]

ATOMIC_POSITIONS (crystal)
W        0.250000000   0.250000000   0.215064524    0   0   0
W        0.750000023   0.750000023   0.784935491    0   0   0
W        0.750000023   0.750000023   0.284935491    0   0   0
W        0.250000000   0.250000000   0.715064509    0   0   0
O        0.250000000   0.250000000   0.485887824    0   0   0
O        0.750000023   0.750000023   0.514112176    0   0   0
O        0.750000023   0.750000023   0.014112189    0   0   0
O        0.250000000   0.250000000   0.985887824    0   0   0
O        0.465208695   0.534791259   0.250000000    0   0   0
O        0.534791305   0.465208741   0.750000000    0   0   0
O        0.034791288   0.965208741   0.250000000    0   0   0
O        0.965208649   0.034791322   0.750000000    0   0   0
O        0.965208741   0.465208695   0.250000000    0   0   0
O        0.034791322   0.534791305   0.750000000    0   0   0
O        0.534791259   0.034791288   0.250000000    0   0   0
O        0.465208741   0.965208649   0.750000000    0   0   0

     Writing output data file Landau_9.save/
     NEW-OLD atomic charge density approx. for the potential
     extrapolated charge  183.99921, renormalised to  184.00000

[...]

     Threshold (ethr) on eigenvalues was too large:
     Diagonalizing with lowered threshold

     Davidson diagonalization with overlap
     ethr =  4.14E-11,  avg # of iterations =  3.2

[...]

     bfgs converged in   5 scf cycles and   4 bfgs steps
     (criteria: energy <  1.0E-07 Ry, force <  1.0E-07Ry/Bohr, cell <  5.0E-01kbar)

     End of BFGS Geometry Optimization

     Final enthalpy =   -3130.5484395497 Ry
Begin final coordinates
     new unit-cell volume =   1417.95022 a.u.^3 (   210.11854 Ang^3 )
     density =      7.32875 g/cm^3

CELL_PARAMETERS (angstrom)
   5.220938451   0.000000000   0.000000000
   0.000000000   5.220938451   0.000000000
   0.000000000   0.000000000   7.708453061

ATOMIC_POSITIONS (crystal)
W        0.250000000   0.250000000   0.215064524    0   0   0
W        0.750000023   0.750000023   0.784935491    0   0   0
W        0.750000023   0.750000023   0.284935491    0   0   0
W        0.250000000   0.250000000   0.715064509    0   0   0
O        0.250000000   0.250000000   0.485887824    0   0   0
O        0.750000023   0.750000023   0.514112176    0   0   0
O        0.750000023   0.750000023   0.014112189    0   0   0
O        0.250000000   0.250000000   0.985887824    0   0   0
O        0.465208695   0.534791259   0.250000000    0   0   0
O        0.534791305   0.465208741   0.750000000    0   0   0
O        0.034791288   0.965208741   0.250000000    0   0   0
O        0.965208649   0.034791322   0.750000000    0   0   0
O        0.965208741   0.465208695   0.250000000    0   0   0
O        0.034791322   0.534791305   0.750000000    0   0   0
O        0.534791259   0.034791288   0.250000000    0   0   0
O        0.465208741   0.965208649   0.750000000    0   0   0
End final coordinates

     Writing output data file Landau_9.save/

     Final scf calculation at the relaxed structure.
     The G-vectors are recalculated for the final unit cell
     Results may differ from those at the preceding step.

     bravais-lattice index     =            0
     lattice parameter (alat)  =       9.7849  a.u.
     unit-cell volume          =    1417.9502 (a.u.)^3
     number of atoms/cell      =           16
     number of atomic types    =            2
     number of electrons       =       184.00
     number of Kohn-Sham states=          110
     kinetic-energy cutoff     =     120.0000  Ry
     charge density cutoff     =     480.0000  Ry
     convergence threshold     =      1.0E-10
     mixing beta               =       0.7000
     number of iterations used =            8  plain     mixing
     Exchange-correlation      = SLA PW NOGX NOGC ( 1  4  0  0 0 0)

     celldm(1)=   9.784926  celldm(2)=   0.000000  celldm(3)=   0.000000
     celldm(4)=   0.000000  celldm(5)=   0.000000  celldm(6)=   0.000000

     crystal axes: (cart. coord. in units of alat)
               a(1) = (   1.008300   0.000000   0.000000 )
               a(2) = (   0.000000   1.008300   0.000000 )
               a(3) = (   0.000000   0.000000   1.488705 )

     reciprocal axes: (cart. coord. in units 2 pi/alat)
               b(1) = (  0.991768  0.000000  0.000000 )
               b(2) = (  0.000000  0.991768  0.000000 )
               b(3) = (  0.000000  0.000000  0.671725 )

     PseudoPot. # 1 for W  read from file:
     /cluster/scratch/mnoe/QE/pps/W_ONCV_LDA-4.0.upf
     MD5 check sum: ba0307d5d4cd419d6f1d13dc49d7c13a
     Pseudo is Norm-conserving + core correction, Zval = 28.0
     Generated using ONCVPSP code by D. R. Hamann
     Using radial grid of 1380 points,  8 beta functions with:
                l(1) =   0
                l(2) =   0
                l(3) =   1
                l(4) =   1
                l(5) =   2
                l(6) =   2
                l(7) =   3
                l(8) =   3

     PseudoPot. # 2 for O  read from file:
     /cluster/scratch/mnoe/QE/pps/O_ONCV_LDA-3.0.upf
     MD5 check sum: b55cdb4f45ae2203d24ad12cf8d61a31
     Pseudo is Norm-conserving + core correction, Zval =  6.0
     Generated using ONCVPSP code by D. R. Hamann
     Using radial grid of  926 points,  5 beta functions with:
                l(1) =   0
                l(2) =   0
                l(3) =   1
                l(4) =   1
                l(5) =   2

     atomic species   valence    mass     pseudopotential
        W             28.00   183.84000     W ( 1.00)
        O              6.00    15.99940     O ( 1.00)

     16 Sym. Ops., with inversion, found (14 have fractional translation)

   Cartesian axes

     site n.     atom                  positions (alat units)
         1           W   tau(   1) = (   0.2520751   0.2520751   0.3201676  )
         2           W   tau(   2) = (   0.7562252   0.7562252   1.1685371  )
         3           W   tau(   3) = (   0.7562252   0.7562252   0.4241848  )
         4           W   tau(   4) = (   0.2520751   0.2520751   1.0645199  )
         5           O   tau(   5) = (   0.2520751   0.2520751   0.7233435  )
         6           O   tau(   6) = (   0.7562252   0.7562252   0.7653612  )
         7           O   tau(   7) = (   0.7562252   0.7562252   0.0210089  )
         8           O   tau(   8) = (   0.2520751   0.2520751   1.4676958  )
         9           O   tau(   9) = (   0.4690701   0.5392302   0.3721762  )
        10           O   tau(  10) = (   0.5392302   0.4690701   1.1165285  )
        11           O   tau(  11) = (   0.0350801   0.9732202   0.3721762  )
        12           O   tau(  12) = (   0.9732202   0.0350801   1.1165285  )
        13           O   tau(  13) = (   0.9732202   0.4690701   0.3721762  )
        14           O   tau(  14) = (   0.0350801   0.5392302   1.1165285  )
        15           O   tau(  15) = (   0.5392302   0.0350801   0.3721762  )
        16           O   tau(  16) = (   0.4690701   0.9732202   1.1165285  )

     number of k points=    60  gaussian smearing, width (Ry)=  0.0007
                       cart. coord. in units 2pi/alat
        k(    1) = (   0.0000000   0.0000000   0.0000000), wk =   0.0041152
        k(    2) = (   0.0000000   0.0000000   0.1119542), wk =   0.0082305
        k(    3) = (   0.0000000   0.0000000   0.2239083), wk =   0.0082305
        k(    4) = (   0.0000000   0.0000000  -0.3358625), wk =   0.0041152
        k(    5) = (   0.0000000   0.1101964   0.0000000), wk =   0.0164609
        k(    6) = (   0.0000000   0.1101964   0.1119542), wk =   0.0329218
        k(    7) = (   0.0000000   0.1101964   0.2239083), wk =   0.0329218
        k(    8) = (   0.0000000   0.1101964  -0.3358625), wk =   0.0164609
        k(    9) = (   0.0000000   0.2203929   0.0000000), wk =   0.0164609
        k(   10) = (   0.0000000   0.2203929   0.1119542), wk =   0.0329218
        k(   11) = (   0.0000000   0.2203929   0.2239083), wk =   0.0329218
        k(   12) = (   0.0000000   0.2203929  -0.3358625), wk =   0.0164609
        k(   13) = (   0.0000000   0.3305893   0.0000000), wk =   0.0164609
        k(   14) = (   0.0000000   0.3305893   0.1119542), wk =   0.0329218
        k(   15) = (   0.0000000   0.3305893   0.2239083), wk =   0.0329218
        k(   16) = (   0.0000000   0.3305893  -0.3358625), wk =   0.0164609
        k(   17) = (   0.0000000   0.4407858   0.0000000), wk =   0.0164609
        k(   18) = (   0.0000000   0.4407858   0.1119542), wk =   0.0329218
        k(   19) = (   0.0000000   0.4407858   0.2239083), wk =   0.0329218
        k(   20) = (   0.0000000   0.4407858  -0.3358625), wk =   0.0164609
        k(   21) = (   0.1101964   0.1101964   0.0000000), wk =   0.0164609
        k(   22) = (   0.1101964   0.1101964   0.1119542), wk =   0.0329218
        k(   23) = (   0.1101964   0.1101964   0.2239083), wk =   0.0329218
        k(   24) = (   0.1101964   0.1101964  -0.3358625), wk =   0.0164609
        k(   25) = (   0.1101964   0.2203929   0.0000000), wk =   0.0329218
        k(   26) = (   0.1101964   0.2203929   0.1119542), wk =   0.0658436
        k(   27) = (   0.1101964   0.2203929   0.2239083), wk =   0.0658436
        k(   28) = (   0.1101964   0.2203929  -0.3358625), wk =   0.0329218
        k(   29) = (   0.1101964   0.3305893   0.0000000), wk =   0.0329218
        k(   30) = (   0.1101964   0.3305893   0.1119542), wk =   0.0658436
        k(   31) = (   0.1101964   0.3305893   0.2239083), wk =   0.0658436
        k(   32) = (   0.1101964   0.3305893  -0.3358625), wk =   0.0329218
        k(   33) = (   0.1101964   0.4407858   0.0000000), wk =   0.0329218
        k(   34) = (   0.1101964   0.4407858   0.1119542), wk =   0.0658436
        k(   35) = (   0.1101964   0.4407858   0.2239083), wk =   0.0658436
        k(   36) = (   0.1101964   0.4407858  -0.3358625), wk =   0.0329218
        k(   37) = (   0.2203929   0.2203929   0.0000000), wk =   0.0164609
        k(   38) = (   0.2203929   0.2203929   0.1119542), wk =   0.0329218
        k(   39) = (   0.2203929   0.2203929   0.2239083), wk =   0.0329218
        k(   40) = (   0.2203929   0.2203929  -0.3358625), wk =   0.0164609
        k(   41) = (   0.2203929   0.3305893   0.0000000), wk =   0.0329218
        k(   42) = (   0.2203929   0.3305893   0.1119542), wk =   0.0658436
        k(   43) = (   0.2203929   0.3305893   0.2239083), wk =   0.0658436
        k(   44) = (   0.2203929   0.3305893  -0.3358625), wk =   0.0329218
        k(   45) = (   0.2203929   0.4407858   0.0000000), wk =   0.0329218
        k(   46) = (   0.2203929   0.4407858   0.1119542), wk =   0.0658436
        k(   47) = (   0.2203929   0.4407858   0.2239083), wk =   0.0658436
        k(   48) = (   0.2203929   0.4407858  -0.3358625), wk =   0.0329218
        k(   49) = (   0.3305893   0.3305893   0.0000000), wk =   0.0164609
        k(   50) = (   0.3305893   0.3305893   0.1119542), wk =   0.0329218
        k(   51) = (   0.3305893   0.3305893   0.2239083), wk =   0.0329218
        k(   52) = (   0.3305893   0.3305893  -0.3358625), wk =   0.0164609
        k(   53) = (   0.3305893   0.4407858   0.0000000), wk =   0.0329218
        k(   54) = (   0.3305893   0.4407858   0.1119542), wk =   0.0658436
        k(   55) = (   0.3305893   0.4407858   0.2239083), wk =   0.0658436
        k(   56) = (   0.3305893   0.4407858  -0.3358625), wk =   0.0329218
        k(   57) = (   0.4407858   0.4407858   0.0000000), wk =   0.0164609
        k(   58) = (   0.4407858   0.4407858   0.1119542), wk =   0.0329218
        k(   59) = (   0.4407858   0.4407858   0.2239083), wk =   0.0329218
        k(   60) = (   0.4407858   0.4407858  -0.3358625), wk =   0.0164609

     Initial potential from superposition of free atoms

     starting charge  183.99828, renormalised to  184.00000
     Starting wfcs are  116 randomized atomic wfcs

     Self-consistent Calculation

[...]

     total energy              =   -3130.54853979 Ry
     Harris-Foulkes estimate   =   -3130.54853979 Ry
     estimated scf accuracy    <          3.5E-10 Ry

     iteration # 14     ecut=   120.00 Ry     beta= 0.70
     Davidson diagonalization with overlap
     ethr =  1.88E-13,  avg # of iterations =  2.0

     End of self-consistent calculation

[...]

          k = 0.4408 0.4408-0.3359 ( 31520 PWs)   bands (ev):

   -66.3605 -66.3605 -66.3604 -66.3604 -30.7027 -30.7026 -30.7025 -30.7025
   -30.7007 -30.7007 -30.6977 -30.6977 -30.6095 -30.6095 -30.6070 -30.6070
   -20.5239 -20.5239 -20.5239 -20.5239 -20.5063 -20.5063 -20.5063 -20.5062
   -20.5020 -20.5020 -20.5020 -20.5020 -20.4986 -20.4986 -20.4986 -20.4986
   -20.4924 -20.4924 -20.4924 -20.4924 -20.4907 -20.4907 -20.4905 -20.4905
   -20.4858 -20.4858 -20.4856 -20.4856  -9.5139  -9.5139  -9.4708  -9.4708
    -8.6106  -8.6106  -8.6054  -8.6054  -7.9682  -7.9682  -7.9105  -7.9105
     1.0982   1.0982   1.2132   1.2132   3.0122   3.0122   3.0176   3.0176
     3.2563   3.2563   3.2819   3.2819   4.4175   4.4175   4.6217   4.6217
     5.0791   5.0791   5.1867   5.1867   5.7356   5.7356   5.8979   5.8979
     6.0379   6.0379   6.1757   6.1757   6.5722   6.5722   6.6670   6.6670
     7.3318   7.3319   7.3412   7.3413  11.1168  11.1168  11.1749  11.1749
    12.1733  12.1733  12.2580  12.2580  13.3647  13.3647  13.4521  13.4521
    15.2280  15.2280  15.3851  15.3851  17.8311  17.8311

     the Fermi energy is     8.6382 ev

!    total energy              =   -3130.54853979 Ry
     Harris-Foulkes estimate   =   -3130.54853979 Ry
     estimated scf accuracy    <          9.6E-13 Ry

     The total energy is the sum of the following terms:

     one-electron contribution =   -2383.81403467 Ry
     hartree contribution      =    1309.07322067 Ry
     xc contribution           =    -482.84482069 Ry
     ewald contribution        =   -1572.96290511 Ry
     smearing contrib. (-TS)   =      -0.00000000 Ry

     convergence has been achieved in  14 iterations

     Forces acting on atoms (cartesian axes, Ry/au):

     atom    1 type  1   force =     0.00000000    0.00000000   -0.00474811
     atom    2 type  1   force =     0.00000000    0.00000000    0.00474811
     atom    3 type  1   force =     0.00000000    0.00000000    0.00474811
     atom    4 type  1   force =     0.00000000    0.00000000   -0.00474811
     atom    5 type  2   force =     0.00000000    0.00000000    0.02658447
     atom    6 type  2   force =     0.00000000    0.00000000   -0.02658447
     atom    7 type  2   force =     0.00000000    0.00000000   -0.02658447
     atom    8 type  2   force =     0.00000000    0.00000000    0.02658447
     atom    9 type  2   force =    -0.00141365    0.00141365    0.00000000
     atom   10 type  2   force =     0.00141365   -0.00141365    0.00000000
     atom   11 type  2   force =     0.00141365   -0.00141365    0.00000000
     atom   12 type  2   force =    -0.00141365    0.00141365    0.00000000
     atom   13 type  2   force =    -0.00141365   -0.00141365    0.00000000
     atom   14 type  2   force =     0.00141365    0.00141365    0.00000000
     atom   15 type  2   force =     0.00141365    0.00141365    0.00000000
     atom   16 type  2   force =    -0.00141365   -0.00141365    0.00000000

     Total force =     0.000000     Total SCF correction =     0.000000

     Computing stress (Cartesian axis) and pressure

          total   stress  (Ry/bohr**3)                   (kbar)     P=    0.35
   0.00000342   0.00000000   0.00000000          0.50      0.00      0.00
   0.00000000   0.00000342   0.00000000          0.00      0.50      0.00
   0.00000000   0.00000000   0.00000030          0.00      0.00      0.04

     Writing output data file Landau_9.save/

     General routines

     Parallel routines

   This run was terminated on:  17:53: 2  21Nov2019

   JOB DONE.