     Program PWSCF v.6.2 (svn rev. 14038) starts on 11Mar2020 at 11:56:25

     K-points division:     npool     =      40
     Reading input from rscf.in

     Current dimensions of program PWSCF are:
     Max number of different atomic species (ntypx) = 10
     Max number of k-points (npk) =  40000
     Max angular momentum in pseudopotentials (lmaxx) =  3

     Subspace diagonalization in iterative solution of the eigenvalue problem:
     a serial algorithm will be used

     bravais-lattice index     =            0
     lattice parameter (alat)  =      13.8397  a.u.
     unit-cell volume          =    2804.9816 (a.u.)^3
     number of atoms/cell      =           32
     number of atomic types    =            2
     number of electrons       =       368.00
     number of Kohn-Sham states=          221
     kinetic-energy cutoff     =     120.0000  Ry
     charge density cutoff     =     480.0000  Ry
     convergence threshold     =      1.0E-08
     mixing beta               =       0.7000
     number of iterations used =            8  plain     mixing
     Exchange-correlation      = SLA PW NOGX NOGC ( 1  4  0  0 0 0)
     nstep                     =           50

     celldm(1)=  13.839685  celldm(2)=   0.000000  celldm(3)=   0.000000
     celldm(4)=   0.000000  celldm(5)=   0.000000  celldm(6)=   0.000000

     crystal axes: (cart. coord. in units of alat)
               a(1) = (   1.000000   0.000000   0.000000 )
               a(2) = (   0.000000   1.058160   0.000000 )
               a(3) = (   0.000000   0.000000   1.000000 )

     reciprocal axes: (cart. coord. in units 2 pi/alat)
               b(1) = (  1.000000  0.000000  0.000000 )
               b(2) = (  0.000000  0.945037  0.000000 )
               b(3) = (  0.000000  0.000000  1.000000 )

     PseudoPot. # 1 for W  read from file:
     /cluster/scratch/mnoe/QE/pps/W_ONCV_LDA-4.0.upf
     MD5 check sum: ba0307d5d4cd419d6f1d13dc49d7c13a
     Pseudo is Norm-conserving + core correction, Zval = 28.0
     Generated using ONCVPSP code by D. R. Hamann
     Using radial grid of 1380 points,  8 beta functions with:
                l(1) =   0
                l(2) =   0
                l(3) =   1
                l(4) =   1
                l(5) =   2
                l(6) =   2
                l(7) =   3
                l(8) =   3

     PseudoPot. # 2 for O  read from file:
     /cluster/scratch/mnoe/QE/pps/O_ONCV_LDA-3.0.upf
     MD5 check sum: a1bd6164e7280c17a38c229939bfbd54
     Pseudo is Norm-conserving + core correction, Zval =  6.0
     Generated using ONCVPSP code by D. R. Hamann
     Using radial grid of  926 points,  5 beta functions with:
                l(1) =   0
                l(2) =   0
                l(3) =   1
                l(4) =   1
                l(5) =   2

     atomic species   valence    mass     pseudopotential
        W             28.00   183.84000     W ( 1.00)
        O              6.00    15.99940     O ( 1.00)

      8 Sym. Ops., with inversion, found ( 6 have fractional translation)

   Cartesian axes

     site n.     atom                  positions (alat units)
         1           W   tau(   1) = (   0.2439900   0.2962092   0.0056800  )
         2           W   tau(   2) = (   0.7560100   0.7619508   0.9943200  )
         3           W   tau(   3) = (   0.2560100   0.2328708   0.5056800  )
         4           W   tau(   4) = (   0.7439900   0.8252893   0.4943200  )
         5           W   tau(   5) = (   0.7560100   0.2962092   0.4943200  )
         6           W   tau(   6) = (   0.2439900   0.7619508   0.5056800  )
         7           W   tau(   7) = (   0.7439900   0.2328708   0.9943200  )
         8           W   tau(   8) = (   0.2560100   0.8252893   0.0056800  )
         9           O   tau(   9) = (   0.2389100   0.0082471   0.0017700  )
        10           O   tau(  10) = (   0.7610900   1.0499130   0.9982300  )
        11           O   tau(  11) = (   0.2610900   0.5208329   0.5017700  )
        12           O   tau(  12) = (   0.7389100   0.5373271   0.4982300  )
        13           O   tau(  13) = (   0.7610900   0.0082471   0.4982300  )
        14           O   tau(  14) = (   0.2389100   1.0499130   0.5017700  )
        15           O   tau(  15) = (   0.7389100   0.5208329   0.9982300  )
        16           O   tau(  16) = (   0.2610900   0.5373271   0.0017700  )
        17           O   tau(  17) = (   0.5016400   0.2524982   0.4542627  )
        18           O   tau(  18) = (   0.4983600   0.8056620   0.5457373  )
        19           O   tau(  19) = (   0.9983600   0.2765819   0.9542628  )
        20           O   tau(  20) = (   0.0016401   0.7815782   0.0457373  )
        21           O   tau(  21) = (   0.4983600   0.2524982   0.0457373  )
        22           O   tau(  22) = (   0.5016400   0.8056620   0.9542628  )
        23           O   tau(  23) = (   0.0016401   0.2765819   0.5457373  )
        24           O   tau(  24) = (   0.9983600   0.7815782   0.4542627  )
        25           O   tau(  25) = (   0.7042627   0.2619158   0.7475100  )
        26           O   tau(  26) = (   0.2957373   0.7962444   0.2524900  )
        27           O   tau(  27) = (   0.7957373   0.2671643   0.2475100  )
        28           O   tau(  28) = (   0.2042627   0.7909958   0.7524900  )
        29           O   tau(  29) = (   0.2957373   0.2619158   0.7524900  )
        30           O   tau(  30) = (   0.7042627   0.7962444   0.2475100  )
        31           O   tau(  31) = (   0.2042627   0.2671643   0.2524900  )
        32           O   tau(  32) = (   0.7957373   0.7909958   0.7475100  )

     number of k points=    64  gaussian smearing, width (Ry)=  0.0007
                       cart. coord. in units 2pi/alat
        k(    1) = (   0.0000000   0.0000000   0.0000000), wk =   0.0092593
        k(    2) = (   0.0000000   0.0000000   0.1666667), wk =   0.0185185
        k(    3) = (   0.0000000   0.0000000   0.3333333), wk =   0.0185185
        k(    4) = (   0.0000000   0.0000000  -0.5000000), wk =   0.0092593
        k(    5) = (   0.0000000   0.1575061   0.0000000), wk =   0.0185185
        k(    6) = (   0.0000000   0.1575061   0.1666667), wk =   0.0370370
        k(    7) = (   0.0000000   0.1575061   0.3333333), wk =   0.0370370
        k(    8) = (   0.0000000   0.1575061  -0.5000000), wk =   0.0185185
        k(    9) = (   0.0000000   0.3150122   0.0000000), wk =   0.0185185
        k(   10) = (   0.0000000   0.3150122   0.1666667), wk =   0.0370370
        k(   11) = (   0.0000000   0.3150122   0.3333333), wk =   0.0370370
        k(   12) = (   0.0000000   0.3150122  -0.5000000), wk =   0.0185185
        k(   13) = (   0.0000000  -0.4725183   0.0000000), wk =   0.0092593
        k(   14) = (   0.0000000  -0.4725183   0.1666667), wk =   0.0185185
        k(   15) = (   0.0000000  -0.4725183   0.3333333), wk =   0.0185185
        k(   16) = (   0.0000000  -0.4725183  -0.5000000), wk =   0.0092593
        k(   17) = (   0.1666667   0.0000000   0.1666667), wk =   0.0370370
        k(   18) = (   0.1666667   0.0000000   0.3333333), wk =   0.0370370
        k(   19) = (   0.1666667   0.0000000  -0.5000000), wk =   0.0185185
        k(   20) = (   0.1666667   0.1575061   0.1666667), wk =   0.0740741
        k(   21) = (   0.1666667   0.1575061   0.3333333), wk =   0.0740741
        k(   22) = (   0.1666667   0.1575061  -0.5000000), wk =   0.0370370
        k(   23) = (   0.1666667   0.3150122   0.1666667), wk =   0.0740741
        k(   24) = (   0.1666667   0.3150122   0.3333333), wk =   0.0740741
        k(   25) = (   0.1666667   0.3150122  -0.5000000), wk =   0.0370370
        k(   26) = (   0.1666667  -0.4725183   0.1666667), wk =   0.0370370
        k(   27) = (   0.1666667  -0.4725183   0.3333333), wk =   0.0370370
        k(   28) = (   0.1666667  -0.4725183  -0.5000000), wk =   0.0185185
        k(   29) = (   0.3333333   0.0000000   0.3333333), wk =   0.0370370
        k(   30) = (   0.3333333   0.0000000  -0.5000000), wk =   0.0185185
        k(   31) = (   0.3333333   0.1575061   0.3333333), wk =   0.0740741
        k(   32) = (   0.3333333   0.1575061  -0.5000000), wk =   0.0370370
        k(   33) = (   0.3333333   0.3150122   0.3333333), wk =   0.0740741
        k(   34) = (   0.3333333   0.3150122  -0.5000000), wk =   0.0370370
        k(   35) = (   0.3333333  -0.4725183   0.3333333), wk =   0.0370370
        k(   36) = (   0.3333333  -0.4725183  -0.5000000), wk =   0.0185185
        k(   37) = (  -0.5000000   0.0000000  -0.5000000), wk =   0.0092593
        k(   38) = (  -0.5000000   0.1575061  -0.5000000), wk =   0.0185185
        k(   39) = (  -0.5000000   0.3150122  -0.5000000), wk =   0.0185185
        k(   40) = (  -0.5000000  -0.4725183  -0.5000000), wk =   0.0092593
        k(   41) = (   0.1666667   0.0000000   0.0000000), wk =   0.0185185
        k(   42) = (   0.3333333   0.0000000   0.0000000), wk =   0.0185185
        k(   43) = (  -0.5000000   0.0000000   0.0000000), wk =   0.0092593
        k(   44) = (   0.1666667  -0.1575061   0.0000000), wk =   0.0370370
        k(   45) = (   0.3333333  -0.1575061   0.0000000), wk =   0.0370370
        k(   46) = (  -0.5000000  -0.1575061   0.0000000), wk =   0.0185185
        k(   47) = (   0.1666667  -0.3150122   0.0000000), wk =   0.0370370
        k(   48) = (   0.3333333  -0.3150122   0.0000000), wk =   0.0370370
        k(   49) = (  -0.5000000  -0.3150122   0.0000000), wk =   0.0185185
        k(   50) = (   0.1666667   0.4725183   0.0000000), wk =   0.0185185
        k(   51) = (   0.3333333   0.4725183   0.0000000), wk =   0.0185185
        k(   52) = (  -0.5000000   0.4725183   0.0000000), wk =   0.0092593
        k(   53) = (   0.3333333   0.0000000   0.1666667), wk =   0.0370370
        k(   54) = (  -0.5000000   0.0000000   0.1666667), wk =   0.0185185
        k(   55) = (   0.3333333  -0.1575061   0.1666667), wk =   0.0740741
        k(   56) = (  -0.5000000  -0.1575061   0.1666667), wk =   0.0370370
        k(   57) = (   0.3333333  -0.3150122   0.1666667), wk =   0.0740741
        k(   58) = (  -0.5000000  -0.3150122   0.1666667), wk =   0.0370370
        k(   59) = (   0.3333333   0.4725183   0.1666667), wk =   0.0370370
        k(   60) = (  -0.5000000   0.4725183   0.1666667), wk =   0.0185185
        k(   61) = (  -0.5000000   0.0000000   0.3333333), wk =   0.0185185
        k(   62) = (  -0.5000000  -0.1575061   0.3333333), wk =   0.0370370
        k(   63) = (  -0.5000000  -0.3150122   0.3333333), wk =   0.0370370
        k(   64) = (  -0.5000000   0.4725183   0.3333333), wk =   0.0185185

     Initial potential from superposition of free atoms

     starting charge  367.99656, renormalised to  368.00000
     Starting wfc are  232 randomized atomic wfcs

     Self-consistent Calculation

     iteration #  1     ecut=   120.00 Ry     beta= 0.70
     Davidson diagonalization with overlap
     ethr =  1.00E-02,  avg # of iterations =  5.0

     total energy              =   -6254.01023461 Ry
     Harris-Foulkes estimate   =   -6264.58400658 Ry
     estimated scf accuracy    <      13.39526648 Ry

[...]

     End of self-consistent calculation

[...]

     bravais-lattice index     =            0
     lattice parameter (alat)  =      13.8397  a.u.
     unit-cell volume          =    2816.7728 (a.u.)^3
     number of atoms/cell      =           32
     number of atomic types    =            2
     number of electrons       =       368.00
     number of Kohn-Sham states=          221
     kinetic-energy cutoff     =     120.0000  Ry
     charge density cutoff     =     480.0000  Ry
     convergence threshold     =      1.0E-10
     mixing beta               =       0.7000
     number of iterations used =            8  plain     mixing
     Exchange-correlation      = SLA PW NOGX NOGC ( 1  4  0  0 0 0)

     celldm(1)=  13.839685  celldm(2)=   0.000000  celldm(3)=   0.000000
     celldm(4)=   0.000000  celldm(5)=   0.000000  celldm(6)=   0.000000

     crystal axes: (cart. coord. in units of alat)
               a(1) = (   1.004270   0.000000   0.000000 )
               a(2) = (   0.000000   1.052750   0.000000 )
               a(3) = (   0.000000   0.000000   1.005073 )

     reciprocal axes: (cart. coord. in units 2 pi/alat)
               b(1) = (  0.995748  0.000000  0.000000 )
               b(2) = (  0.000000  0.949893  0.000000 )
               b(3) = (  0.000000  0.000000  0.994953 )

     PseudoPot. # 1 for W  read from file:
     /cluster/scratch/mnoe/QE/pps/W_ONCV_LDA-4.0.upf
     MD5 check sum: ba0307d5d4cd419d6f1d13dc49d7c13a
     Pseudo is Norm-conserving + core correction, Zval = 28.0
     Generated using ONCVPSP code by D. R. Hamann
     Using radial grid of 1380 points,  8 beta functions with:
                l(1) =   0
                l(2) =   0
                l(3) =   1
                l(4) =   1
                l(5) =   2
                l(6) =   2
                l(7) =   3
                l(8) =   3

     PseudoPot. # 2 for O  read from file:
     /cluster/scratch/mnoe/QE/pps/O_ONCV_LDA-3.0.upf
     MD5 check sum: a1bd6164e7280c17a38c229939bfbd54
     Pseudo is Norm-conserving + core correction, Zval =  6.0
     Generated using ONCVPSP code by D. R. Hamann
     Using radial grid of  926 points,  5 beta functions with:
                l(1) =   0
                l(2) =   0
                l(3) =   1
                l(4) =   1
                l(5) =   2

     atomic species   valence    mass     pseudopotential
        W             28.00   183.84000     W ( 1.00)
        O              6.00    15.99940     O ( 1.00)

      8 Sym. Ops., with inversion, found ( 6 have fractional translation)

   Cartesian axes

     site n.     atom                  positions (alat units)
         1           W   tau(   1) = (   0.2450318   0.2946947   0.0057088  )
         2           W   tau(   2) = (   0.7592381   0.7580550   0.9993641  )
         3           W   tau(   3) = (   0.2571031   0.2316801   0.5082453  )
         4           W   tau(   4) = (   0.7471667   0.8210696   0.4968276  )
         5           W   tau(   5) = (   0.7592381   0.2946947   0.4968276  )
         6           W   tau(   6) = (   0.2450318   0.7580550   0.5082453  )
         7           W   tau(   7) = (   0.7471667   0.2316801   0.9993641  )
         8           W   tau(   8) = (   0.2571031   0.8210696   0.0057088  )
         9           O   tau(   9) = (   0.2399301   0.0082049   0.0017790  )
        10           O   tau(  10) = (   0.7643398   1.0445448   1.0032939  )
        11           O   tau(  11) = (   0.2622048   0.5181699   0.5043155  )
        12           O   tau(  12) = (   0.7420651   0.5345798   0.5007575  )
        13           O   tau(  13) = (   0.7643398   0.0082049   0.5007575  )
        14           O   tau(  14) = (   0.2399301   1.0445448   0.5043155  )
        15           O   tau(  15) = (   0.7420651   0.5181699   1.0032939  )
        16           O   tau(  16) = (   0.2622048   0.5345798   0.0017790  )
        17           O   tau(  17) = (   0.5037820   0.2512071   0.4565672  )
        18           O   tau(  18) = (   0.5004880   0.8015426   0.5485058  )
        19           O   tau(  19) = (   1.0026229   0.2751678   0.9591037  )
        20           O   tau(  20) = (   0.0016471   0.7775820   0.0459693  )
        21           O   tau(  21) = (   0.5004880   0.2512071   0.0459693  )
        22           O   tau(  22) = (   0.5037820   0.8015426   0.9591037  )
        23           O   tau(  23) = (   0.0016471   0.2751678   0.5485058  )
        24           O   tau(  24) = (   1.0026229   0.7775820   0.4565672  )
        25           O   tau(  25) = (   0.7072699   0.2605766   0.7513020  )
        26           O   tau(  26) = (   0.2970000   0.7921732   0.2537708  )
        27           O   tau(  27) = (   0.7991350   0.2657983   0.2487656  )
        28           O   tau(  28) = (   0.2051349   0.7869515   0.7563073  )
        29           O   tau(  29) = (   0.2970000   0.2605766   0.7563073  )
        30           O   tau(  30) = (   0.7072699   0.7921732   0.2487656  )
        31           O   tau(  31) = (   0.2051349   0.2657983   0.2537708  )
        32           O   tau(  32) = (   0.7991350   0.7869515   0.7513020  )

     number of k points=    64  gaussian smearing, width (Ry)=  0.0007
                       cart. coord. in units 2pi/alat
        k(    1) = (   0.0000000   0.0000000   0.0000000), wk =   0.0092593
        k(    2) = (   0.0000000   0.0000000   0.1658254), wk =   0.0185185
        k(    3) = (   0.0000000   0.0000000   0.3316509), wk =   0.0185185
        k(    4) = (   0.0000000   0.0000000  -0.4974763), wk =   0.0092593
        k(    5) = (   0.0000000   0.1583156   0.0000000), wk =   0.0185185
        k(    6) = (   0.0000000   0.1583156   0.1658254), wk =   0.0370370
        k(    7) = (   0.0000000   0.1583156   0.3316509), wk =   0.0370370
        k(    8) = (   0.0000000   0.1583156  -0.4974763), wk =   0.0185185
        k(    9) = (   0.0000000   0.3166311   0.0000000), wk =   0.0185185
        k(   10) = (   0.0000000   0.3166311   0.1658254), wk =   0.0370370
        k(   11) = (   0.0000000   0.3166311   0.3316509), wk =   0.0370370
        k(   12) = (   0.0000000   0.3166311  -0.4974763), wk =   0.0185185
        k(   13) = (   0.0000000  -0.4749467   0.0000000), wk =   0.0092593
        k(   14) = (   0.0000000  -0.4749467   0.1658254), wk =   0.0185185
        k(   15) = (   0.0000000  -0.4749467   0.3316509), wk =   0.0185185
        k(   16) = (   0.0000000  -0.4749467  -0.4974763), wk =   0.0092593
        k(   17) = (   0.1659580   0.0000000   0.1658254), wk =   0.0370370
        k(   18) = (   0.1659580   0.0000000   0.3316509), wk =   0.0370370
        k(   19) = (   0.1659580   0.0000000  -0.4974763), wk =   0.0185185
        k(   20) = (   0.1659580   0.1583156   0.1658254), wk =   0.0740741
        k(   21) = (   0.1659580   0.1583156   0.3316509), wk =   0.0740741
        k(   22) = (   0.1659580   0.1583156  -0.4974763), wk =   0.0370370
        k(   23) = (   0.1659580   0.3166311   0.1658254), wk =   0.0740741
        k(   24) = (   0.1659580   0.3166311   0.3316509), wk =   0.0740741
        k(   25) = (   0.1659580   0.3166311  -0.4974763), wk =   0.0370370
        k(   26) = (   0.1659580  -0.4749467   0.1658254), wk =   0.0370370
        k(   27) = (   0.1659580  -0.4749467   0.3316509), wk =   0.0370370
        k(   28) = (   0.1659580  -0.4749467  -0.4974763), wk =   0.0185185
        k(   29) = (   0.3319161   0.0000000   0.3316509), wk =   0.0370370
        k(   30) = (   0.3319161   0.0000000  -0.4974763), wk =   0.0185185
        k(   31) = (   0.3319161   0.1583156   0.3316509), wk =   0.0740741
        k(   32) = (   0.3319161   0.1583156  -0.4974763), wk =   0.0370370
        k(   33) = (   0.3319161   0.3166311   0.3316509), wk =   0.0740741
        k(   34) = (   0.3319161   0.3166311  -0.4974763), wk =   0.0370370
        k(   35) = (   0.3319161  -0.4749467   0.3316509), wk =   0.0370370
        k(   36) = (   0.3319161  -0.4749467  -0.4974763), wk =   0.0185185
        k(   37) = (  -0.4978741   0.0000000  -0.4974763), wk =   0.0092593
        k(   38) = (  -0.4978741   0.1583156  -0.4974763), wk =   0.0185185
        k(   39) = (  -0.4978741   0.3166311  -0.4974763), wk =   0.0185185
        k(   40) = (  -0.4978741  -0.4749467  -0.4974763), wk =   0.0092593
        k(   41) = (   0.1659580   0.0000000   0.0000000), wk =   0.0185185
        k(   42) = (   0.3319161   0.0000000   0.0000000), wk =   0.0185185
        k(   43) = (  -0.4978741   0.0000000   0.0000000), wk =   0.0092593
        k(   44) = (   0.1659580  -0.1583156   0.0000000), wk =   0.0370370
        k(   45) = (   0.3319161  -0.1583156   0.0000000), wk =   0.0370370
        k(   46) = (  -0.4978741  -0.1583156   0.0000000), wk =   0.0185185
        k(   47) = (   0.1659580  -0.3166311   0.0000000), wk =   0.0370370
        k(   48) = (   0.3319161  -0.3166311   0.0000000), wk =   0.0370370
        k(   49) = (  -0.4978741  -0.3166311   0.0000000), wk =   0.0185185
        k(   50) = (   0.1659580   0.4749467   0.0000000), wk =   0.0185185
        k(   51) = (   0.3319161   0.4749467   0.0000000), wk =   0.0185185
        k(   52) = (  -0.4978741   0.4749467   0.0000000), wk =   0.0092593
        k(   53) = (   0.3319161   0.0000000   0.1658254), wk =   0.0370370
        k(   54) = (  -0.4978741   0.0000000   0.1658254), wk =   0.0185185
        k(   55) = (   0.3319161  -0.1583156   0.1658254), wk =   0.0740741
        k(   56) = (  -0.4978741  -0.1583156   0.1658254), wk =   0.0370370
        k(   57) = (   0.3319161  -0.3166311   0.1658254), wk =   0.0740741
        k(   58) = (  -0.4978741  -0.3166311   0.1658254), wk =   0.0370370
        k(   59) = (   0.3319161   0.4749467   0.1658254), wk =   0.0370370
        k(   60) = (  -0.4978741   0.4749467   0.1658254), wk =   0.0185185
        k(   61) = (  -0.4978741   0.0000000   0.3316509), wk =   0.0185185
        k(   62) = (  -0.4978741  -0.1583156   0.3316509), wk =   0.0370370
        k(   63) = (  -0.4978741  -0.3166311   0.3316509), wk =   0.0370370
        k(   64) = (  -0.4978741   0.4749467   0.3316509), wk =   0.0185185

     Initial potential from superposition of free atoms

     starting charge  367.99656, renormalised to  368.00000
     Starting wfc are  232 randomized atomic wfcs

     Writing output data file Landau_13.save

     Self-consistent Calculation

     iteration #  1     ecut=   120.00 Ry     beta= 0.70
     Davidson diagonalization with overlap
     c_bands:  1 eigenvalues not converged
     ethr =  1.00E-06,  avg # of iterations = 14.4

[...]

     total energy              =   -6261.11030397 Ry
     Harris-Foulkes estimate   =   -6261.11030397 Ry
     estimated scf accuracy    <          1.1E-10 Ry

     iteration # 15     ecut=   120.00 Ry     beta= 0.70
     Davidson diagonalization with overlap
     ethr =  1.00E-13,  avg # of iterations =  2.0

     End of self-consistent calculation

[...]

          k = 0.3319 0.4749 0.1658 ( 62520 PWs)   bands (ev):

[...]

          k =-0.4979 0.4749 0.3317 ( 62504 PWs)   bands (ev):

   -66.2487 -66.2487 -66.2487 -66.2487 -66.2483 -66.2483 -66.2483 -66.2483
   -30.6053 -30.6053 -30.6049 -30.6049 -30.6027 -30.6027 -30.6022 -30.6022
   -30.5669 -30.5669 -30.5668 -30.5668 -30.5421 -30.5421 -30.5416 -30.5416
   -30.5402 -30.5402 -30.5396 -30.5396 -30.5188 -30.5188 -30.5187 -30.5187
   -20.4118 -20.4118 -20.4118 -20.4118 -20.4117 -20.4117 -20.4117 -20.4117
   -20.3896 -20.3896 -20.3896 -20.3896 -20.3892 -20.3892 -20.3892 -20.3892
   -20.3876 -20.3876 -20.3876 -20.3876 -20.3873 -20.3873 -20.3873 -20.3873
   -20.3868 -20.3868 -20.3868 -20.3868 -20.3866 -20.3866 -20.3866 -20.3866
   -20.3776 -20.3776 -20.3776 -20.3776 -20.3763 -20.3763 -20.3763 -20.3763
   -20.3755 -20.3755 -20.3755 -20.3755 -20.3738 -20.3738 -20.3738 -20.3738
   -20.3723 -20.3723 -20.3722 -20.3722 -20.3710 -20.3710 -20.3710 -20.3710
    -9.2489  -9.2489  -9.2436  -9.2436  -8.8555  -8.8555  -8.8416  -8.8416
    -8.6187  -8.6187  -8.6057  -8.6057  -8.4631  -8.4631  -8.4451  -8.4451
    -8.4163  -8.4163  -8.4014  -8.4014  -8.1771  -8.1771  -8.1762  -8.1762
     2.1834   2.1834   2.1910   2.1910   2.9182   2.9182   2.9595   2.9595
     3.0537   3.0537   3.0616   3.0616   3.1833   3.1833   3.1973   3.1973
     3.3317   3.3317   3.3698   3.3698   3.5528   3.5528   3.5954   3.5954
     3.6989   3.6989   3.7978   3.7978   4.1744   4.1744   4.1966   4.1966
     4.2430   4.2430   4.3097   4.3097   4.3882   4.3882   4.4821   4.4821
     4.5911   4.5911   4.7297   4.7297   4.9797   4.9797   5.0013   5.0014
     6.9450   6.9450   7.0145   7.0145   7.1060   7.1060   7.1150   7.1150
     7.2098   7.2099   7.2525   7.2525   7.3077   7.3077   7.3389   7.3389
     7.4157   7.4157   7.4887   7.4887   7.5410   7.5410   7.5774   7.5774
    11.3629  11.3629  11.3975  11.3975  11.6333  11.6333  11.7113  11.7113
    12.1049  12.1049  12.1594  12.1594  12.2037  12.2037  12.2578  12.2578
    12.4020  12.4020  12.5190  12.5190  12.8497  12.8497  12.9286  12.9286
    16.4236  16.4236  16.4693  16.4693  16.9969  16.9970  17.0383  17.0383
    17.2751  17.2751  17.3528  17.3528  17.3891

     the Fermi energy is     8.9100 ev

!    total energy              =   -6261.11030397 Ry
     Harris-Foulkes estimate   =   -6261.11030397 Ry
     estimated scf accuracy    <          8.2E-12 Ry

     The total energy is the sum of the following terms:

     one-electron contribution =   -4738.00863617 Ry
     hartree contribution      =    2604.74191206 Ry
     xc contribution           =    -965.66825567 Ry
     ewald contribution        =   -3162.17532419 Ry
     smearing contrib. (-TS)   =      -0.00000000 Ry

     convergence has been achieved in  15 iterations

     Forces acting on atoms (cartesian axes, Ry/au):

     atom    1 type  1   force =    -0.00279119    0.00367822    0.00205379
     atom    2 type  1   force =     0.00279119   -0.00367822   -0.00205379
     atom    3 type  1   force =     0.00279119   -0.00367822    0.00205379
     atom    4 type  1   force =    -0.00279119    0.00367822   -0.00205379
     atom    5 type  1   force =     0.00279119    0.00367822   -0.00205379
     atom    6 type  1   force =    -0.00279119   -0.00367822    0.00205379
     atom    7 type  1   force =    -0.00279119   -0.00367822   -0.00205379
     atom    8 type  1   force =     0.00279119    0.00367822    0.00205379
     atom    9 type  2   force =    -0.00030200   -0.00172352    0.00009129
     atom   10 type  2   force =     0.00030200    0.00172352   -0.00009129
     atom   11 type  2   force =     0.00030200    0.00172352    0.00009129
     atom   12 type  2   force =    -0.00030200   -0.00172352   -0.00009129
     atom   13 type  2   force =     0.00030200   -0.00172352   -0.00009129
     atom   14 type  2   force =    -0.00030200    0.00172352    0.00009129
     atom   15 type  2   force =    -0.00030200    0.00172352   -0.00009129
     atom   16 type  2   force =     0.00030200   -0.00172352    0.00009129
     atom   17 type  2   force =    -0.00140318   -0.00006601   -0.00030366
     atom   18 type  2   force =     0.00140318    0.00006601    0.00030366
     atom   19 type  2   force =     0.00140318    0.00006601   -0.00030366
     atom   20 type  2   force =    -0.00140318   -0.00006601    0.00030366
     atom   21 type  2   force =     0.00140318   -0.00006601    0.00030366
     atom   22 type  2   force =    -0.00140318    0.00006601   -0.00030366
     atom   23 type  2   force =    -0.00140318    0.00006601    0.00030366
     atom   24 type  2   force =     0.00140318   -0.00006601   -0.00030366
     atom   25 type  2   force =    -0.00082660   -0.00063451    0.00131095
     atom   26 type  2   force =     0.00082660    0.00063451   -0.00131095
     atom   27 type  2   force =     0.00082660    0.00063451    0.00131095
     atom   28 type  2   force =    -0.00082660   -0.00063451   -0.00131095
     atom   29 type  2   force =     0.00082660   -0.00063451   -0.00131095
     atom   30 type  2   force =    -0.00082660    0.00063451    0.00131095
     atom   31 type  2   force =    -0.00082660    0.00063451   -0.00131095
     atom   32 type  2   force =     0.00082660   -0.00063451    0.00131095

     Total force =     0.000000     Total SCF correction =     0.000000

     Computing stress (Cartesian axis) and pressure

          total   stress  (Ry/bohr**3)                   (kbar)     P=    0.13
   0.00000142   0.00000000   0.00000000          0.21      0.00      0.00
   0.00000000  -0.00000032   0.00000000          0.00     -0.05      0.00
   0.00000000   0.00000000   0.00000161          0.00      0.00      0.24

     Writing output data file Landau_13.save

     General routines

     Parallel routines

   This run was terminated on:  15:42:29  11Mar2020

   JOB DONE.