     Program PWSCF v.6.2 (svn rev. 14038) starts on 21Mar2020 at  2: 1: 1

     K-points division:     npool     =      40
     Reading input from scf.in

     Current dimensions of program PWSCF are:
     Max number of different atomic species (ntypx) = 10
     Max number of k-points (npk) =  40000
     Max angular momentum in pseudopotentials (lmaxx) =  3

     Subspace diagonalization in iterative solution of the eigenvalue problem:
     a serial algorithm will be used

     bravais-lattice index     =            0
     lattice parameter (alat)  =      13.9029  a.u.
     unit-cell volume          =    2817.2682 (a.u.)^3
     number of atoms/cell      =           32
     number of atomic types    =            2
     number of electrons       =       368.60
     number of Kohn-Sham states=          221
     kinetic-energy cutoff     =     120.0000  Ry
     charge density cutoff     =     480.0000  Ry
     convergence threshold     =      1.0E-08
     mixing beta               =       0.7000
     number of iterations used =            8  plain     mixing
     Exchange-correlation      = SLA PW NOGX NOGC ( 1  4  0  0 0 0)

     celldm(1)=  13.902909  celldm(2)=   0.000000  celldm(3)=   0.000000
     celldm(4)=   0.000000  celldm(5)=   0.000000  celldm(6)=   0.000000

     crystal axes: (cart. coord. in units of alat)
               a(1) = (   1.000000   0.000000   0.000000 )
               a(2) = (   0.000000   1.047388   0.000000 )
               a(3) = (   0.000000   0.000000   1.000929 )

     reciprocal axes: (cart. coord. in units 2 pi/alat)
               b(1) = (  1.000000  0.000000  0.000000 )
               b(2) = (  0.000000  0.954756  0.000000 )
               b(3) = (  0.000000  0.000000  0.999071 )

     PseudoPot. # 1 for W  read from file:
     /cluster/scratch/mnoe/QE/pps/W_ONCV_LDA-4.0.upf
     MD5 check sum: ba0307d5d4cd419d6f1d13dc49d7c13a
     Pseudo is Norm-conserving + core correction, Zval = 28.0
     Generated using ONCVPSP code by D. R. Hamann
     Using radial grid of 1380 points,  8 beta functions with:
                l(1) =   0
                l(2) =   0
                l(3) =   1
                l(4) =   1
                l(5) =   2
                l(6) =   2
                l(7) =   3
                l(8) =   3

     PseudoPot. # 2 for O  read from file:
     /cluster/scratch/mnoe/QE/pps/O_ONCV_LDA-3.0.upf
     MD5 check sum: a1bd6164e7280c17a38c229939bfbd54
     Pseudo is Norm-conserving + core correction, Zval =  6.0
     Generated using ONCVPSP code by D. R. Hamann
     Using radial grid of  926 points,  5 beta functions with:
                l(1) =   0
                l(2) =   0
                l(3) =   1
                l(4) =   1
                l(5) =   2

     atomic species   valence    mass     pseudopotential
        W             28.00   183.84000     W ( 1.00)
        O              6.00    15.99940     O ( 1.00)

      8 Sym. Ops., with inversion, found ( 6 have fractional translation)

   Cartesian axes

     site n.     atom                  positions (alat units)
         1           W   tau(   1) = (   0.2435300   0.2930383   0.0061257  )
         2           W   tau(   2) = (   0.7564700   0.7543500   0.9948037  )
         3           W   tau(   3) = (   0.2564700   0.2306559   0.5065904  )
         4           W   tau(   4) = (   0.7435300   0.8167325   0.4943390  )
         5           W   tau(   5) = (   0.7564700   0.2930383   0.4943390  )
         6           W   tau(   6) = (   0.2435300   0.7543500   0.5065904  )
         7           W   tau(   7) = (   0.7435300   0.2306559   0.9948037  )
         8           W   tau(   8) = (   0.2564700   0.8167325   0.0061257  )
         9           O   tau(   9) = (   0.2380600   0.0081208   0.0019018  )
        10           O   tau(  10) = (   0.7619400   1.0392676   0.9990276  )
        11           O   tau(  11) = (   0.2619400   0.5155734   0.5023665  )
        12           O   tau(  12) = (   0.7380600   0.5318149   0.4985629  )
        13           O   tau(  13) = (   0.7619400   0.0081208   0.4985629  )
        14           O   tau(  14) = (   0.2380600   1.0392676   0.5023665  )
        15           O   tau(  15) = (   0.7380600   0.5155734   0.9990276  )
        16           O   tau(  16) = (   0.2619400   0.5318149   0.0019018  )
        17           O   tau(  17) = (   0.5017700   0.2490166   0.4550485  )
        18           O   tau(  18) = (   0.4982300   0.7983718   0.5458809  )
        19           O   tau(  19) = (   0.9982300   0.2746776   0.9555133  )
        20           O   tau(  20) = (   0.0017700   0.7727108   0.0454162  )
        21           O   tau(  21) = (   0.4982300   0.2490166   0.0454162  )
        22           O   tau(  22) = (   0.5017700   0.7983718   0.9555133  )
        23           O   tau(  23) = (   0.0017700   0.2746776   0.5458809  )
        24           O   tau(  24) = (   0.9982300   0.7727108   0.4550485  )
        25           O   tau(  25) = (   0.7046260   0.2590401   0.7480145  )
        26           O   tau(  26) = (   0.2953740   0.7883483   0.2529148  )
        27           O   tau(  27) = (   0.7953740   0.2646541   0.2475498  )
        28           O   tau(  28) = (   0.2046260   0.7827343   0.7533795  )
        29           O   tau(  29) = (   0.2953740   0.2590401   0.7533795  )
        30           O   tau(  30) = (   0.7046260   0.7883483   0.2475498  )
        31           O   tau(  31) = (   0.2046260   0.2646541   0.2529148  )
        32           O   tau(  32) = (   0.7953740   0.7827343   0.7480145  )

     number of k points=    64  gaussian smearing, width (Ry)=  0.0007
                       cart. coord. in units 2pi/alat
        k(    1) = (   0.0000000   0.0000000   0.0000000), wk =   0.0092593
        k(    2) = (   0.0000000   0.0000000   0.1665119), wk =   0.0185185
        k(    3) = (   0.0000000   0.0000000   0.3330238), wk =   0.0185185
        k(    4) = (   0.0000000   0.0000000  -0.4995357), wk =   0.0092593
        k(    5) = (   0.0000000   0.1591259   0.0000000), wk =   0.0185185
        k(    6) = (   0.0000000   0.1591259   0.1665119), wk =   0.0370370
        k(    7) = (   0.0000000   0.1591259   0.3330238), wk =   0.0370370
        k(    8) = (   0.0000000   0.1591259  -0.4995357), wk =   0.0185185
        k(    9) = (   0.0000000   0.3182519   0.0000000), wk =   0.0185185
        k(   10) = (   0.0000000   0.3182519   0.1665119), wk =   0.0370370
        k(   11) = (   0.0000000   0.3182519   0.3330238), wk =   0.0370370
        k(   12) = (   0.0000000   0.3182519  -0.4995357), wk =   0.0185185
        k(   13) = (   0.0000000  -0.4773778   0.0000000), wk =   0.0092593
        k(   14) = (   0.0000000  -0.4773778   0.1665119), wk =   0.0185185
        k(   15) = (   0.0000000  -0.4773778   0.3330238), wk =   0.0185185
        k(   16) = (   0.0000000  -0.4773778  -0.4995357), wk =   0.0092593
        k(   17) = (   0.1666667   0.0000000   0.0000000), wk =   0.0185185
        k(   18) = (   0.1666667   0.0000000   0.1665119), wk =   0.0370370
        k(   19) = (   0.1666667   0.0000000   0.3330238), wk =   0.0370370
        k(   20) = (   0.1666667   0.0000000  -0.4995357), wk =   0.0185185
        k(   21) = (   0.1666667   0.1591259   0.0000000), wk =   0.0370370
        k(   22) = (   0.1666667   0.1591259   0.1665119), wk =   0.0740741
        k(   23) = (   0.1666667   0.1591259   0.3330238), wk =   0.0740741
        k(   24) = (   0.1666667   0.1591259  -0.4995357), wk =   0.0370370
        k(   25) = (   0.1666667   0.3182519   0.0000000), wk =   0.0370370
        k(   26) = (   0.1666667   0.3182519   0.1665119), wk =   0.0740741
        k(   27) = (   0.1666667   0.3182519   0.3330238), wk =   0.0740741
        k(   28) = (   0.1666667   0.3182519  -0.4995357), wk =   0.0370370
        k(   29) = (   0.1666667  -0.4773778   0.0000000), wk =   0.0185185
        k(   30) = (   0.1666667  -0.4773778   0.1665119), wk =   0.0370370
        k(   31) = (   0.1666667  -0.4773778   0.3330238), wk =   0.0370370
        k(   32) = (   0.1666667  -0.4773778  -0.4995357), wk =   0.0185185
        k(   33) = (   0.3333333   0.0000000   0.0000000), wk =   0.0185185
        k(   34) = (   0.3333333   0.0000000   0.1665119), wk =   0.0370370
        k(   35) = (   0.3333333   0.0000000   0.3330238), wk =   0.0370370
        k(   36) = (   0.3333333   0.0000000  -0.4995357), wk =   0.0185185
        k(   37) = (   0.3333333   0.1591259   0.0000000), wk =   0.0370370
        k(   38) = (   0.3333333   0.1591259   0.1665119), wk =   0.0740741
        k(   39) = (   0.3333333   0.1591259   0.3330238), wk =   0.0740741
        k(   40) = (   0.3333333   0.1591259  -0.4995357), wk =   0.0370370
        k(   41) = (   0.3333333   0.3182519   0.0000000), wk =   0.0370370
        k(   42) = (   0.3333333   0.3182519   0.1665119), wk =   0.0740741
        k(   43) = (   0.3333333   0.3182519   0.3330238), wk =   0.0740741
        k(   44) = (   0.3333333   0.3182519  -0.4995357), wk =   0.0370370
        k(   45) = (   0.3333333  -0.4773778   0.0000000), wk =   0.0185185
        k(   46) = (   0.3333333  -0.4773778   0.1665119), wk =   0.0370370
        k(   47) = (   0.3333333  -0.4773778   0.3330238), wk =   0.0370370
        k(   48) = (   0.3333333  -0.4773778  -0.4995357), wk =   0.0185185
        k(   49) = (  -0.5000000   0.0000000   0.0000000), wk =   0.0092593
        k(   50) = (  -0.5000000   0.0000000   0.1665119), wk =   0.0185185
        k(   51) = (  -0.5000000   0.0000000   0.3330238), wk =   0.0185185
        k(   52) = (  -0.5000000   0.0000000  -0.4995357), wk =   0.0092593
        k(   53) = (  -0.5000000   0.1591259   0.0000000), wk =   0.0185185
        k(   54) = (  -0.5000000   0.1591259   0.1665119), wk =   0.0370370
        k(   55) = (  -0.5000000   0.1591259   0.3330238), wk =   0.0370370
        k(   56) = (  -0.5000000   0.1591259  -0.4995357), wk =   0.0185185
        k(   57) = (  -0.5000000   0.3182519   0.0000000), wk =   0.0185185
        k(   58) = (  -0.5000000   0.3182519   0.1665119), wk =   0.0370370
        k(   59) = (  -0.5000000   0.3182519   0.3330238), wk =   0.0370370
        k(   60) = (  -0.5000000   0.3182519  -0.4995357), wk =   0.0185185
        k(   61) = (  -0.5000000  -0.4773778   0.0000000), wk =   0.0092593
        k(   62) = (  -0.5000000  -0.4773778   0.1665119), wk =   0.0185185
        k(   63) = (  -0.5000000  -0.4773778   0.3330238), wk =   0.0185185
        k(   64) = (  -0.5000000  -0.4773778  -0.4995357), wk =   0.0092593

     Initial potential from superposition of free atoms

     starting charge  367.99656, renormalised to  368.60000
     Starting wfc are  232 randomized atomic wfcs

     Self-consistent Calculation

     iteration #  1     ecut=   120.00 Ry     beta= 0.70
     Davidson diagonalization with overlap
     ethr =  1.00E-02,  avg # of iterations =  5.2

     total energy              =   -6253.44271220 Ry
     Harris-Foulkes estimate   =   -6264.27720201 Ry
     estimated scf accuracy    <      13.64856684 Ry

[...]

     total energy              =   -6260.68919479 Ry
     Harris-Foulkes estimate   =   -6260.68919482 Ry
     estimated scf accuracy    <       0.00000006 Ry

     iteration # 13     ecut=   120.00 Ry     beta= 0.70
     Davidson diagonalization with overlap
     ethr =  1.63E-11,  avg # of iterations =  2.8

     End of self-consistent calculation

          k = 0.0000 0.0000 0.0000 ( 62511 PWs)   bands (ev):

   -66.1127 -66.1123 -66.1118 -66.1118 -66.1113 -66.1113 -66.1108 -66.1104
   -30.5485 -30.5444 -30.5440 -30.5402 -30.4892 -30.4841 -30.4830 -30.4781
   -30.4557 -30.4542 -30.4490 -30.4479 -30.4472 -30.4462 -30.4429 -30.4410
   -30.3571 -30.3546 -30.3545 -30.3540 -30.3524 -30.3512 -30.3486 -30.3463
   -20.2646 -20.2645 -20.2642 -20.2640 -20.2630 -20.2629 -20.2627 -20.2626
   -20.2613 -20.2612 -20.2610 -20.2609 -20.2576 -20.2573 -20.2571 -20.2568
   -20.2533 -20.2528 -20.2527 -20.2526 -20.2521 -20.2515 -20.2514 -20.2513
   -20.2504 -20.2500 -20.2499 -20.2497 -20.2489 -20.2488 -20.2488 -20.2484
   -20.2391 -20.2390 -20.2386 -20.2385 -20.2383 -20.2381 -20.2378 -20.2377
   -20.2123 -20.2123 -20.2108 -20.2108 -20.2107 -20.2107 -20.2094 -20.2094
   -20.2063 -20.2063 -20.2052 -20.2052 -20.2050 -20.2049 -20.2037 -20.2037
    -9.9766  -9.6756  -9.5611  -9.5610  -9.2685  -9.2612  -9.1652  -9.0567
    -9.0415  -8.9481  -8.9167  -8.9149  -7.9067  -7.8447  -7.8390  -7.7900
    -7.7878  -7.7840  -7.7589  -7.7580  -7.6610  -7.6571  -7.6355  -7.6332
     1.1827   1.1854   1.2499   1.2575   1.2781   1.2940   1.3035   1.5241
     1.5456   1.5572   1.5920   1.7980   2.4060   2.4904   2.5217   2.5290
     2.6622   2.6744   4.1377   4.1571   4.3474   4.3816   4.7243   4.7656
     4.7681   4.7831   4.8057   4.8071   4.9512   4.9531   5.0685   5.4047
     5.4251   5.4276   5.4644   5.5110   5.5160   5.5450   5.5748   5.7980
     5.8013   5.8041   5.8243   5.8420   5.9256   6.0427   6.0553   6.0923
     6.0962   6.2438   6.2536   6.4736   6.4778   6.7739   6.8021   6.8025
     6.8221   6.8399   6.9640   6.9840   7.0258   7.0414   7.2989   7.3194
     7.3265   7.3452   7.8493   7.8642   8.0143   8.0472   8.0812   8.1136
     9.2996   9.3087   9.8911   9.9007   9.9052   9.9175  12.2728  12.2774
    12.3457  12.3694  12.3768  12.4049  12.5091  12.5285  12.8489  12.9720
    13.1775  13.2591  13.2909  13.3164  13.7681  13.9852  14.1171  14.1258
    14.2356  14.3798  14.5021  14.7900  15.3473  15.3620  15.5102  16.0137
    16.0358  16.8293  17.0223  17.0490  17.2844

[...]

          k = 0.3333-0.4774-0.4995 ( 62516 PWs)   bands (ev):

[...]

          k =-0.5000 0.0000 0.0000 ( 62568 PWs)   bands (ev):

[...]

          k =-0.5000-0.4774-0.4995 ( 62432 PWs)   bands (ev):

   -66.1116 -66.1115 -66.1115 -66.1115 -66.1115 -66.1115 -66.1115 -66.1115
   -30.5140 -30.5140 -30.5140 -30.5140 -30.5136 -30.5136 -30.5136 -30.5136
   -30.4057 -30.4057 -30.4057 -30.4057 -30.4037 -30.4037 -30.4037 -30.4037
   -30.3976 -30.3976 -30.3976 -30.3976 -30.3956 -30.3956 -30.3956 -30.3956
   -20.2632 -20.2632 -20.2632 -20.2632 -20.2632 -20.2632 -20.2632 -20.2632
   -20.2597 -20.2597 -20.2597 -20.2597 -20.2596 -20.2596 -20.2596 -20.2596
   -20.2516 -20.2516 -20.2516 -20.2515 -20.2512 -20.2512 -20.2512 -20.2512
   -20.2503 -20.2503 -20.2503 -20.2503 -20.2499 -20.2499 -20.2499 -20.2499
   -20.2384 -20.2384 -20.2384 -20.2384 -20.2383 -20.2383 -20.2383 -20.2383
   -20.2089 -20.2089 -20.2089 -20.2089 -20.2087 -20.2087 -20.2087 -20.2087
   -20.2073 -20.2073 -20.2073 -20.2073 -20.2072 -20.2072 -20.2072 -20.2072
    -8.9711  -8.9711  -8.9711  -8.9710  -8.9605  -8.9605  -8.9605  -8.9605
    -8.4516  -8.4515  -8.4515  -8.4515  -8.4323  -8.4323  -8.4323  -8.4323
    -8.3911  -8.3911  -8.3911  -8.3911  -8.3804  -8.3804  -8.3804  -8.3804
     2.9470   2.9470   2.9470   2.9470   2.9954   2.9954   2.9954   2.9954
     3.1130   3.1130   3.1130   3.1130   3.1771   3.1771   3.1771   3.1771
     3.3584   3.3584   3.3584   3.3584   3.4600   3.4600   3.4600   3.4600
     4.1138   4.1138   4.1138   4.1138   4.1288   4.1288   4.1288   4.1288
     4.2988   4.2988   4.2988   4.2988   4.3240   4.3240   4.3240   4.3240
     4.4044   4.4044   4.4044   4.4044   4.4397   4.4397   4.4397   4.4397
     7.1008   7.1009   7.1009   7.1009   7.2116   7.2116   7.2116   7.2116
     7.2902   7.2902   7.2902   7.2902   7.3117   7.3117   7.3117   7.3117
     7.5484   7.5484   7.5484   7.5484   7.5813   7.5813   7.5813   7.5813
    11.8385  11.8385  11.8385  11.8385  11.8517  11.8517  11.8517  11.8517
    12.1724  12.1724  12.1724  12.1724  12.2787  12.2787  12.2787  12.2787
    12.4553  12.4553  12.4553  12.4553  12.5066  12.5066  12.5066  12.5066
    17.0869  17.0869  17.0870  17.0870  17.1472  17.1473  17.1473  17.1473
    17.3940  17.3941  17.3941  17.3941  17.4215

     the Fermi energy is     9.8707 ev

!    total energy              =   -6260.68919480 Ry
     Harris-Foulkes estimate   =   -6260.68919480 Ry
     estimated scf accuracy    <          1.1E-09 Ry

     The total energy is the sum of the following terms:

     one-electron contribution =   -4739.99214259 Ry
     hartree contribution      =    2607.51065175 Ry
     xc contribution           =    -966.33090792 Ry
     ewald contribution        =   -3161.87678558 Ry
     smearing contrib. (-TS)   =      -0.00001046 Ry

     convergence has been achieved in  13 iterations

     Writing output data file Landau_7.save

     General routines

     Parallel routines

   This run was terminated on:   2:29:34  21Mar2020

   JOB DONE.