     Program PWSCF v.6.2 (svn rev. 14038) starts on 19Mar2020 at  1:50: 0

     K-points division:     npool     =      40
     Reading input from scf.in

     Current dimensions of program PWSCF are:
     Max number of different atomic species (ntypx) = 10
     Max number of k-points (npk) =  40000
     Max angular momentum in pseudopotentials (lmaxx) =  3

     Subspace diagonalization in iterative solution of the eigenvalue problem:
     a serial algorithm will be used

     bravais-lattice index     =            0
     lattice parameter (alat)  =      13.8169  a.u.
     unit-cell volume          =    2768.6122 (a.u.)^3
     number of atoms/cell      =           32
     number of atomic types    =            2
     number of electrons       =       368.20
     number of Kohn-Sham states=          221
     kinetic-energy cutoff     =     120.0000  Ry
     charge density cutoff     =     480.0000  Ry
     convergence threshold     =      1.0E-08
     mixing beta               =       0.7000
     number of iterations used =            8  plain     mixing
     Exchange-correlation      = SLA PW NOGX NOGC ( 1  4  0  0 0 0)

     celldm(1)=  13.816932  celldm(2)=   0.000000  celldm(3)=   0.000000
     celldm(4)=   0.000000  celldm(5)=   0.000000  celldm(6)=   0.000000

     crystal axes: (cart. coord. in units of alat)
               a(1) = (   1.000000   0.000000   0.000000 )
               a(2) = (   0.000000   1.041598   0.000000 )
               a(3) = (   0.000000   0.000000   1.007690 )

     reciprocal axes: (cart. coord. in units 2 pi/alat)
               b(1) = (  1.000000  0.000000  0.000000 )
               b(2) = (  0.000000  0.960063  0.000000 )
               b(3) = (  0.000000  0.000000  0.992369 )

     PseudoPot. # 1 for W  read from file:
     /cluster/scratch/mnoe/QE/pps/W_ONCV_LDA-4.0.upf
     MD5 check sum: ba0307d5d4cd419d6f1d13dc49d7c13a
     Pseudo is Norm-conserving + core correction, Zval = 28.0
     Generated using ONCVPSP code by D. R. Hamann
     Using radial grid of 1380 points,  8 beta functions with:
                l(1) =   0
                l(2) =   0
                l(3) =   1
                l(4) =   1
                l(5) =   2
                l(6) =   2
                l(7) =   3
                l(8) =   3

     PseudoPot. # 2 for O  read from file:
     /cluster/scratch/mnoe/QE/pps/O_ONCV_LDA-3.0.upf
     MD5 check sum: a1bd6164e7280c17a38c229939bfbd54
     Pseudo is Norm-conserving + core correction, Zval =  6.0
     Generated using ONCVPSP code by D. R. Hamann
     Using radial grid of  926 points,  5 beta functions with:
                l(1) =   0
                l(2) =   0
                l(3) =   1
                l(4) =   1
                l(5) =   2

     atomic species   valence    mass     pseudopotential
        W             28.00   183.84000     W ( 1.00)
        O              6.00    15.99940     O ( 1.00)

      8 Sym. Ops., with inversion, found ( 6 have fractional translation)

   Cartesian axes

     site n.     atom                  positions (alat units)
         1           W   tau(   1) = (   0.2324300   0.2935849   0.0167277  )
         2           W   tau(   2) = (   0.7675700   0.7480134   0.9909625  )
         3           W   tau(   3) = (   0.2675700   0.2272143   0.5205727  )
         4           W   tau(   4) = (   0.7324300   0.8143841   0.4871174  )
         5           W   tau(   5) = (   0.7675700   0.2935849   0.4871174  )
         6           W   tau(   6) = (   0.2324300   0.7480134   0.5205727  )
         7           W   tau(   7) = (   0.7324300   0.2272143   0.9909625  )
         8           W   tau(   8) = (   0.2675700   0.8143841   0.0167277  )
         9           O   tau(   9) = (   0.2175800   0.0086661   0.0051997  )
        10           O   tau(  10) = (   0.7824200   1.0329323   1.0024905  )
        11           O   tau(  11) = (   0.2824200   0.5121331   0.5090447  )
        12           O   tau(  12) = (   0.7175800   0.5294652   0.4986454  )
        13           O   tau(  13) = (   0.7824200   0.0086661   0.4986454  )
        14           O   tau(  14) = (   0.2175800   1.0329323   0.5090447  )
        15           O   tau(  15) = (   0.7175800   0.5121331   1.0024905  )
        16           O   tau(  16) = (   0.2824200   0.5294652   0.0051997  )
        17           O   tau(  17) = (   0.5048000   0.2257560   0.4529970  )
        18           O   tau(  18) = (   0.4952000   0.8158423   0.5546931  )
        19           O   tau(  19) = (   0.9952000   0.2950431   0.9568421  )
        20           O   tau(  20) = (   0.0048001   0.7465552   0.0508481  )
        21           O   tau(  21) = (   0.4952000   0.2257560   0.0508481  )
        22           O   tau(  22) = (   0.5048000   0.8158423   0.9568421  )
        23           O   tau(  23) = (   0.0048001   0.2950431   0.5546931  )
        24           O   tau(  24) = (   0.9952000   0.7465552   0.4529970  )
        25           O   tau(  25) = (   0.6995400   0.2528376   0.7484215  )
        26           O   tau(  26) = (   0.3004600   0.7887607   0.2592686  )
        27           O   tau(  27) = (   0.8004600   0.2679616   0.2445765  )
        28           O   tau(  28) = (   0.1995400   0.7736368   0.7631137  )
        29           O   tau(  29) = (   0.3004600   0.2528376   0.7631137  )
        30           O   tau(  30) = (   0.6995400   0.7887607   0.2445765  )
        31           O   tau(  31) = (   0.1995400   0.2679616   0.2592686  )
        32           O   tau(  32) = (   0.8004600   0.7736368   0.7484215  )

     number of k points=    64  gaussian smearing, width (Ry)=  0.0007
                       cart. coord. in units 2pi/alat
        k(    1) = (   0.0000000   0.0000000   0.0000000), wk =   0.0092593
        k(    2) = (   0.0000000   0.0000000   0.1653948), wk =   0.0185185
        k(    3) = (   0.0000000   0.0000000   0.3307895), wk =   0.0185185
        k(    4) = (   0.0000000   0.0000000  -0.4961843), wk =   0.0092593
        k(    5) = (   0.0000000   0.1600105   0.0000000), wk =   0.0185185
        k(    6) = (   0.0000000   0.1600105   0.1653948), wk =   0.0370370
        k(    7) = (   0.0000000   0.1600105   0.3307895), wk =   0.0370370
        k(    8) = (   0.0000000   0.1600105  -0.4961843), wk =   0.0185185
        k(    9) = (   0.0000000   0.3200210   0.0000000), wk =   0.0185185
        k(   10) = (   0.0000000   0.3200210   0.1653948), wk =   0.0370370
        k(   11) = (   0.0000000   0.3200210   0.3307895), wk =   0.0370370
        k(   12) = (   0.0000000   0.3200210  -0.4961843), wk =   0.0185185
        k(   13) = (   0.0000000  -0.4800315   0.0000000), wk =   0.0092593
        k(   14) = (   0.0000000  -0.4800315   0.1653948), wk =   0.0185185
        k(   15) = (   0.0000000  -0.4800315   0.3307895), wk =   0.0185185
        k(   16) = (   0.0000000  -0.4800315  -0.4961843), wk =   0.0092593
        k(   17) = (   0.1666667   0.0000000   0.0000000), wk =   0.0185185
        k(   18) = (   0.1666667   0.0000000   0.1653948), wk =   0.0370370
        k(   19) = (   0.1666667   0.0000000   0.3307895), wk =   0.0370370
        k(   20) = (   0.1666667   0.0000000  -0.4961843), wk =   0.0185185
        k(   21) = (   0.1666667   0.1600105   0.0000000), wk =   0.0370370
        k(   22) = (   0.1666667   0.1600105   0.1653948), wk =   0.0740741
        k(   23) = (   0.1666667   0.1600105   0.3307895), wk =   0.0740741
        k(   24) = (   0.1666667   0.1600105  -0.4961843), wk =   0.0370370
        k(   25) = (   0.1666667   0.3200210   0.0000000), wk =   0.0370370
        k(   26) = (   0.1666667   0.3200210   0.1653948), wk =   0.0740741
        k(   27) = (   0.1666667   0.3200210   0.3307895), wk =   0.0740741
        k(   28) = (   0.1666667   0.3200210  -0.4961843), wk =   0.0370370
        k(   29) = (   0.1666667  -0.4800315   0.0000000), wk =   0.0185185
        k(   30) = (   0.1666667  -0.4800315   0.1653948), wk =   0.0370370
        k(   31) = (   0.1666667  -0.4800315   0.3307895), wk =   0.0370370
        k(   32) = (   0.1666667  -0.4800315  -0.4961843), wk =   0.0185185
        k(   33) = (   0.3333333   0.0000000   0.0000000), wk =   0.0185185
        k(   34) = (   0.3333333   0.0000000   0.1653948), wk =   0.0370370
        k(   35) = (   0.3333333   0.0000000   0.3307895), wk =   0.0370370
        k(   36) = (   0.3333333   0.0000000  -0.4961843), wk =   0.0185185
        k(   37) = (   0.3333333   0.1600105   0.0000000), wk =   0.0370370
        k(   38) = (   0.3333333   0.1600105   0.1653948), wk =   0.0740741
        k(   39) = (   0.3333333   0.1600105   0.3307895), wk =   0.0740741
        k(   40) = (   0.3333333   0.1600105  -0.4961843), wk =   0.0370370
        k(   41) = (   0.3333333   0.3200210   0.0000000), wk =   0.0370370
        k(   42) = (   0.3333333   0.3200210   0.1653948), wk =   0.0740741
        k(   43) = (   0.3333333   0.3200210   0.3307895), wk =   0.0740741
        k(   44) = (   0.3333333   0.3200210  -0.4961843), wk =   0.0370370
        k(   45) = (   0.3333333  -0.4800315   0.0000000), wk =   0.0185185
        k(   46) = (   0.3333333  -0.4800315   0.1653948), wk =   0.0370370
        k(   47) = (   0.3333333  -0.4800315   0.3307895), wk =   0.0370370
        k(   48) = (   0.3333333  -0.4800315  -0.4961843), wk =   0.0185185
        k(   49) = (  -0.5000000   0.0000000   0.0000000), wk =   0.0092593
        k(   50) = (  -0.5000000   0.0000000   0.1653948), wk =   0.0185185
        k(   51) = (  -0.5000000   0.0000000   0.3307895), wk =   0.0185185
        k(   52) = (  -0.5000000   0.0000000  -0.4961843), wk =   0.0092593
        k(   53) = (  -0.5000000   0.1600105   0.0000000), wk =   0.0185185
        k(   54) = (  -0.5000000   0.1600105   0.1653948), wk =   0.0370370
        k(   55) = (  -0.5000000   0.1600105   0.3307895), wk =   0.0370370
        k(   56) = (  -0.5000000   0.1600105  -0.4961843), wk =   0.0185185
        k(   57) = (  -0.5000000   0.3200210   0.0000000), wk =   0.0185185
        k(   58) = (  -0.5000000   0.3200210   0.1653948), wk =   0.0370370
        k(   59) = (  -0.5000000   0.3200210   0.3307895), wk =   0.0370370
        k(   60) = (  -0.5000000   0.3200210  -0.4961843), wk =   0.0185185
        k(   61) = (  -0.5000000  -0.4800315   0.0000000), wk =   0.0092593
        k(   62) = (  -0.5000000  -0.4800315   0.1653948), wk =   0.0185185
        k(   63) = (  -0.5000000  -0.4800315   0.3307895), wk =   0.0185185
        k(   64) = (  -0.5000000  -0.4800315  -0.4961843), wk =   0.0092593

     Initial potential from superposition of free atoms

     starting charge  367.99656, renormalised to  368.20000
     Starting wfc are  232 randomized atomic wfcs

     Self-consistent Calculation

     iteration #  1     ecut=   120.00 Ry     beta= 0.70
     Davidson diagonalization with overlap
     ethr =  1.00E-02,  avg # of iterations =  4.9

     total energy              =   -6253.85068289 Ry
     Harris-Foulkes estimate   =   -6264.42348841 Ry
     estimated scf accuracy    <      13.36927160 Ry

[...]

     total energy              =   -6260.95965510 Ry
     Harris-Foulkes estimate   =   -6260.95965511 Ry
     estimated scf accuracy    <       0.00000002 Ry

     iteration # 13     ecut=   120.00 Ry     beta= 0.70
     Davidson diagonalization with overlap
     ethr =  5.96E-12,  avg # of iterations =  2.2

     End of self-consistent calculation

          k = 0.0000 0.0000 0.0000 ( 61463 PWs)   bands (ev):

   -65.8697 -65.8692 -65.8688 -65.8687 -65.8683 -65.8681 -65.8678 -65.8672
   -30.2879 -30.2791 -30.2782 -30.2669 -30.2593 -30.2542 -30.2496 -30.2457
   -30.2422 -30.2291 -30.2214 -30.2073 -30.2061 -30.1955 -30.1954 -30.1689
   -30.1544 -30.1535 -30.1454 -30.1375 -30.1301 -30.1216 -30.1208 -30.1123
   -20.0256 -20.0255 -20.0251 -20.0250 -20.0249 -20.0249 -20.0244 -20.0243
   -20.0070 -20.0066 -20.0066 -20.0066 -20.0063 -20.0062 -20.0061 -20.0058
   -20.0003 -20.0001 -20.0000 -20.0000 -19.9998 -19.9998 -19.9996 -19.9994
   -19.9979 -19.9976 -19.9968 -19.9966 -19.9935 -19.9930 -19.9917 -19.9914
   -19.9907 -19.9905 -19.9903 -19.9901 -19.9857 -19.9852 -19.9850 -19.9845
   -19.9840 -19.9839 -19.9836 -19.9835 -19.9800 -19.9799 -19.9792 -19.9792
   -19.9696 -19.9694 -19.9683 -19.9681 -19.9680 -19.9677 -19.9667 -19.9665
    -9.7279  -9.4049  -9.2772  -9.2676  -8.9752  -8.9310  -8.8477  -8.7472
    -8.7226  -8.6447  -8.5997  -8.5946  -7.7164  -7.6456  -7.5904  -7.5752
    -7.5581  -7.5497  -7.5430  -7.4811  -7.4753  -7.4436  -7.4358  -7.4288
     1.5530   1.5702   1.6125   1.6160   1.6535   1.6616   1.7113   1.8437
     1.8580   1.9472   1.9494   2.1651   2.6058   2.7064   2.7475   2.8041
     2.8875   2.9820   4.3079   4.4135   4.5584   4.8021   4.8349   4.9297
     4.9783   5.0181   5.0209   5.0283   5.3002   5.3616   5.4423   5.5738
     5.7026   5.7786   5.7846   5.7919   5.8793   5.8940   5.9353   5.9989
     6.0235   6.0512   6.0584   6.0621   6.1722   6.1766   6.2165   6.2941
     6.3498   6.4447   6.4952   6.7005   6.7292   6.9229   6.9756   7.0234
     7.0479   7.1097   7.1475   7.1899   7.1916   7.2340   7.3465   7.3882
     7.4862   7.5241   7.8912   7.9241   8.0850   8.1542   8.3180   8.3664
     9.9706  10.0097  10.3823  10.3889  10.4630  10.4742  12.3359  12.4670
    12.5568  12.5757  12.7562  12.7875  12.7943  12.8978  12.9112  12.9834
    13.4512  13.4522  13.4912  13.5731  13.7862  13.8526  14.2707  14.2770
    14.8308  14.8584  15.1162  15.1662  15.6123  15.6641  15.8698  16.1093
    16.2587  16.9418  17.0477  17.2336  17.8616

[...]

          k = 0.3333-0.4800-0.4962 ( 61416 PWs)   bands (ev):

[...]

          k =-0.5000 0.0000 0.0000 ( 61460 PWs)   bands (ev):

[...]

          k =-0.5000-0.4800-0.4962 ( 61496 PWs)   bands (ev):

   -65.8685 -65.8685 -65.8685 -65.8685 -65.8685 -65.8685 -65.8685 -65.8685
   -30.2486 -30.2486 -30.2486 -30.2486 -30.2473 -30.2473 -30.2473 -30.2473
   -30.2045 -30.2044 -30.2044 -30.2044 -30.2016 -30.2016 -30.2016 -30.2016
   -30.1589 -30.1589 -30.1589 -30.1589 -30.1561 -30.1561 -30.1561 -30.1561
   -20.0250 -20.0250 -20.0249 -20.0249 -20.0249 -20.0249 -20.0249 -20.0249
   -20.0064 -20.0064 -20.0064 -20.0064 -20.0064 -20.0064 -20.0064 -20.0064
   -20.0000 -20.0000 -20.0000 -20.0000 -20.0000 -20.0000 -20.0000 -20.0000
   -19.9949 -19.9949 -19.9949 -19.9949 -19.9948 -19.9948 -19.9948 -19.9947
   -19.9874 -19.9873 -19.9873 -19.9873 -19.9868 -19.9868 -19.9868 -19.9868
   -19.9825 -19.9825 -19.9825 -19.9825 -19.9822 -19.9821 -19.9821 -19.9821
   -19.9682 -19.9682 -19.9682 -19.9682 -19.9681 -19.9681 -19.9681 -19.9681
    -8.7404  -8.7404  -8.7404  -8.7404  -8.7029  -8.7028  -8.7028  -8.7028
    -8.2006  -8.2006  -8.2006  -8.2006  -8.1494  -8.1494  -8.1494  -8.1494
    -8.1175  -8.1175  -8.1175  -8.1175  -8.0640  -8.0640  -8.0640  -8.0640
     3.0715   3.0715   3.0715   3.0715   3.1798   3.1798   3.1798   3.1798
     3.3651   3.3651   3.3651   3.3651   3.4910   3.4910   3.4910   3.4910
     3.5722   3.5722   3.5722   3.5722   3.7863   3.7863   3.7863   3.7863
     4.3572   4.3572   4.3572   4.3572   4.4063   4.4063   4.4063   4.4063
     4.5703   4.5703   4.5703   4.5703   4.6623   4.6623   4.6623   4.6623
     4.7453   4.7453   4.7453   4.7453   4.8516   4.8516   4.8517   4.8517
     7.2690   7.2690   7.2690   7.2690   7.4491   7.4491   7.4491   7.4491
     7.5343   7.5343   7.5343   7.5343   7.6046   7.6046   7.6046   7.6046
     7.7347   7.7347   7.7347   7.7347   7.8323   7.8323   7.8323   7.8323
    12.1356  12.1356  12.1356  12.1356  12.1697  12.1697  12.1697  12.1697
    12.4176  12.4176  12.4176  12.4176  12.6204  12.6204  12.6204  12.6204
    12.7787  12.7787  12.7788  12.7788  12.9174  12.9174  12.9174  12.9174
    17.1943  17.1943  17.1943  17.1943  17.3100  17.3100  17.3100  17.3100
    17.5485  17.5485  17.5485  17.5485  17.6740

     the Fermi energy is    10.2504 ev

!    total energy              =   -6260.95965510 Ry
     Harris-Foulkes estimate   =   -6260.95965510 Ry
     estimated scf accuracy    <          1.9E-09 Ry

     The total energy is the sum of the following terms:

     one-electron contribution =   -4654.67356221 Ry
     hartree contribution      =    2567.80520405 Ry
     xc contribution           =    -965.87546348 Ry
     ewald contribution        =   -3208.21582049 Ry
     smearing contrib. (-TS)   =      -0.00001298 Ry

     convergence has been achieved in  13 iterations

     Writing output data file Landau_19.save

     General routines

     Parallel routines

   This run was terminated on:   2:17:21  19Mar2020

   JOB DONE.