     Program PWSCF v.6.2 (svn rev. 14038) starts on  1May2019 at  1: 5:22

     K-points division:     npool     =      32
     Reading input from rscf.in

     Current dimensions of program PWSCF are:
     Max number of different atomic species (ntypx) = 10
     Max number of k-points (npk) =  40000
     Max angular momentum in pseudopotentials (lmaxx) =  3

     Subspace diagonalization in iterative solution of the eigenvalue problem:
     a serial algorithm will be used

     bravais-lattice index     =            0
     lattice parameter (alat)  =      13.8397  a.u.
     unit-cell volume          =    2804.9816 (a.u.)^3
     number of atoms/cell      =           32
     number of atomic types    =            2
     number of electrons       =       368.00
     number of Kohn-Sham states=          221
     kinetic-energy cutoff     =     120.0000  Ry
     charge density cutoff     =     480.0000  Ry
     convergence threshold     =      1.0E-08
     mixing beta               =       0.7000
     number of iterations used =            8  plain     mixing
     Exchange-correlation      = SLA PW NOGX NOGC ( 1  4  0  0 0 0)
     nstep                     =           50

     celldm(1)=  13.839685  celldm(2)=   0.000000  celldm(3)=   0.000000
     celldm(4)=   0.000000  celldm(5)=   0.000000  celldm(6)=   0.000000

     crystal axes: (cart. coord. in units of alat)
               a(1) = (   1.000000   0.000000   0.000000 )
               a(2) = (   0.000000   1.058160   0.000000 )
               a(3) = (   0.000000   0.000000   1.000000 )

     reciprocal axes: (cart. coord. in units 2 pi/alat)
               b(1) = (  1.000000  0.000000  0.000000 )
               b(2) = (  0.000000  0.945037  0.000000 )
               b(3) = (  0.000000  0.000000  1.000000 )

     PseudoPot. # 1 for W  read from file:
     /cluster/scratch/mnoe/QE/pps/W_ONCV_LDA-4.0.upf
     MD5 check sum: ba0307d5d4cd419d6f1d13dc49d7c13a
     Pseudo is Norm-conserving + core correction, Zval = 28.0
     Generated using ONCVPSP code by D. R. Hamann
     Using radial grid of 1380 points,  8 beta functions with:
                l(1) =   0
                l(2) =   0
                l(3) =   1
                l(4) =   1
                l(5) =   2
                l(6) =   2
                l(7) =   3
                l(8) =   3

     PseudoPot. # 2 for O  read from file:
     /cluster/scratch/mnoe/QE/pps/O_ONCV_LDA-3.0.upf
     MD5 check sum: a1bd6164e7280c17a38c229939bfbd54
     Pseudo is Norm-conserving + core correction, Zval =  6.0
     Generated using ONCVPSP code by D. R. Hamann
     Using radial grid of  926 points,  5 beta functions with:
                l(1) =   0
                l(2) =   0
                l(3) =   1
                l(4) =   1
                l(5) =   2

     atomic species   valence    mass     pseudopotential
        W             28.00   183.84000     W ( 1.00)
        O              6.00    15.99940     O ( 1.00)

      8 Sym. Ops. (no inversion) found ( 4 have fractional translation)

   Cartesian axes

     site n.     atom                  positions (alat units)
         1           W   tau(   1) = (   0.2715800   0.2982530   0.2506200  )
         2           W   tau(   2) = (  -0.2506201   0.7599071  -0.7284200  )
         3           W   tau(   3) = (   0.2284200   0.2308271   0.7506200  )
         4           W   tau(   4) = (   0.7506200   0.8273330   0.7715800  )
         5           W   tau(   5) = (   0.7284200   0.2982530   0.7493800  )
         6           W   tau(   6) = (   0.2506200   0.7599071   0.7284200  )
         7           W   tau(   7) = (  -0.2284200   0.2308271  -0.7506201  )
         8           W   tau(   8) = (   0.2493800   0.8273330   0.2284200  )
         9           O   tau(   9) = (   0.2737300   0.0088039   0.2672100  )
        10           O   tau(  10) = (  -0.2672100   1.0493562  -0.7262700  )
        11           O   tau(  11) = (   0.2262700   0.5202761   0.7672100  )
        12           O   tau(  12) = (   0.7672100   0.5378839   0.7737300  )
        13           O   tau(  13) = (   0.7262700   0.0088039   0.7327900  )
        14           O   tau(  14) = (   0.2672100   1.0493562   0.7262700  )
        15           O   tau(  15) = (  -0.2262700   0.5202761  -0.7672100  )
        16           O   tau(  16) = (   0.2327900   0.5378839   0.2262700  )
        17           O   tau(  17) = (   0.4923700   0.2916289   0.6995400  )
        18           O   tau(  18) = (   0.4984301   0.7762451   0.8004600  )
        19           O   tau(  19) = (  -0.9923700   0.2374511   1.1995400  )
        20           O   tau(  20) = (   0.0015700   0.8109949   0.3004600  )
        21           O   tau(  21) = (   0.5076300   0.2916289   0.3004600  )
        22           O   tau(  22) = (   0.5015699   0.7762451   1.1995400  )
        23           O   tau(  23) = (  -0.0076301   0.2374511   0.8004600  )
        24           O   tau(  24) = (  -1.0015700   0.8109949   0.6995400  )
        25           O   tau(  25) = (   0.6995400   0.2471651   2.0015700  )
        26           O   tau(  26) = (   0.3004600   0.7665311   0.4923700  )
        27           O   tau(  27) = (   0.8004600   0.2819150   0.5015700  )
        28           O   tau(  28) = (   0.1995400   0.8207089   1.9923701  )
        29           O   tau(  29) = (   0.3004600   0.2471651   0.9984301  )
        30           O   tau(  30) = (   0.6995400   0.7665311   0.5076301  )
        31           O   tau(  31) = (   0.1995400   0.2819150   0.4984300  )
        32           O   tau(  32) = (   0.8004600   0.8207089   1.0076300  )

     number of k points=    40  gaussian smearing, width (Ry)=  0.0007
                       cart. coord. in units 2pi/alat
        k(    1) = (   0.0000000   0.0000000   0.0000000), wk =   0.0092593
        k(    2) = (   0.0000000   0.0000000   0.1666667), wk =   0.0370370
        k(    3) = (   0.0000000   0.0000000   0.3333333), wk =   0.0370370
        k(    4) = (   0.0000000   0.0000000  -0.5000000), wk =   0.0185185
        k(    5) = (   0.0000000   0.1575061   0.0000000), wk =   0.0185185
        k(    6) = (   0.0000000   0.1575061   0.1666667), wk =   0.0740741
        k(    7) = (   0.0000000   0.1575061   0.3333333), wk =   0.0740741
        k(    8) = (   0.0000000   0.1575061  -0.5000000), wk =   0.0370370
        k(    9) = (   0.0000000   0.3150122   0.0000000), wk =   0.0185185
        k(   10) = (   0.0000000   0.3150122   0.1666667), wk =   0.0740741
        k(   11) = (   0.0000000   0.3150122   0.3333333), wk =   0.0740741
        k(   12) = (   0.0000000   0.3150122  -0.5000000), wk =   0.0370370
        k(   13) = (   0.0000000  -0.4725183   0.0000000), wk =   0.0092593
        k(   14) = (   0.0000000  -0.4725183   0.1666667), wk =   0.0370370
        k(   15) = (   0.0000000  -0.4725183   0.3333333), wk =   0.0370370
        k(   16) = (   0.0000000  -0.4725183  -0.5000000), wk =   0.0185185
        k(   17) = (   0.1666667   0.0000000   0.1666667), wk =   0.0370370
        k(   18) = (   0.1666667   0.0000000   0.3333333), wk =   0.0740741
        k(   19) = (   0.1666667   0.0000000  -0.5000000), wk =   0.0370370
        k(   20) = (   0.1666667   0.1575061   0.1666667), wk =   0.0740741
        k(   21) = (   0.1666667   0.1575061   0.3333333), wk =   0.1481481
        k(   22) = (   0.1666667   0.1575061  -0.5000000), wk =   0.0740741
        k(   23) = (   0.1666667   0.3150122   0.1666667), wk =   0.0740741
        k(   24) = (   0.1666667   0.3150122   0.3333333), wk =   0.1481481
        k(   25) = (   0.1666667   0.3150122  -0.5000000), wk =   0.0740741
        k(   26) = (   0.1666667  -0.4725183   0.1666667), wk =   0.0370370
        k(   27) = (   0.1666667  -0.4725183   0.3333333), wk =   0.0740741
        k(   28) = (   0.1666667  -0.4725183  -0.5000000), wk =   0.0370370
        k(   29) = (   0.3333333   0.0000000   0.3333333), wk =   0.0370370
        k(   30) = (   0.3333333   0.0000000  -0.5000000), wk =   0.0370370
        k(   31) = (   0.3333333   0.1575061   0.3333333), wk =   0.0740741
        k(   32) = (   0.3333333   0.1575061  -0.5000000), wk =   0.0740741
        k(   33) = (   0.3333333   0.3150122   0.3333333), wk =   0.0740741
        k(   34) = (   0.3333333   0.3150122  -0.5000000), wk =   0.0740741
        k(   35) = (   0.3333333  -0.4725183   0.3333333), wk =   0.0370370
        k(   36) = (   0.3333333  -0.4725183  -0.5000000), wk =   0.0370370
        k(   37) = (  -0.5000000   0.0000000  -0.5000000), wk =   0.0092593
        k(   38) = (  -0.5000000   0.1575061  -0.5000000), wk =   0.0185185
        k(   39) = (  -0.5000000   0.3150122  -0.5000000), wk =   0.0185185
        k(   40) = (  -0.5000000  -0.4725183  -0.5000000), wk =   0.0092593

     Initial potential from superposition of free atoms

     starting charge  367.99656, renormalised to  368.00000
     Starting wfc are  232 randomized atomic wfcs

     Self-consistent Calculation

     iteration #  1     ecut=   120.00 Ry     beta= 0.70
     Davidson diagonalization with overlap
     ethr =  1.00E-02,  avg # of iterations =  5.0

     total energy              =   -6253.90685571 Ry
     Harris-Foulkes estimate   =   -6264.54387918 Ry
     estimated scf accuracy    <      13.45680593 Ry

[...]

     End of self-consistent calculation

          k = 0.0000 0.0000 0.0000 ( 62239 PWs)   bands (ev):

   -66.1737 -66.1733 -66.1727 -66.1727 -66.1723 -66.1722 -66.1717 -66.1713
   -30.6071 -30.6050 -30.6006 -30.6006 -30.5201 -30.5201 -30.5160 -30.5067
   -30.4896 -30.4888 -30.4847 -30.4847 -30.4833 -30.4699 -30.4699 -30.4685
   -30.4305 -30.4257 -30.4257 -30.4224 -30.3946 -30.3946 -30.3895 -30.3885
   -20.3406 -20.3406 -20.3404 -20.3403 -20.3401 -20.3401 -20.3399 -20.3398
   -20.3249 -20.3247 -20.3247 -20.3247 -20.3241 -20.3240 -20.3240 -20.3239
   -20.3183 -20.3177 -20.3176 -20.3175 -20.3151 -20.3146 -20.3146 -20.3139
   -20.3115 -20.3110 -20.3110 -20.3106 -20.3087 -20.3083 -20.3083 -20.3082
   -20.3068 -20.3065 -20.3064 -20.3064 -20.3039 -20.3038 -20.3032 -20.3028
   -20.3008 -20.3007 -20.2997 -20.2997 -20.2955 -20.2955 -20.2950 -20.2948
   -20.2926 -20.2924 -20.2922 -20.2922 -20.2898 -20.2898 -20.2895 -20.2892
    -9.9447  -9.7124  -9.4943  -9.4943  -9.2041  -9.2041  -9.0179  -9.0146
    -8.8325  -8.6969  -8.6833  -8.6833  -7.9960  -7.9549  -7.8252  -7.8252
    -7.7603  -7.7506  -7.7180  -7.6582  -7.6582  -7.6114  -7.6066  -7.6066
     1.2201   1.2313   1.2825   1.2825   1.4326   1.4327   1.5726   1.6851
     1.8823   1.8833   1.8833   1.9964   2.3201   2.4080   2.6262   2.7437
     2.8369   2.8369   4.1711   4.1711   4.3719   4.3959   4.6861   4.6861
     4.7730   4.7730   4.7846   5.0013   5.2363   5.2363   5.2615   5.4320
     5.4969   5.4969   5.5078   5.6210   5.6210   5.6768   5.7400   5.7400
     5.8395   5.8507   5.8900   5.8973   5.8973   5.9222   5.9675   6.0537
     6.1440   6.3363   6.3882   6.5094   6.5094   6.6331   6.8711   6.9406
     6.9406   6.9802   6.9831   7.0132   7.0132   7.0523   7.0904   7.0904
     7.3990   7.3990   7.6660   7.6892   8.0085   8.0279   8.0279   8.1557
     9.6107   9.6457  10.1143  10.1325  10.1325  10.1356  12.1891  12.1891
[...]
W        0.228420012   0.218140012   0.750620012    0   0   0
W        0.750620016   0.781859972   0.771579988    0   0   0
W        0.728419984   0.281860003   0.749379988    0   0   0
W        0.250620012   0.718139997   0.728420012    0   0   0
W       -0.228420029   0.218140012  -0.750620061    0   0   0
W        0.249379988   0.781859972   0.228419984    0   0   0
O        0.273729983   0.008320000   0.267210009    0   0   0
O       -0.267209986   0.991680023  -0.726269968    0   0   0
O        0.226269984   0.491679992   0.767209970    0   0   0
O        0.767210009   0.508319977   0.773729983    0   0   0
O        0.726269991   0.008320000   0.732789997    0   0   0
O        0.267209970   0.991680023   0.726269984    0   0   0
O       -0.226269968   0.491679992  -0.767209986    0   0   0
O        0.232789997   0.508319977   0.226269991    0   0   0
O        0.492370025   0.275600007   0.699540004    0   0   0
O        0.498430055   0.733580010   0.800459963    0   0   0
O       -0.992369976   0.224400024   1.199540037    0   0   0
O        0.001569980   0.766419900   0.300460012    0   0   0
O        0.507629975   0.275600007   0.300460012    0   0   0
O        0.501569945   0.733580010   1.199540037    0   0   0
O       -0.007630055   0.224400024   0.800459963    0   0   0
O       -1.001570011   0.766419900   0.699540004    0   0   0
O        0.699540037   0.233580040   2.001569978    0   0   0
O        0.300459996   0.724399933   0.492369992    0   0   0
O        0.800459963   0.266419991   0.501570027    0   0   0
O        0.199540020   0.775599977   1.992370058    0   0   0
O        0.300459996   0.233580040   0.998430102    0   0   0
O        0.699540037   0.724399933   0.507630057    0   0   0
O        0.199540020   0.266419991   0.498430022    0   0   0
O        0.800459963   0.775599977   1.007630022    0   0   0
End final coordinates

     A final scf calculation at the relaxed structure.
     The G-vectors are recalculated for the final unit cell
     Results may differ from those at the preceding step.

     bravais-lattice index     =            0
     lattice parameter (alat)  =      13.8397  a.u.
     unit-cell volume          =    2776.4179 (a.u.)^3
     number of atoms/cell      =           32
     number of atomic types    =            2
     number of electrons       =       368.00
     number of Kohn-Sham states=          221
     kinetic-energy cutoff     =     120.0000  Ry
     charge density cutoff     =     480.0000  Ry
     convergence threshold     =      1.0E-10
     mixing beta               =       0.7000
     number of iterations used =            8  plain     mixing
     Exchange-correlation      = SLA PW NOGX NOGC ( 1  4  0  0 0 0)

     celldm(1)=  13.839685  celldm(2)=   0.000000  celldm(3)=   0.000000
     celldm(4)=   0.000000  celldm(5)=   0.000000  celldm(6)=   0.000000

     crystal axes: (cart. coord. in units of alat)
               a(1) = (   1.001848   0.000000   0.000000 )
               a(2) = (   0.000000   1.043523   0.000000 )
               a(3) = (   0.000000   0.000000   1.001848 )

     reciprocal axes: (cart. coord. in units 2 pi/alat)
               b(1) = (  0.998155  0.000000  0.000000 )
               b(2) = (  0.000000  0.958292  0.000000 )
               b(3) = (  0.000000  0.000000  0.998155 )

     PseudoPot. # 1 for W  read from file:
     /cluster/scratch/mnoe/QE/pps/W_ONCV_LDA-4.0.upf
     MD5 check sum: ba0307d5d4cd419d6f1d13dc49d7c13a
     Pseudo is Norm-conserving + core correction, Zval = 28.0
     Generated using ONCVPSP code by D. R. Hamann
     Using radial grid of 1380 points,  8 beta functions with:
                l(1) =   0
                l(2) =   0
                l(3) =   1
                l(4) =   1
                l(5) =   2
                l(6) =   2
                l(7) =   3
                l(8) =   3

     PseudoPot. # 2 for O  read from file:
     /cluster/scratch/mnoe/QE/pps/O_ONCV_LDA-3.0.upf
     MD5 check sum: a1bd6164e7280c17a38c229939bfbd54
     Pseudo is Norm-conserving + core correction, Zval =  6.0
     Generated using ONCVPSP code by D. R. Hamann
     Using radial grid of  926 points,  5 beta functions with:
                l(1) =   0
                l(2) =   0
                l(3) =   1
                l(4) =   1
                l(5) =   2

     atomic species   valence    mass     pseudopotential
        W             28.00   183.84000     W ( 1.00)
        O              6.00    15.99940     O ( 1.00)

      8 Sym. Ops. (no inversion) found ( 4 have fractional translation)

   Cartesian axes

     site n.     atom                  positions (alat units)
         1           W   tau(   1) = (   0.2720820   0.2941275   0.2510833  )
         2           W   tau(   2) = (  -0.2510833   0.7493959  -0.7297664  )
         3           W   tau(   3) = (   0.2288422   0.2276342   0.7520074  )
         4           W   tau(   4) = (   0.7520075   0.8158892   0.7730062  )
         5           W   tau(   5) = (   0.7297664   0.2941275   0.7507651  )
         6           W   tau(   6) = (   0.2510833   0.7493959   0.7297664  )
         7           W   tau(   7) = (  -0.2288422   0.2276342  -0.7520075  )
         8           W   tau(   8) = (   0.2498409   0.8158892   0.2288422  )
         9           O   tau(   9) = (   0.2742359   0.0086821   0.2677039  )
        10           O   tau(  10) = (  -0.2677039   1.0348413  -0.7276124  )
        11           O   tau(  11) = (   0.2266882   0.5130796   0.7686281  )
        12           O   tau(  12) = (   0.7686281   0.5304438   0.7751601  )
        13           O   tau(  13) = (   0.7276124   0.0086821   0.7341445  )
        14           O   tau(  14) = (   0.2677039   1.0348413   0.7276124  )
        15           O   tau(  15) = (  -0.2266882   0.5130796  -0.7686281  )
        16           O   tau(  16) = (   0.2332203   0.5304438   0.2266882  )
        17           O   tau(  17) = (   0.4932801   0.2875951   0.7008330  )
        18           O   tau(  18) = (   0.4993513   0.7655079   0.8019395  )
        19           O   tau(  19) = (  -0.9942043   0.2341667   1.2017573  )
        20           O   tau(  20) = (   0.0015729   0.7997771   0.3010154  )
        21           O   tau(  21) = (   0.5085683   0.2875951   0.3010154  )
        22           O   tau(  22) = (   0.5024970   0.7655079   1.2017573  )
        23           O   tau(  23) = (  -0.0076442   0.2341667   0.8019395  )
        24           O   tau(  24) = (  -1.0034213   0.7997771   0.7008330  )
        25           O   tau(  25) = (   0.7008331   0.2437462   2.0052697  )
        26           O   tau(  26) = (   0.3010154   0.7559283   0.4932801  )
        27           O   tau(  27) = (   0.8019395   0.2780155   0.5024971  )
        28           O   tau(  28) = (   0.1999088   0.8093567   1.9960527  )
        29           O   tau(  29) = (   0.3010154   0.2437462   1.0002756  )
        30           O   tau(  30) = (   0.7008331   0.7559283   0.5085684  )
        31           O   tau(  31) = (   0.1999088   0.2780155   0.4993513  )
        32           O   tau(  32) = (   0.8019395   0.8093567   1.0094925  )

     number of k points=    40  gaussian smearing, width (Ry)=  0.0007
                       cart. coord. in units 2pi/alat
        k(    1) = (   0.0000000   0.0000000   0.0000000), wk =   0.0092593
        k(    2) = (   0.0000000   0.0000000   0.1663592), wk =   0.0370370
        k(    3) = (   0.0000000   0.0000000   0.3327183), wk =   0.0370370
        k(    4) = (   0.0000000   0.0000000  -0.4990775), wk =   0.0185185
        k(    5) = (   0.0000000   0.1597153   0.0000000), wk =   0.0185185
        k(    6) = (   0.0000000   0.1597153   0.1663592), wk =   0.0740741
        k(    7) = (   0.0000000   0.1597153   0.3327183), wk =   0.0740741
        k(    8) = (   0.0000000   0.1597153  -0.4990775), wk =   0.0370370
        k(    9) = (   0.0000000   0.3194306   0.0000000), wk =   0.0185185
        k(   10) = (   0.0000000   0.3194306   0.1663592), wk =   0.0740741
        k(   11) = (   0.0000000   0.3194306   0.3327183), wk =   0.0740741
        k(   12) = (   0.0000000   0.3194306  -0.4990775), wk =   0.0370370
        k(   13) = (   0.0000000  -0.4791459   0.0000000), wk =   0.0092593
        k(   14) = (   0.0000000  -0.4791459   0.1663592), wk =   0.0370370
        k(   15) = (   0.0000000  -0.4791459   0.3327183), wk =   0.0370370
        k(   16) = (   0.0000000  -0.4791459  -0.4990775), wk =   0.0185185
        k(   17) = (   0.1663592   0.0000000   0.1663592), wk =   0.0370370
        k(   18) = (   0.1663592   0.0000000   0.3327183), wk =   0.0740741
        k(   19) = (   0.1663592   0.0000000  -0.4990775), wk =   0.0370370
        k(   20) = (   0.1663592   0.1597153   0.1663592), wk =   0.0740741
        k(   21) = (   0.1663592   0.1597153   0.3327183), wk =   0.1481481
        k(   22) = (   0.1663592   0.1597153  -0.4990775), wk =   0.0740741
        k(   23) = (   0.1663592   0.3194306   0.1663592), wk =   0.0740741
        k(   24) = (   0.1663592   0.3194306   0.3327183), wk =   0.1481481
        k(   25) = (   0.1663592   0.3194306  -0.4990775), wk =   0.0740741
        k(   26) = (   0.1663592  -0.4791459   0.1663592), wk =   0.0370370
        k(   27) = (   0.1663592  -0.4791459   0.3327183), wk =   0.0740741
        k(   28) = (   0.1663592  -0.4791459  -0.4990775), wk =   0.0370370
        k(   29) = (   0.3327183   0.0000000   0.3327183), wk =   0.0370370
        k(   30) = (   0.3327183   0.0000000  -0.4990775), wk =   0.0370370
        k(   31) = (   0.3327183   0.1597153   0.3327183), wk =   0.0740741
        k(   32) = (   0.3327183   0.1597153  -0.4990775), wk =   0.0740741
        k(   33) = (   0.3327183   0.3194306   0.3327183), wk =   0.0740741
        k(   34) = (   0.3327183   0.3194306  -0.4990775), wk =   0.0740741
        k(   35) = (   0.3327183  -0.4791459   0.3327183), wk =   0.0370370
        k(   36) = (   0.3327183  -0.4791459  -0.4990775), wk =   0.0370370
        k(   37) = (  -0.4990775   0.0000000  -0.4990775), wk =   0.0092593
        k(   38) = (  -0.4990775   0.1597153  -0.4990775), wk =   0.0185185
        k(   39) = (  -0.4990775   0.3194306  -0.4990775), wk =   0.0185185
        k(   40) = (  -0.4990775  -0.4791459  -0.4990775), wk =   0.0092593

     Initial potential from superposition of free atoms

     starting charge  367.99656, renormalised to  368.00000
     Starting wfc are  232 randomized atomic wfcs

     Writing output data file Landau_24.save

     Self-consistent Calculation

[...]

     total energy              =   -6261.10097987 Ry
     Harris-Foulkes estimate   =   -6261.10097987 Ry
     estimated scf accuracy    <          1.5E-10 Ry

     iteration # 15     ecut=   120.00 Ry     beta= 0.70
     Davidson diagonalization with overlap
     ethr =  1.00E-13,  avg # of iterations =  2.0

     End of self-consistent calculation

[...]

          k = 0.3327-0.4791-0.4991 ( 61616 PWs)   bands (ev):

[...]

          k =-0.4991-0.4791-0.4991 ( 61640 PWs)   bands (ev):

   -65.9744 -65.9744 -65.9744 -65.9743 -65.9743 -65.9743 -65.9743 -65.9743
   -30.3684 -30.3684 -30.3669 -30.3669 -30.3669 -30.3669 -30.3668 -30.3668
   -30.3020 -30.3020 -30.3020 -30.3020 -30.3020 -30.3020 -30.3006 -30.3006
   -30.2368 -30.2368 -30.2366 -30.2366 -30.2366 -30.2366 -30.2366 -30.2365
   -20.1338 -20.1338 -20.1338 -20.1338 -20.1338 -20.1338 -20.1338 -20.1338
   -20.1181 -20.1181 -20.1181 -20.1181 -20.1181 -20.1181 -20.1180 -20.1180
   -20.1087 -20.1087 -20.1087 -20.1087 -20.1086 -20.1086 -20.1085 -20.1085
   -20.1025 -20.1025 -20.1025 -20.1025 -20.1024 -20.1024 -20.1024 -20.1023
   -20.0984 -20.0984 -20.0983 -20.0983 -20.0982 -20.0982 -20.0982 -20.0982
   -20.0899 -20.0899 -20.0899 -20.0899 -20.0899 -20.0899 -20.0899 -20.0899
   -20.0834 -20.0833 -20.0833 -20.0833 -20.0833 -20.0833 -20.0833 -20.0833
    -8.8337  -8.8337  -8.7871  -8.7871  -8.7730  -8.7730  -8.7730  -8.7730
    -8.3031  -8.3030  -8.2368  -8.2368  -8.2368  -8.2367  -8.2173  -8.2173
    -8.1524  -8.1524  -8.1524  -8.1524  -8.1004  -8.1004  -8.0774  -8.0774
     3.0494   3.0494   3.0494   3.0494   3.0588   3.0589   3.0842   3.0842
     3.3217   3.3217   3.3759   3.3759   3.3759   3.3759   3.4136   3.4136
     3.4929   3.4929   3.6445   3.6445   3.6445   3.6445   3.7029   3.7029
     4.2734   4.2734   4.2817   4.2817   4.3350   4.3350   4.3350   4.3350
     4.5349   4.5350   4.5350   4.5350   4.5471   4.5471   4.6303   4.6304
     4.6817   4.6817   4.7202   4.7202   4.7388   4.7388   4.7388   4.7388
     7.1533   7.1534   7.2898   7.2898   7.2899   7.2899   7.4441   7.4441
     7.5169   7.5170   7.5170   7.5170   7.5310   7.5311   7.6108   7.6109
     7.6995   7.6995   7.7374   7.7375   7.7375   7.7375   7.8126   7.8127
    12.0441  12.0441  12.0514  12.0515  12.0515  12.0515  12.0650  12.0650
    12.3614  12.3614  12.4127  12.4127  12.4127  12.4127  12.6270  12.6271
    12.6677  12.6677  12.7837  12.7837  12.7837  12.7837  12.8114  12.8114
    17.1683  17.1684  17.1684  17.1684  17.1966  17.1967  17.2574  17.2574
    17.4975  17.4975  17.4975  17.4976  17.5519

     the Fermi energy is     9.2209 ev

!    total energy              =   -6261.10097987 Ry
     Harris-Foulkes estimate   =   -6261.10097987 Ry
     estimated scf accuracy    <          7.6E-12 Ry

     The total energy is the sum of the following terms:

     one-electron contribution =   -4667.54315036 Ry
     hartree contribution      =    2572.93078887 Ry
     xc contribution           =    -965.65179291 Ry
     ewald contribution        =   -3200.83682548 Ry
     smearing contrib. (-TS)   =      -0.00000000 Ry

     convergence has been achieved in  15 iterations

     Forces acting on atoms (cartesian axes, Ry/au):

     atom    1 type  1   force =    -0.02553190   -0.00998028   -0.00401119
     atom    2 type  1   force =     0.00401119    0.00998028   -0.02553190
     atom    3 type  1   force =     0.02553190    0.00998028   -0.00401119
     atom    4 type  1   force =    -0.00401119   -0.00998028   -0.02553190
     atom    5 type  1   force =     0.02553190   -0.00998028    0.00401119
     atom    6 type  1   force =    -0.00401119    0.00998028    0.02553190
     atom    7 type  1   force =    -0.02553190    0.00998028    0.00401119
     atom    8 type  1   force =     0.00401119   -0.00998028    0.02553190
     atom    9 type  2   force =     0.00161454    0.00400233   -0.00175510
     atom   10 type  2   force =     0.00175510   -0.00400233    0.00161454
     atom   11 type  2   force =    -0.00161454   -0.00400233   -0.00175510
     atom   12 type  2   force =    -0.00175510    0.00400233    0.00161454
     atom   13 type  2   force =    -0.00161454    0.00400233    0.00175510
     atom   14 type  2   force =    -0.00175510   -0.00400233   -0.00161454
     atom   15 type  2   force =     0.00161454   -0.00400233    0.00175510
     atom   16 type  2   force =     0.00175510    0.00400233   -0.00161454
     atom   17 type  2   force =    -0.01731322    0.00172416   -0.00032137
     atom   18 type  2   force =    -0.00040173    0.00387442   -0.00315210
     atom   19 type  2   force =     0.01731322   -0.00172416   -0.00032137
     atom   20 type  2   force =     0.00040173   -0.00387442   -0.00315210
     atom   21 type  2   force =     0.01731322    0.00172416    0.00032137
     atom   22 type  2   force =     0.00040173    0.00387442    0.00315210
     atom   23 type  2   force =    -0.01731322   -0.00172416    0.00032137
     atom   24 type  2   force =    -0.00040173   -0.00387442    0.00315210
     atom   25 type  2   force =     0.00315210    0.00387442    0.00040173
     atom   26 type  2   force =     0.00032137   -0.00172416   -0.01731322
     atom   27 type  2   force =    -0.00315210   -0.00387442    0.00040173
     atom   28 type  2   force =    -0.00032137    0.00172416   -0.01731322
     atom   29 type  2   force =    -0.00315210    0.00387442   -0.00040173
     atom   30 type  2   force =    -0.00032137   -0.00172416    0.01731322
     atom   31 type  2   force =     0.00315210   -0.00387442   -0.00040173
     atom   32 type  2   force =     0.00032137    0.00172416    0.01731322

     Total force =     0.000000     Total SCF correction =     0.000000

     Computing stress (Cartesian axis) and pressure

          total   stress  (Ry/bohr**3)                   (kbar)     P=   -0.15
  -0.00000044   0.00000000   0.00000000         -0.07      0.00      0.00
   0.00000000  -0.00000227   0.00000000          0.00     -0.33      0.00
   0.00000000   0.00000000  -0.00000044          0.00      0.00     -0.07

     Writing output data file Landau_24.save

     General routines

     Parallel routines

   This run was terminated on:   5:22:22   1May2019

   JOB DONE.