     Program PWSCF v.6.4.1 starts on 19Nov2019 at 18:43: 8

     K-points division:     npool     =      40
     Reading input from rscf.in

     Current dimensions of program PWSCF are:
     Max number of different atomic species (ntypx) = 10
     Max number of k-points (npk) =  40000
     Max angular momentum in pseudopotentials (lmaxx) =  3

     Subspace diagonalization in iterative solution of the eigenvalue problem:
     a serial algorithm will be used

     Message from routine setup:
     using ibrav=0 with symmetry is DISCOURAGED, use correct ibrav instead

     bravais-lattice index     =            0
     lattice parameter (alat)  =       9.7849  a.u.
     unit-cell volume          =    1402.1515 (a.u.)^3
     number of atoms/cell      =           16
     number of atomic types    =            2
     number of electrons       =       184.00
     number of Kohn-Sham states=          110
     kinetic-energy cutoff     =     120.0000  Ry
     charge density cutoff     =     480.0000  Ry
     convergence threshold     =      1.0E-08
     mixing beta               =       0.7000
     number of iterations used =            8  plain     mixing
     Exchange-correlation      = SLA PW NOGX NOGC ( 1  4  0  0 0 0)
     nstep                     =           50

     celldm(1)=   9.784926  celldm(2)=   0.000000  celldm(3)=   0.000000
     celldm(4)=   0.000000  celldm(5)=   0.000000  celldm(6)=   0.000000

     crystal axes: (cart. coord. in units of alat)
               a(1) = (   1.000000   0.000000   0.000000 )
               a(2) = (   0.000000   1.000000   0.000000 )
               a(3) = (   0.000000   0.000000   1.496657 )

     reciprocal axes: (cart. coord. in units 2 pi/alat)
               b(1) = (  1.000000  0.000000  0.000000 )
               b(2) = (  0.000000  1.000000  0.000000 )
               b(3) = (  0.000000  0.000000  0.668156 )

     PseudoPot. # 1 for W  read from file:
     /cluster/scratch/mnoe/QE/pps/W_ONCV_LDA-4.0.upf
     MD5 check sum: ba0307d5d4cd419d6f1d13dc49d7c13a
     Pseudo is Norm-conserving + core correction, Zval = 28.0
     Generated using ONCVPSP code by D. R. Hamann
     Using radial grid of 1380 points,  8 beta functions with:
                l(1) =   0
                l(2) =   0
                l(3) =   1
                l(4) =   1
                l(5) =   2
                l(6) =   2
                l(7) =   3
                l(8) =   3

     PseudoPot. # 2 for O  read from file:
     /cluster/scratch/mnoe/QE/pps/O_ONCV_LDA-3.0.upf
     MD5 check sum: b55cdb4f45ae2203d24ad12cf8d61a31
     Pseudo is Norm-conserving + core correction, Zval =  6.0
     Generated using ONCVPSP code by D. R. Hamann
     Using radial grid of  926 points,  5 beta functions with:
                l(1) =   0
                l(2) =   0
                l(3) =   1
                l(4) =   1
                l(5) =   2

     atomic species   valence    mass     pseudopotential
        W             28.00   183.84000     W ( 1.00)
        O              6.00    15.99940     O ( 1.00)

     16 Sym. Ops., with inversion, found (14 have fractional translation)

   Cartesian axes

     site n.     atom                  positions (alat units)
         1           W   tau(   1) = (   0.2500000   0.2500000   0.3162886  )
         2           W   tau(   2) = (   0.7500000   0.7500000   1.1803684  )
         3           W   tau(   3) = (   0.7500000   0.7500000   0.4320399  )
         4           W   tau(   4) = (   0.2500000   0.2500000   1.0646171  )
         5           O   tau(   5) = (   0.2500000   0.2500000   0.7166303  )
         6           O   tau(   6) = (   0.7500000   0.7500000   0.7800267  )
         7           O   tau(   7) = (   0.7500000   0.7500000   0.0316982  )
         8           O   tau(   8) = (   0.2500000   0.2500000   1.4649588  )
         9           O   tau(   9) = (   0.4845182   0.5154817   0.3741643  )
        10           O   tau(  10) = (   0.5154818   0.4845183   1.1224928  )
        11           O   tau(  11) = (   0.0154817   0.9845183   0.3741643  )
        12           O   tau(  12) = (   0.9845182   0.0154818   1.1224928  )
        13           O   tau(  13) = (   0.9845183   0.4845182   0.3741643  )
        14           O   tau(  14) = (   0.0154818   0.5154818   1.1224928  )
        15           O   tau(  15) = (   0.5154817   0.0154817   0.3741643  )
        16           O   tau(  16) = (   0.4845183   0.9845182   1.1224928  )

     number of k points=    40  gaussian smearing, width (Ry)=  0.0007
                       cart. coord. in units 2pi/alat
        k(    1) = (   0.0000000   0.0000000   0.0000000), wk =   0.0092593
        k(    2) = (   0.0000000   0.0000000   0.1113593), wk =   0.0185185
        k(    3) = (   0.0000000   0.0000000   0.2227186), wk =   0.0185185
        k(    4) = (   0.0000000   0.0000000  -0.3340779), wk =   0.0092593
        k(    5) = (   0.0000000   0.1666667   0.0000000), wk =   0.0370370
        k(    6) = (   0.0000000   0.1666667   0.1113593), wk =   0.0740741
        k(    7) = (   0.0000000   0.1666667   0.2227186), wk =   0.0740741
        k(    8) = (   0.0000000   0.1666667  -0.3340779), wk =   0.0370370
        k(    9) = (   0.0000000   0.3333333   0.0000000), wk =   0.0370370
        k(   10) = (   0.0000000   0.3333333   0.1113593), wk =   0.0740741
        k(   11) = (   0.0000000   0.3333333   0.2227186), wk =   0.0740741
        k(   12) = (   0.0000000   0.3333333  -0.3340779), wk =   0.0370370
        k(   13) = (   0.0000000  -0.5000000   0.0000000), wk =   0.0185185
        k(   14) = (   0.0000000  -0.5000000   0.1113593), wk =   0.0370370
        k(   15) = (   0.0000000  -0.5000000   0.2227186), wk =   0.0370370
        k(   16) = (   0.0000000  -0.5000000  -0.3340779), wk =   0.0185185
        k(   17) = (   0.1666667   0.1666667   0.0000000), wk =   0.0370370
        k(   18) = (   0.1666667   0.1666667   0.1113593), wk =   0.0740741
        k(   19) = (   0.1666667   0.1666667   0.2227186), wk =   0.0740741
        k(   20) = (   0.1666667   0.1666667  -0.3340779), wk =   0.0370370
        k(   21) = (   0.1666667   0.3333333   0.0000000), wk =   0.0740741
        k(   22) = (   0.1666667   0.3333333   0.1113593), wk =   0.1481481
        k(   23) = (   0.1666667   0.3333333   0.2227186), wk =   0.1481481
        k(   24) = (   0.1666667   0.3333333  -0.3340779), wk =   0.0740741
        k(   25) = (   0.1666667  -0.5000000   0.0000000), wk =   0.0370370
        k(   26) = (   0.1666667  -0.5000000   0.1113593), wk =   0.0740741
        k(   27) = (   0.1666667  -0.5000000   0.2227186), wk =   0.0740741
        k(   28) = (   0.1666667  -0.5000000  -0.3340779), wk =   0.0370370
        k(   29) = (   0.3333333   0.3333333   0.0000000), wk =   0.0370370
        k(   30) = (   0.3333333   0.3333333   0.1113593), wk =   0.0740741
        k(   31) = (   0.3333333   0.3333333   0.2227186), wk =   0.0740741
        k(   32) = (   0.3333333   0.3333333  -0.3340779), wk =   0.0370370
        k(   33) = (   0.3333333  -0.5000000   0.0000000), wk =   0.0370370
        k(   34) = (   0.3333333  -0.5000000   0.1113593), wk =   0.0740741
        k(   35) = (   0.3333333  -0.5000000   0.2227186), wk =   0.0740741
        k(   36) = (   0.3333333  -0.5000000  -0.3340779), wk =   0.0370370
        k(   37) = (  -0.5000000  -0.5000000   0.0000000), wk =   0.0092593
        k(   38) = (  -0.5000000  -0.5000000   0.1113593), wk =   0.0185185
        k(   39) = (  -0.5000000  -0.5000000   0.2227186), wk =   0.0185185
        k(   40) = (  -0.5000000  -0.5000000  -0.3340779), wk =   0.0092593

     Initial potential from superposition of free atoms

     starting charge  183.99828, renormalised to  184.00000
     Starting wfcs are  116 randomized atomic wfcs

     Self-consistent Calculation

     iteration #  1     ecut=   120.00 Ry     beta= 0.70
     Davidson diagonalization with overlap
     ethr =  1.00E-02,  avg # of iterations =  4.1

     total energy              =   -3126.94410059 Ry
     Harris-Foulkes estimate   =   -3132.27809792 Ry
     estimated scf accuracy    <       6.76256876 Ry

[...]

     End of self-consistent calculation

          k = 0.0000 0.0000 0.0000 ( 31095 PWs)   bands (ev):

   -66.1389 -66.1385 -66.1373 -66.1369 -30.5444 -30.5444 -30.5411 -30.5411
   -30.4504 -30.4495 -30.4495 -30.4468 -30.4468 -30.4450 -30.3908 -30.3868
   -20.2881 -20.2880 -20.2880 -20.2879 -20.2751 -20.2751 -20.2750 -20.2750
   -20.2728 -20.2728 -20.2728 -20.2728 -20.2606 -20.2606 -20.2586 -20.2585
   -20.2585 -20.2584 -20.2550 -20.2550 -20.2549 -20.2548 -20.2538 -20.2538
   -20.2513 -20.2513 -20.2501 -20.2501 -10.0772  -9.8266  -9.1913  -9.1721
    -8.9049  -8.7076  -7.7430  -7.7430  -7.7229  -7.7229  -7.6563  -7.5266
     0.8448   0.8462   1.2443   1.3178   1.6643   1.7294   2.2381   2.3315
     2.5578   2.5578   3.9599   3.9599   4.9683   5.1226   5.1226   5.6082
     5.6082   5.7320   5.7320   5.9347   6.0676   6.0676   6.1504   6.8056
     6.8056   6.8141   7.0535   7.1645   7.1645   7.2002   7.2002   7.2134
     8.3400   8.3434   8.3434   8.3448   8.9951   8.9975   9.7445   9.7445
    12.3868  12.3868  13.6215  13.6215  13.6341  13.9336  13.9434  14.3526
    14.3526  14.7099  14.8200  14.8242  15.4741  16.7822

[...]

          k =-0.5000-0.5000 0.0000 ( 31144 PWs)   bands (ev):

[...]

     the Fermi energy is     8.6307 ev

!    total energy              =   -3130.51277375 Ry
     Harris-Foulkes estimate   =   -3130.51277375 Ry
     estimated scf accuracy    <          4.0E-09 Ry

     The total energy is the sum of the following terms:

     one-electron contribution =   -2383.86165066 Ry
     hartree contribution      =    1310.50874965 Ry
     xc contribution           =    -483.11085487 Ry
     ewald contribution        =   -1574.04901787 Ry
     smearing contrib. (-TS)   =      -0.00000000 Ry

     convergence has been achieved in  12 iterations

     Forces acting on atoms (cartesian axes, Ry/au):

     atom    1 type  1   force =     0.00000000    0.00000000   -0.05094344
     atom    2 type  1   force =     0.00000000    0.00000000    0.05094344
     atom    3 type  1   force =     0.00000000    0.00000000    0.05094344
     atom    4 type  1   force =     0.00000000    0.00000000   -0.05094344
     atom    5 type  2   force =     0.00000000    0.00000000    0.07898345
     atom    6 type  2   force =     0.00000000    0.00000000   -0.07898345
     atom    7 type  2   force =     0.00000000    0.00000000   -0.07898345
     atom    8 type  2   force =     0.00000000    0.00000000    0.07898345
     atom    9 type  2   force =    -0.00386082    0.00386082    0.00000000
     atom   10 type  2   force =     0.00386082   -0.00386082    0.00000000
     atom   11 type  2   force =     0.00386082   -0.00386082    0.00000000
     atom   12 type  2   force =    -0.00386082    0.00386082    0.00000000
     atom   13 type  2   force =    -0.00386082   -0.00386082    0.00000000
     atom   14 type  2   force =     0.00386082    0.00386082    0.00000000
     atom   15 type  2   force =     0.00386082    0.00386082    0.00000000
[...]

     new trust radius        =       0.1218131000 bohr
     new conv_thr            =       0.0000000100 Ry

     new unit-cell volume =   1435.29307 a.u.^3 (   212.68849 Ang^3 )
     density =      7.24019 g/cm^3

CELL_PARAMETERS (angstrom)
   5.262181855   0.000000000   0.000000000
   0.000000000   5.262181855   0.000000000
   0.000000000   0.000000000   7.680902889

ATOMIC_POSITIONS (crystal)
W        0.250000000   0.250000000   0.211330065    0   0   0
W        0.750000023   0.750000023   0.788669950    0   0   0
W        0.750000023   0.750000023   0.288669950    0   0   0
W        0.250000000   0.250000000   0.711330050    0   0   0
O        0.250000000   0.250000000   0.478820687    0   0   0
O        0.750000023   0.750000023   0.521179313    0   0   0
O        0.750000023   0.750000023   0.021179326    0   0   0
O        0.250000000   0.250000000   0.978820687    0   0   0
O        0.484518241   0.515481713   0.250000000    0   0   0
O        0.515481759   0.484518287   0.750000000    0   0   0
O        0.015481742   0.984518287   0.250000000    0   0   0
O        0.984518195   0.015481776   0.750000000    0   0   0
O        0.984518287   0.484518241   0.250000000    0   0   0
O        0.015481776   0.515481759   0.750000000    0   0   0
O        0.515481713   0.015481742   0.250000000    0   0   0
O        0.484518287   0.984518195   0.750000000    0   0   0

     Writing output data file Landau_20.save/
     NEW-OLD atomic charge density approx. for the potential
     extrapolated charge  188.24860, renormalised to  184.00000

[...]

     enthalpy old            =   -3130.5127737464 Ry
     enthalpy new            =   -3130.5273422175 Ry

     CASE: enthalpy_new < enthalpy_old

[...]

     Threshold (ethr) on eigenvalues was too large:
     Diagonalizing with lowered threshold

     Davidson diagonalization with overlap
     ethr =  2.38E-10,  avg # of iterations =  3.5

[...]

     number of scf cycles    =   5
     number of bfgs steps    =   4

     enthalpy old            =   -3130.5279298661 Ry
     enthalpy new            =   -3130.5279299837 Ry

     CASE: enthalpy_new < enthalpy_old

     small trust_radius: resetting bfgs history

     new trust radius        =       0.0000464278 bohr
     new conv_thr            =            1.0E-10 Ry

     new unit-cell volume =   1425.57874 a.u.^3 (   211.24897 Ang^3 )
     density =      7.28953 g/cm^3

[...]

ATOMIC_POSITIONS (crystal)
W        0.250000000   0.250000000   0.211330065    0   0   0
W        0.750000023   0.750000023   0.788669950    0   0   0
W        0.750000023   0.750000023   0.288669950    0   0   0
W        0.250000000   0.250000000   0.711330050    0   0   0
O        0.250000000   0.250000000   0.478820687    0   0   0
O        0.750000023   0.750000023   0.521179313    0   0   0
O        0.750000023   0.750000023   0.021179326    0   0   0
O        0.250000000   0.250000000   0.978820687    0   0   0
O        0.484518241   0.515481713   0.250000000    0   0   0
O        0.515481759   0.484518287   0.750000000    0   0   0
O        0.015481742   0.984518287   0.250000000    0   0   0
O        0.984518195   0.015481776   0.750000000    0   0   0
O        0.984518287   0.484518241   0.250000000    0   0   0
O        0.015481776   0.515481759   0.750000000    0   0   0
O        0.515481713   0.015481742   0.250000000    0   0   0
O        0.484518287   0.984518195   0.750000000    0   0   0

     Writing output data file Landau_20.save/
     NEW-OLD atomic charge density approx. for the potential
     extrapolated charge  183.99669, renormalised to  184.00000

[...]

     Threshold (ethr) on eigenvalues was too large:
     Diagonalizing with lowered threshold

     Davidson diagonalization with overlap
     ethr =  6.80E-10,  avg # of iterations =  2.2

[...]

     bfgs converged in   6 scf cycles and   5 bfgs steps
     (criteria: energy <  1.0E-07 Ry, force <  1.0E-07Ry/Bohr, cell <  5.0E-01kbar)

     End of BFGS Geometry Optimization

     Final enthalpy =   -3130.5279299834 Ry
Begin final coordinates
     new unit-cell volume =   1425.57874 a.u.^3 (   211.24897 Ang^3 )
     density =      7.28953 g/cm^3

CELL_PARAMETERS (angstrom)
   5.249682908   0.000000000   0.000000000
   0.000000000   5.249682908   0.000000000
   0.000000000   0.000000000   7.665287689

ATOMIC_POSITIONS (crystal)
W        0.250000000   0.250000000   0.211330065    0   0   0
W        0.750000023   0.750000023   0.788669950    0   0   0
W        0.750000023   0.750000023   0.288669950    0   0   0
W        0.250000000   0.250000000   0.711330050    0   0   0
O        0.250000000   0.250000000   0.478820687    0   0   0
O        0.750000023   0.750000023   0.521179313    0   0   0
O        0.750000023   0.750000023   0.021179326    0   0   0
O        0.250000000   0.250000000   0.978820687    0   0   0
O        0.484518241   0.515481713   0.250000000    0   0   0
O        0.515481759   0.484518287   0.750000000    0   0   0
O        0.015481742   0.984518287   0.250000000    0   0   0
O        0.984518195   0.015481776   0.750000000    0   0   0
O        0.984518287   0.484518241   0.250000000    0   0   0
O        0.015481776   0.515481759   0.750000000    0   0   0
O        0.515481713   0.015481742   0.250000000    0   0   0
O        0.484518287   0.984518195   0.750000000    0   0   0
End final coordinates

     Writing output data file Landau_20.save/

     Final scf calculation at the relaxed structure.
     The G-vectors are recalculated for the final unit cell
     Results may differ from those at the preceding step.

     bravais-lattice index     =            0
     lattice parameter (alat)  =       9.7849  a.u.
     unit-cell volume          =    1425.5787 (a.u.)^3
     number of atoms/cell      =           16
     number of atomic types    =            2
     number of electrons       =       184.00
     number of Kohn-Sham states=          110
     kinetic-energy cutoff     =     120.0000  Ry
     charge density cutoff     =     480.0000  Ry
     convergence threshold     =      1.0E-10
     mixing beta               =       0.7000
     number of iterations used =            8  plain     mixing
     Exchange-correlation      = SLA PW NOGX NOGC ( 1  4  0  0 0 0)

     celldm(1)=   9.784926  celldm(2)=   0.000000  celldm(3)=   0.000000
     celldm(4)=   0.000000  celldm(5)=   0.000000  celldm(6)=   0.000000

     crystal axes: (cart. coord. in units of alat)
               a(1) = (   1.013852   0.000000   0.000000 )
               a(2) = (   0.000000   1.013852   0.000000 )
               a(3) = (   0.000000   0.000000   1.480368 )

     reciprocal axes: (cart. coord. in units 2 pi/alat)
               b(1) = (  0.986338  0.000000  0.000000 )
               b(2) = (  0.000000  0.986338  0.000000 )
               b(3) = (  0.000000  0.000000  0.675508 )

     PseudoPot. # 1 for W  read from file:
     /cluster/scratch/mnoe/QE/pps/W_ONCV_LDA-4.0.upf
     MD5 check sum: ba0307d5d4cd419d6f1d13dc49d7c13a
     Pseudo is Norm-conserving + core correction, Zval = 28.0
     Generated using ONCVPSP code by D. R. Hamann
     Using radial grid of 1380 points,  8 beta functions with:
                l(1) =   0
                l(2) =   0
                l(3) =   1
                l(4) =   1
                l(5) =   2
                l(6) =   2
                l(7) =   3
                l(8) =   3

     PseudoPot. # 2 for O  read from file:
     /cluster/scratch/mnoe/QE/pps/O_ONCV_LDA-3.0.upf
     MD5 check sum: b55cdb4f45ae2203d24ad12cf8d61a31
     Pseudo is Norm-conserving + core correction, Zval =  6.0
     Generated using ONCVPSP code by D. R. Hamann
     Using radial grid of  926 points,  5 beta functions with:
                l(1) =   0
                l(2) =   0
                l(3) =   1
                l(4) =   1
                l(5) =   2

     atomic species   valence    mass     pseudopotential
        W             28.00   183.84000     W ( 1.00)
        O              6.00    15.99940     O ( 1.00)

     16 Sym. Ops., with inversion, found (14 have fractional translation)

   Cartesian axes

     site n.     atom                  positions (alat units)
         1           W   tau(   1) = (   0.2534629   0.2534629   0.3128463  )
         2           W   tau(   2) = (   0.7603887   0.7603887   1.1675220  )
         3           W   tau(   3) = (   0.7603887   0.7603887   0.4273378  )
         4           W   tau(   4) = (   0.2534629   0.2534629   1.0530305  )
         5           O   tau(   5) = (   0.2534629   0.2534629   0.7088310  )
         6           O   tau(   6) = (   0.7603887   0.7603887   0.7715373  )
         7           O   tau(   7) = (   0.7603887   0.7603887   0.0313532  )
         8           O   tau(   8) = (   0.2534629   0.2534629   1.4490151  )
         9           O   tau(   9) = (   0.4912296   0.5226220   0.3700921  )
        10           O   tau(  10) = (   0.5226220   0.4912296   1.1102762  )
        11           O   tau(  11) = (   0.0156962   0.9981554   0.3700921  )
        12           O   tau(  12) = (   0.9981553   0.0156962   1.1102762  )
        13           O   tau(  13) = (   0.9981554   0.4912296   0.3700921  )
        14           O   tau(  14) = (   0.0156962   0.5226220   1.1102762  )
        15           O   tau(  15) = (   0.5226220   0.0156962   0.3700921  )
        16           O   tau(  16) = (   0.4912296   0.9981553   1.1102762  )

     number of k points=    40  gaussian smearing, width (Ry)=  0.0007
                       cart. coord. in units 2pi/alat
        k(    1) = (   0.0000000   0.0000000   0.0000000), wk =   0.0092593
        k(    2) = (   0.0000000   0.0000000   0.1125846), wk =   0.0185185
        k(    3) = (   0.0000000   0.0000000   0.2251692), wk =   0.0185185
        k(    4) = (   0.0000000   0.0000000  -0.3377538), wk =   0.0092593
        k(    5) = (   0.0000000   0.1643896   0.0000000), wk =   0.0370370
        k(    6) = (   0.0000000   0.1643896   0.1125846), wk =   0.0740741
        k(    7) = (   0.0000000   0.1643896   0.2251692), wk =   0.0740741
        k(    8) = (   0.0000000   0.1643896  -0.3377538), wk =   0.0370370
        k(    9) = (   0.0000000   0.3287792   0.0000000), wk =   0.0370370
        k(   10) = (   0.0000000   0.3287792   0.1125846), wk =   0.0740741
        k(   11) = (   0.0000000   0.3287792   0.2251692), wk =   0.0740741
        k(   12) = (   0.0000000   0.3287792  -0.3377538), wk =   0.0370370
        k(   13) = (   0.0000000  -0.4931688   0.0000000), wk =   0.0185185
        k(   14) = (   0.0000000  -0.4931688   0.1125846), wk =   0.0370370
        k(   15) = (   0.0000000  -0.4931688   0.2251692), wk =   0.0370370
        k(   16) = (   0.0000000  -0.4931688  -0.3377538), wk =   0.0185185
        k(   17) = (   0.1643896   0.1643896   0.0000000), wk =   0.0370370
        k(   18) = (   0.1643896   0.1643896   0.1125846), wk =   0.0740741
        k(   19) = (   0.1643896   0.1643896   0.2251692), wk =   0.0740741
        k(   20) = (   0.1643896   0.1643896  -0.3377538), wk =   0.0370370
        k(   21) = (   0.1643896   0.3287792   0.0000000), wk =   0.0740741
        k(   22) = (   0.1643896   0.3287792   0.1125846), wk =   0.1481481
        k(   23) = (   0.1643896   0.3287792   0.2251692), wk =   0.1481481
        k(   24) = (   0.1643896   0.3287792  -0.3377538), wk =   0.0740741
        k(   25) = (   0.1643896  -0.4931688   0.0000000), wk =   0.0370370
        k(   26) = (   0.1643896  -0.4931688   0.1125846), wk =   0.0740741
        k(   27) = (   0.1643896  -0.4931688   0.2251692), wk =   0.0740741
        k(   28) = (   0.1643896  -0.4931688  -0.3377538), wk =   0.0370370
        k(   29) = (   0.3287792   0.3287792   0.0000000), wk =   0.0370370
        k(   30) = (   0.3287792   0.3287792   0.1125846), wk =   0.0740741
        k(   31) = (   0.3287792   0.3287792   0.2251692), wk =   0.0740741
        k(   32) = (   0.3287792   0.3287792  -0.3377538), wk =   0.0370370
        k(   33) = (   0.3287792  -0.4931688   0.0000000), wk =   0.0370370
        k(   34) = (   0.3287792  -0.4931688   0.1125846), wk =   0.0740741
        k(   35) = (   0.3287792  -0.4931688   0.2251692), wk =   0.0740741
        k(   36) = (   0.3287792  -0.4931688  -0.3377538), wk =   0.0370370
        k(   37) = (  -0.4931688  -0.4931688   0.0000000), wk =   0.0092593
        k(   38) = (  -0.4931688  -0.4931688   0.1125846), wk =   0.0185185
        k(   39) = (  -0.4931688  -0.4931688   0.2251692), wk =   0.0185185
        k(   40) = (  -0.4931688  -0.4931688  -0.3377538), wk =   0.0092593

     Initial potential from superposition of free atoms

     starting charge  183.99828, renormalised to  184.00000
     Starting wfcs are  116 randomized atomic wfcs

     Self-consistent Calculation

[...]

     total energy              =   -3130.52813686 Ry
     Harris-Foulkes estimate   =   -3130.52813686 Ry
     estimated scf accuracy    <          3.4E-10 Ry

     iteration # 14     ecut=   120.00 Ry     beta= 0.70
     Davidson diagonalization with overlap
     ethr =  1.86E-13,  avg # of iterations =  2.0

     End of self-consistent calculation

[...]

          k = 0.3288-0.4932-0.3378 ( 31668 PWs)   bands (ev):

[...]

          k =-0.4932-0.4932-0.3378 ( 31680 PWs)   bands (ev):

   -66.4548 -66.4548 -66.4547 -66.4547 -30.7944 -30.7944 -30.7944 -30.7944
   -30.7705 -30.7705 -30.7705 -30.7705 -30.7057 -30.7057 -30.7057 -30.7057
   -20.6211 -20.6211 -20.6211 -20.6210 -20.6115 -20.6115 -20.6115 -20.6115
   -20.6060 -20.6060 -20.6060 -20.6060 -20.5922 -20.5922 -20.5922 -20.5922
   -20.5905 -20.5905 -20.5905 -20.5905 -20.5848 -20.5848 -20.5848 -20.5848
   -20.5816 -20.5816 -20.5816 -20.5816  -9.5916  -9.5916  -9.5916  -9.5916
    -8.6741  -8.6740  -8.6740  -8.6740  -7.9838  -7.9838  -7.9838  -7.9838
     1.0202   1.0202   1.0202   1.0202   2.9024   2.9024   2.9024   2.9024
     3.1456   3.1456   3.1456   3.1456   4.4637   4.4637   4.4637   4.4637
     5.1424   5.1424   5.1424   5.1424   5.7969   5.7969   5.7969   5.7969
     6.0362   6.0362   6.0362   6.0362   6.5122   6.5122   6.5122   6.5122
     7.3220   7.3220   7.3220   7.3220  11.0091  11.0091  11.0091  11.0091
    12.2687  12.2687  12.2687  12.2687  13.4094  13.4094  13.4094  13.4094
    14.9184  14.9184  14.9184  14.9185  17.8298  17.8298

     the Fermi energy is     8.6267 ev

!    total energy              =   -3130.52813686 Ry
     Harris-Foulkes estimate   =   -3130.52813686 Ry
     estimated scf accuracy    <          2.9E-12 Ry

     The total energy is the sum of the following terms:

     one-electron contribution =   -2396.70698779 Ry
     hartree contribution      =    1314.98203087 Ry
     xc contribution           =    -482.85754489 Ry
     ewald contribution        =   -1565.94563504 Ry
     smearing contrib. (-TS)   =      -0.00000000 Ry

     convergence has been achieved in  14 iterations

     Forces acting on atoms (cartesian axes, Ry/au):

     atom    1 type  1   force =     0.00000000    0.00000000   -0.01172265
     atom    2 type  1   force =     0.00000000    0.00000000    0.01172265
     atom    3 type  1   force =     0.00000000    0.00000000    0.01172265
     atom    4 type  1   force =     0.00000000    0.00000000   -0.01172265
     atom    5 type  2   force =     0.00000000    0.00000000    0.06148102
     atom    6 type  2   force =     0.00000000    0.00000000   -0.06148102
     atom    7 type  2   force =     0.00000000    0.00000000   -0.06148102
     atom    8 type  2   force =     0.00000000    0.00000000    0.06148102
     atom    9 type  2   force =    -0.00106379    0.00106379    0.00000000
     atom   10 type  2   force =     0.00106379   -0.00106379    0.00000000
     atom   11 type  2   force =     0.00106379   -0.00106379    0.00000000
     atom   12 type  2   force =    -0.00106379    0.00106379    0.00000000
     atom   13 type  2   force =    -0.00106379   -0.00106379    0.00000000
     atom   14 type  2   force =     0.00106379    0.00106379    0.00000000
     atom   15 type  2   force =     0.00106379    0.00106379    0.00000000
     atom   16 type  2   force =    -0.00106379   -0.00106379    0.00000000

     Total force =     0.000000     Total SCF correction =     0.000000

     Computing stress (Cartesian axis) and pressure

          total   stress  (Ry/bohr**3)                   (kbar)     P=    0.71
   0.00000700   0.00000000   0.00000000          1.03      0.00      0.00
   0.00000000   0.00000700   0.00000000          0.00      1.03      0.00
   0.00000000   0.00000000   0.00000057          0.00      0.00      0.08

     Writing output data file Landau_20.save/

     General routines

     Parallel routines

   This run was terminated on:  19: 8:47  19Nov2019

   JOB DONE.