     Program PWSCF v.6.4.1 starts on 21Nov2019 at 17:23:27

     K-points division:     npool     =      40
     Reading input from rscf.in

     Current dimensions of program PWSCF are:
     Max number of different atomic species (ntypx) = 10
     Max number of k-points (npk) =  40000
     Max angular momentum in pseudopotentials (lmaxx) =  3

     Subspace diagonalization in iterative solution of the eigenvalue problem:
     a serial algorithm will be used

     Message from routine setup:
     using ibrav=0 with symmetry is DISCOURAGED, use correct ibrav instead

     bravais-lattice index     =            0
     lattice parameter (alat)  =       9.7849  a.u.
     unit-cell volume          =    1402.1515 (a.u.)^3
     number of atoms/cell      =           16
     number of atomic types    =            2
     number of electrons       =       184.00
     number of Kohn-Sham states=          110
     kinetic-energy cutoff     =     120.0000  Ry
     charge density cutoff     =     480.0000  Ry
     convergence threshold     =      1.0E-08
     mixing beta               =       0.7000
     number of iterations used =            8  plain     mixing
     Exchange-correlation      = SLA PW NOGX NOGC ( 1  4  0  0 0 0)
     nstep                     =           50

     celldm(1)=   9.784926  celldm(2)=   0.000000  celldm(3)=   0.000000
     celldm(4)=   0.000000  celldm(5)=   0.000000  celldm(6)=   0.000000

     crystal axes: (cart. coord. in units of alat)
               a(1) = (   1.000000   0.000000   0.000000 )
               a(2) = (   0.000000   1.000000   0.000000 )
               a(3) = (   0.000000   0.000000   1.496657 )

     reciprocal axes: (cart. coord. in units 2 pi/alat)
               b(1) = (  1.000000  0.000000  0.000000 )
               b(2) = (  0.000000  1.000000  0.000000 )
               b(3) = (  0.000000  0.000000  0.668156 )

     PseudoPot. # 1 for W  read from file:
     /cluster/scratch/mnoe/QE/pps/W_ONCV_LDA-4.0.upf
     MD5 check sum: ba0307d5d4cd419d6f1d13dc49d7c13a
     Pseudo is Norm-conserving + core correction, Zval = 28.0
     Generated using ONCVPSP code by D. R. Hamann
     Using radial grid of 1380 points,  8 beta functions with:
                l(1) =   0
                l(2) =   0
                l(3) =   1
                l(4) =   1
                l(5) =   2
                l(6) =   2
                l(7) =   3
                l(8) =   3

     PseudoPot. # 2 for O  read from file:
     /cluster/scratch/mnoe/QE/pps/O_ONCV_LDA-3.0.upf
     MD5 check sum: b55cdb4f45ae2203d24ad12cf8d61a31
     Pseudo is Norm-conserving + core correction, Zval =  6.0
     Generated using ONCVPSP code by D. R. Hamann
     Using radial grid of  926 points,  5 beta functions with:
                l(1) =   0
                l(2) =   0
                l(3) =   1
                l(4) =   1
                l(5) =   2

     atomic species   valence    mass     pseudopotential
        W             28.00   183.84000     W ( 1.00)
        O              6.00    15.99940     O ( 1.00)

     16 Sym. Ops., with inversion, found (14 have fractional translation)

   Cartesian axes

     site n.     atom                  positions (alat units)
         1           W   tau(   1) = (   0.2500000   0.2500000   0.3249265  )
         2           W   tau(   2) = (   0.7500000   0.7500000   1.1717305  )
         3           W   tau(   3) = (   0.7500000   0.7500000   0.4234020  )
         4           W   tau(   4) = (   0.2500000   0.2500000   1.0732550  )
         5           O   tau(   5) = (   0.2500000   0.2500000   0.7329767  )
         6           O   tau(   6) = (   0.7500000   0.7500000   0.7636803  )
         7           O   tau(   7) = (   0.7500000   0.7500000   0.0153518  )
         8           O   tau(   8) = (   0.2500000   0.2500000   1.4813052  )
         9           O   tau(   9) = (   0.4546762   0.5453237   0.3741643  )
        10           O   tau(  10) = (   0.5453238   0.4546763   1.1224928  )
        11           O   tau(  11) = (   0.0453238   0.9546763   0.3741643  )
        12           O   tau(  12) = (   0.9546762   0.0453238   1.1224928  )
        13           O   tau(  13) = (   0.9546763   0.4546762   0.3741643  )
        14           O   tau(  14) = (   0.0453238   0.5453238   1.1224928  )
        15           O   tau(  15) = (   0.5453237   0.0453238   0.3741643  )
        16           O   tau(  16) = (   0.4546763   0.9546762   1.1224928  )

     number of k points=    60  gaussian smearing, width (Ry)=  0.0007
                       cart. coord. in units 2pi/alat
        k(    1) = (   0.0000000   0.0000000   0.0000000), wk =   0.0041152
        k(    2) = (   0.0000000   0.0000000   0.1113593), wk =   0.0082305
        k(    3) = (   0.0000000   0.0000000   0.2227186), wk =   0.0082305
        k(    4) = (   0.0000000   0.0000000  -0.3340779), wk =   0.0041152
        k(    5) = (   0.0000000   0.1111111   0.0000000), wk =   0.0164609
        k(    6) = (   0.0000000   0.1111111   0.1113593), wk =   0.0329218
        k(    7) = (   0.0000000   0.1111111   0.2227186), wk =   0.0329218
        k(    8) = (   0.0000000   0.1111111  -0.3340779), wk =   0.0164609
        k(    9) = (   0.0000000   0.2222222   0.0000000), wk =   0.0164609
        k(   10) = (   0.0000000   0.2222222   0.1113593), wk =   0.0329218
        k(   11) = (   0.0000000   0.2222222   0.2227186), wk =   0.0329218
        k(   12) = (   0.0000000   0.2222222  -0.3340779), wk =   0.0164609
        k(   13) = (   0.0000000   0.3333333   0.0000000), wk =   0.0164609
        k(   14) = (   0.0000000   0.3333333   0.1113593), wk =   0.0329218
        k(   15) = (   0.0000000   0.3333333   0.2227186), wk =   0.0329218
        k(   16) = (   0.0000000   0.3333333  -0.3340779), wk =   0.0164609
        k(   17) = (   0.0000000   0.4444444   0.0000000), wk =   0.0164609
        k(   18) = (   0.0000000   0.4444444   0.1113593), wk =   0.0329218
        k(   19) = (   0.0000000   0.4444444   0.2227186), wk =   0.0329218
        k(   20) = (   0.0000000   0.4444444  -0.3340779), wk =   0.0164609
        k(   21) = (   0.1111111   0.1111111   0.0000000), wk =   0.0164609
        k(   22) = (   0.1111111   0.1111111   0.1113593), wk =   0.0329218
        k(   23) = (   0.1111111   0.1111111   0.2227186), wk =   0.0329218
        k(   24) = (   0.1111111   0.1111111  -0.3340779), wk =   0.0164609
        k(   25) = (   0.1111111   0.2222222   0.0000000), wk =   0.0329218
        k(   26) = (   0.1111111   0.2222222   0.1113593), wk =   0.0658436
        k(   27) = (   0.1111111   0.2222222   0.2227186), wk =   0.0658436
        k(   28) = (   0.1111111   0.2222222  -0.3340779), wk =   0.0329218
        k(   29) = (   0.1111111   0.3333333   0.0000000), wk =   0.0329218
        k(   30) = (   0.1111111   0.3333333   0.1113593), wk =   0.0658436
        k(   31) = (   0.1111111   0.3333333   0.2227186), wk =   0.0658436
        k(   32) = (   0.1111111   0.3333333  -0.3340779), wk =   0.0329218
        k(   33) = (   0.1111111   0.4444444   0.0000000), wk =   0.0329218
        k(   34) = (   0.1111111   0.4444444   0.1113593), wk =   0.0658436
        k(   35) = (   0.1111111   0.4444444   0.2227186), wk =   0.0658436
        k(   36) = (   0.1111111   0.4444444  -0.3340779), wk =   0.0329218
        k(   37) = (   0.2222222   0.2222222   0.0000000), wk =   0.0164609
        k(   38) = (   0.2222222   0.2222222   0.1113593), wk =   0.0329218
        k(   39) = (   0.2222222   0.2222222   0.2227186), wk =   0.0329218
        k(   40) = (   0.2222222   0.2222222  -0.3340779), wk =   0.0164609
        k(   41) = (   0.2222222   0.3333333   0.0000000), wk =   0.0329218
        k(   42) = (   0.2222222   0.3333333   0.1113593), wk =   0.0658436
        k(   43) = (   0.2222222   0.3333333   0.2227186), wk =   0.0658436
        k(   44) = (   0.2222222   0.3333333  -0.3340779), wk =   0.0329218
        k(   45) = (   0.2222222   0.4444444   0.0000000), wk =   0.0329218
        k(   46) = (   0.2222222   0.4444444   0.1113593), wk =   0.0658436
        k(   47) = (   0.2222222   0.4444444   0.2227186), wk =   0.0658436
        k(   48) = (   0.2222222   0.4444444  -0.3340779), wk =   0.0329218
        k(   49) = (   0.3333333   0.3333333   0.0000000), wk =   0.0164609
        k(   50) = (   0.3333333   0.3333333   0.1113593), wk =   0.0329218
        k(   51) = (   0.3333333   0.3333333   0.2227186), wk =   0.0329218
        k(   52) = (   0.3333333   0.3333333  -0.3340779), wk =   0.0164609
        k(   53) = (   0.3333333   0.4444444   0.0000000), wk =   0.0329218
        k(   54) = (   0.3333333   0.4444444   0.1113593), wk =   0.0658436
        k(   55) = (   0.3333333   0.4444444   0.2227186), wk =   0.0658436
        k(   56) = (   0.3333333   0.4444444  -0.3340779), wk =   0.0329218
        k(   57) = (   0.4444444   0.4444444   0.0000000), wk =   0.0164609
        k(   58) = (   0.4444444   0.4444444   0.1113593), wk =   0.0329218
        k(   59) = (   0.4444444   0.4444444   0.2227186), wk =   0.0329218
        k(   60) = (   0.4444444   0.4444444  -0.3340779), wk =   0.0164609

     Initial potential from superposition of free atoms

     starting charge  183.99828, renormalised to  184.00000
     Starting wfcs are  116 randomized atomic wfcs

     Self-consistent Calculation

     iteration #  1     ecut=   120.00 Ry     beta= 0.70
     Davidson diagonalization with overlap
     ethr =  1.00E-02,  avg # of iterations =  4.2

     total energy              =   -3126.99519140 Ry
     Harris-Foulkes estimate   =   -3132.29348518 Ry
     estimated scf accuracy    <       6.71181056 Ry

[...]

     End of self-consistent calculation

          k = 0.0000 0.0000 0.0000 ( 31095 PWs)   bands (ev):

   -66.1620 -66.1616 -66.1600 -66.1596 -30.5419 -30.5356 -30.5169 -30.5169
   -30.5137 -30.5137 -30.4827 -30.4776 -30.4208 -30.4208 -30.4182 -30.4182
   -20.3188 -20.3188 -20.3187 -20.3186 -20.2995 -20.2991 -20.2962 -20.2962
   -20.2958 -20.2958 -20.2951 -20.2951 -20.2948 -20.2948 -20.2940 -20.2935
   -20.2874 -20.2874 -20.2866 -20.2866 -20.2860 -20.2859 -20.2853 -20.2852
   -20.2802 -20.2802 -20.2795 -20.2795  -9.9768  -9.7109  -9.0892  -9.0758
    -9.0399  -8.8498  -7.8168  -7.7037  -7.6503  -7.6503  -7.6294  -7.6294
     1.1025   1.1029   1.3496   1.5619   1.6559   1.8042   2.3529   2.4298
     2.6962   2.6962   4.1115   4.1115   5.0383   5.0383   5.0488   5.5507
     5.5507   5.5532   5.5532   5.8409   5.8409   5.9353   5.9996   6.8017
     6.8017   6.8648   7.0235   7.0493   7.3402   7.3402   7.3786   7.3786
     7.8922   7.9042   8.1096   8.1096   9.1827   9.1890   9.9845   9.9845
    12.3141  12.3141  13.0378  13.0388  13.4471  13.4471  13.7549  14.2011
    14.2011  14.8863  15.3606  15.3707  15.4742  16.8321

[...]

     the Fermi energy is     8.8767 ev

!    total energy              =   -3130.55320529 Ry
     Harris-Foulkes estimate   =   -3130.55320529 Ry
     estimated scf accuracy    <          1.1E-09 Ry

     The total energy is the sum of the following terms:

     one-electron contribution =   -2366.17966571 Ry
     hartree contribution      =    1301.50275844 Ry
[...]
     NEW-OLD atomic charge density approx. for the potential
     extrapolated charge  185.08839, renormalised to  184.00000

[...]

     enthalpy old            =   -3130.5532052906 Ry
     enthalpy new            =   -3130.5538868159 Ry

     CASE: enthalpy_new < enthalpy_old

[...]

     Threshold (ethr) on eigenvalues was too large:
     Diagonalizing with lowered threshold

     Davidson diagonalization with overlap
     ethr =  9.53E-09,  avg # of iterations =  3.0

[...]

     number of scf cycles    =   4
     number of bfgs steps    =   3

     enthalpy old            =   -3130.5539190096 Ry
     enthalpy new            =   -3130.5539193272 Ry

     CASE: enthalpy_new < enthalpy_old

     small trust_radius: resetting bfgs history

     new trust radius        =       0.0000946225 bohr
     new conv_thr            =            1.0E-10 Ry

     new unit-cell volume =   1408.24500 a.u.^3 (   208.68038 Ang^3 )
     density =      7.37925 g/cm^3

[...]

ATOMIC_POSITIONS (crystal)
W        0.250000000   0.250000000   0.217101502    0   0   0
W        0.750000023   0.750000023   0.782898513    0   0   0
W        0.750000023   0.750000023   0.282898513    0   0   0
W        0.250000000   0.250000000   0.717101487    0   0   0
O        0.250000000   0.250000000   0.489742625    0   0   0
O        0.750000023   0.750000023   0.510257375    0   0   0
O        0.750000023   0.750000023   0.010257388    0   0   0
O        0.250000000   0.250000000   0.989742625    0   0   0
O        0.454676216   0.545323738   0.250000000    0   0   0
O        0.545323784   0.454676262   0.750000000    0   0   0
O        0.045323767   0.954676262   0.250000000    0   0   0
O        0.954676170   0.045323801   0.750000000    0   0   0
O        0.954676262   0.454676216   0.250000000    0   0   0
O        0.045323801   0.545323784   0.750000000    0   0   0
O        0.545323738   0.045323767   0.250000000    0   0   0
O        0.454676262   0.954676170   0.750000000    0   0   0

     Writing output data file Landau_3.save/
     NEW-OLD atomic charge density approx. for the potential
     extrapolated charge  183.99788, renormalised to  184.00000

[...]

     Threshold (ethr) on eigenvalues was too large:
     Diagonalizing with lowered threshold

     Davidson diagonalization with overlap
     ethr =  2.63E-10,  avg # of iterations =  2.9

[...]

     bfgs converged in   5 scf cycles and   4 bfgs steps
     (criteria: energy <  1.0E-07 Ry, force <  1.0E-07Ry/Bohr, cell <  5.0E-01kbar)

     End of BFGS Geometry Optimization

     Final enthalpy =   -3130.5539193300 Ry
Begin final coordinates
     new unit-cell volume =   1408.24500 a.u.^3 (   208.68038 Ang^3 )
     density =      7.37925 g/cm^3

CELL_PARAMETERS (angstrom)
   5.194015478   0.000000000   0.000000000
   0.000000000   5.194015478   0.000000000
   0.000000000   0.000000000   7.735263850

ATOMIC_POSITIONS (crystal)
W        0.250000000   0.250000000   0.217101502    0   0   0
W        0.750000023   0.750000023   0.782898513    0   0   0
W        0.750000023   0.750000023   0.282898513    0   0   0
W        0.250000000   0.250000000   0.717101487    0   0   0
O        0.250000000   0.250000000   0.489742625    0   0   0
O        0.750000023   0.750000023   0.510257375    0   0   0
O        0.750000023   0.750000023   0.010257388    0   0   0
O        0.250000000   0.250000000   0.989742625    0   0   0
O        0.454676216   0.545323738   0.250000000    0   0   0
O        0.545323784   0.454676262   0.750000000    0   0   0
O        0.045323767   0.954676262   0.250000000    0   0   0
O        0.954676170   0.045323801   0.750000000    0   0   0
O        0.954676262   0.454676216   0.250000000    0   0   0
O        0.045323801   0.545323784   0.750000000    0   0   0
O        0.545323738   0.045323767   0.250000000    0   0   0
O        0.454676262   0.954676170   0.750000000    0   0   0
End final coordinates

     Writing output data file Landau_3.save/

     Final scf calculation at the relaxed structure.
     The G-vectors are recalculated for the final unit cell
     Results may differ from those at the preceding step.

     bravais-lattice index     =            0
     lattice parameter (alat)  =       9.7849  a.u.
     unit-cell volume          =    1408.2450 (a.u.)^3
     number of atoms/cell      =           16
     number of atomic types    =            2
     number of electrons       =       184.00
     number of Kohn-Sham states=          110
     kinetic-energy cutoff     =     120.0000  Ry
     charge density cutoff     =     480.0000  Ry
     convergence threshold     =      1.0E-10
     mixing beta               =       0.7000
     number of iterations used =            8  plain     mixing
     Exchange-correlation      = SLA PW NOGX NOGC ( 1  4  0  0 0 0)

     celldm(1)=   9.784926  celldm(2)=   0.000000  celldm(3)=   0.000000
     celldm(4)=   0.000000  celldm(5)=   0.000000  celldm(6)=   0.000000

     crystal axes: (cart. coord. in units of alat)
               a(1) = (   1.003101   0.000000   0.000000 )
               a(2) = (   0.000000   1.003101   0.000000 )
               a(3) = (   0.000000   0.000000   1.493883 )

     reciprocal axes: (cart. coord. in units 2 pi/alat)
               b(1) = (  0.996909  0.000000  0.000000 )
               b(2) = (  0.000000  0.996909  0.000000 )
               b(3) = (  0.000000  0.000000  0.669397 )

     PseudoPot. # 1 for W  read from file:
     /cluster/scratch/mnoe/QE/pps/W_ONCV_LDA-4.0.upf
     MD5 check sum: ba0307d5d4cd419d6f1d13dc49d7c13a
     Pseudo is Norm-conserving + core correction, Zval = 28.0
     Generated using ONCVPSP code by D. R. Hamann
     Using radial grid of 1380 points,  8 beta functions with:
                l(1) =   0
                l(2) =   0
                l(3) =   1
                l(4) =   1
                l(5) =   2
                l(6) =   2
                l(7) =   3
                l(8) =   3

     PseudoPot. # 2 for O  read from file:
     /cluster/scratch/mnoe/QE/pps/O_ONCV_LDA-3.0.upf
     MD5 check sum: b55cdb4f45ae2203d24ad12cf8d61a31
     Pseudo is Norm-conserving + core correction, Zval =  6.0
     Generated using ONCVPSP code by D. R. Hamann
     Using radial grid of  926 points,  5 beta functions with:
                l(1) =   0
                l(2) =   0
                l(3) =   1
                l(4) =   1
                l(5) =   2

     atomic species   valence    mass     pseudopotential
        W             28.00   183.84000     W ( 1.00)
        O              6.00    15.99940     O ( 1.00)

     16 Sym. Ops., with inversion, found (14 have fractional translation)

   Cartesian axes

     site n.     atom                  positions (alat units)
         1           W   tau(   1) = (   0.2507752   0.2507752   0.3243241  )
         2           W   tau(   2) = (   0.7523256   0.7523256   1.1695584  )
         3           W   tau(   3) = (   0.7523256   0.7523256   0.4226171  )
         4           W   tau(   4) = (   0.2507752   0.2507752   1.0712654  )
         5           O   tau(   5) = (   0.2507752   0.2507752   0.7316180  )
         6           O   tau(   6) = (   0.7523256   0.7523256   0.7622646  )
         7           O   tau(   7) = (   0.7523256   0.7523256   0.0153233  )
         8           O   tau(   8) = (   0.2507752   0.2507752   1.4785592  )
         9           O   tau(   9) = (   0.4560861   0.5470147   0.3734706  )
        10           O   tau(  10) = (   0.5470147   0.4560861   1.1204119  )
        11           O   tau(  11) = (   0.0454643   0.9576365   0.3734706  )
        12           O   tau(  12) = (   0.9576364   0.0454643   1.1204119  )
        13           O   tau(  13) = (   0.9576365   0.4560861   0.3734706  )
        14           O   tau(  14) = (   0.0454643   0.5470147   1.1204119  )
        15           O   tau(  15) = (   0.5470147   0.0454643   0.3734706  )
        16           O   tau(  16) = (   0.4560861   0.9576364   1.1204119  )

     number of k points=    60  gaussian smearing, width (Ry)=  0.0007
                       cart. coord. in units 2pi/alat
        k(    1) = (   0.0000000   0.0000000   0.0000000), wk =   0.0041152
        k(    2) = (   0.0000000   0.0000000   0.1115661), wk =   0.0082305
        k(    3) = (   0.0000000   0.0000000   0.2231322), wk =   0.0082305
        k(    4) = (   0.0000000   0.0000000  -0.3346983), wk =   0.0041152
        k(    5) = (   0.0000000   0.1107676   0.0000000), wk =   0.0164609
        k(    6) = (   0.0000000   0.1107676   0.1115661), wk =   0.0329218
        k(    7) = (   0.0000000   0.1107676   0.2231322), wk =   0.0329218
        k(    8) = (   0.0000000   0.1107676  -0.3346983), wk =   0.0164609
        k(    9) = (   0.0000000   0.2215353   0.0000000), wk =   0.0164609
        k(   10) = (   0.0000000   0.2215353   0.1115661), wk =   0.0329218
        k(   11) = (   0.0000000   0.2215353   0.2231322), wk =   0.0329218
        k(   12) = (   0.0000000   0.2215353  -0.3346983), wk =   0.0164609
        k(   13) = (   0.0000000   0.3323029   0.0000000), wk =   0.0164609
        k(   14) = (   0.0000000   0.3323029   0.1115661), wk =   0.0329218
        k(   15) = (   0.0000000   0.3323029   0.2231322), wk =   0.0329218
        k(   16) = (   0.0000000   0.3323029  -0.3346983), wk =   0.0164609
        k(   17) = (   0.0000000   0.4430706   0.0000000), wk =   0.0164609
        k(   18) = (   0.0000000   0.4430706   0.1115661), wk =   0.0329218
        k(   19) = (   0.0000000   0.4430706   0.2231322), wk =   0.0329218
        k(   20) = (   0.0000000   0.4430706  -0.3346983), wk =   0.0164609
        k(   21) = (   0.1107676   0.1107676   0.0000000), wk =   0.0164609
        k(   22) = (   0.1107676   0.1107676   0.1115661), wk =   0.0329218
        k(   23) = (   0.1107676   0.1107676   0.2231322), wk =   0.0329218
        k(   24) = (   0.1107676   0.1107676  -0.3346983), wk =   0.0164609
        k(   25) = (   0.1107676   0.2215353   0.0000000), wk =   0.0329218
        k(   26) = (   0.1107676   0.2215353   0.1115661), wk =   0.0658436
        k(   27) = (   0.1107676   0.2215353   0.2231322), wk =   0.0658436
        k(   28) = (   0.1107676   0.2215353  -0.3346983), wk =   0.0329218
        k(   29) = (   0.1107676   0.3323029   0.0000000), wk =   0.0329218
        k(   30) = (   0.1107676   0.3323029   0.1115661), wk =   0.0658436
        k(   31) = (   0.1107676   0.3323029   0.2231322), wk =   0.0658436
        k(   32) = (   0.1107676   0.3323029  -0.3346983), wk =   0.0329218
        k(   33) = (   0.1107676   0.4430706   0.0000000), wk =   0.0329218
        k(   34) = (   0.1107676   0.4430706   0.1115661), wk =   0.0658436
        k(   35) = (   0.1107676   0.4430706   0.2231322), wk =   0.0658436
        k(   36) = (   0.1107676   0.4430706  -0.3346983), wk =   0.0329218
        k(   37) = (   0.2215353   0.2215353   0.0000000), wk =   0.0164609
        k(   38) = (   0.2215353   0.2215353   0.1115661), wk =   0.0329218
        k(   39) = (   0.2215353   0.2215353   0.2231322), wk =   0.0329218
        k(   40) = (   0.2215353   0.2215353  -0.3346983), wk =   0.0164609
        k(   41) = (   0.2215353   0.3323029   0.0000000), wk =   0.0329218
        k(   42) = (   0.2215353   0.3323029   0.1115661), wk =   0.0658436
        k(   43) = (   0.2215353   0.3323029   0.2231322), wk =   0.0658436
        k(   44) = (   0.2215353   0.3323029  -0.3346983), wk =   0.0329218
        k(   45) = (   0.2215353   0.4430706   0.0000000), wk =   0.0329218
        k(   46) = (   0.2215353   0.4430706   0.1115661), wk =   0.0658436
        k(   47) = (   0.2215353   0.4430706   0.2231322), wk =   0.0658436
        k(   48) = (   0.2215353   0.4430706  -0.3346983), wk =   0.0329218
        k(   49) = (   0.3323029   0.3323029   0.0000000), wk =   0.0164609
        k(   50) = (   0.3323029   0.3323029   0.1115661), wk =   0.0329218
        k(   51) = (   0.3323029   0.3323029   0.2231322), wk =   0.0329218
        k(   52) = (   0.3323029   0.3323029  -0.3346983), wk =   0.0164609
        k(   53) = (   0.3323029   0.4430706   0.0000000), wk =   0.0329218
        k(   54) = (   0.3323029   0.4430706   0.1115661), wk =   0.0658436
        k(   55) = (   0.3323029   0.4430706   0.2231322), wk =   0.0658436
        k(   56) = (   0.3323029   0.4430706  -0.3346983), wk =   0.0329218
        k(   57) = (   0.4430706   0.4430706   0.0000000), wk =   0.0164609
        k(   58) = (   0.4430706   0.4430706   0.1115661), wk =   0.0329218
        k(   59) = (   0.4430706   0.4430706   0.2231322), wk =   0.0329218
        k(   60) = (   0.4430706   0.4430706  -0.3346983), wk =   0.0164609

     Initial potential from superposition of free atoms

     starting charge  183.99828, renormalised to  184.00000
     Starting wfcs are  116 randomized atomic wfcs

     Self-consistent Calculation

[...]

     total energy              =   -3130.55394839 Ry
     Harris-Foulkes estimate   =   -3130.55394839 Ry
     estimated scf accuracy    <          1.6E-10 Ry

     iteration # 14     ecut=   120.00 Ry     beta= 0.70
     Davidson diagonalization with overlap
     ethr =  1.00E-13,  avg # of iterations =  2.0

     End of self-consistent calculation

[...]

          k = 0.4431 0.4431-0.3347 ( 31296 PWs)   bands (ev):

   -66.2445 -66.2445 -66.2444 -66.2444 -30.5997 -30.5997 -30.5995 -30.5995
   -30.5880 -30.5880 -30.5848 -30.5848 -30.4895 -30.4895 -30.4867 -30.4867
   -20.4064 -20.4064 -20.4064 -20.4064 -20.3849 -20.3849 -20.3849 -20.3849
   -20.3842 -20.3842 -20.3842 -20.3842 -20.3821 -20.3821 -20.3821 -20.3821
   -20.3743 -20.3743 -20.3742 -20.3742 -20.3734 -20.3734 -20.3731 -20.3731
   -20.3672 -20.3672 -20.3670 -20.3670  -9.4002  -9.4002  -9.3555  -9.3555
    -8.5078  -8.5078  -8.5025  -8.5025  -7.8783  -7.8783  -7.8189  -7.8189
     1.2133   1.2133   1.3271   1.3271   3.1287   3.1287   3.1347   3.1347
     3.3839   3.3839   3.4090   3.4090   4.5579   4.5579   4.7825   4.7825
     5.1751   5.1751   5.2681   5.2681   5.8517   5.8517   6.0140   6.0140
     6.0787   6.0787   6.2252   6.2252   6.6788   6.6788   6.7713   6.7713
     7.4067   7.4067   7.4166   7.4166  11.2419  11.2419  11.2999  11.2999
    12.2115  12.2115  12.2801  12.2801  13.4413  13.4413  13.5252  13.5252
    15.4907  15.4907  15.6291  15.6291  17.9985  17.9985

     the Fermi energy is     8.7999 ev

!    total energy              =   -3130.55394839 Ry
     Harris-Foulkes estimate   =   -3130.55394839 Ry
     estimated scf accuracy    <          1.5E-12 Ry

     The total energy is the sum of the following terms:

     one-electron contribution =   -2369.32147731 Ry
     hartree contribution      =    1302.56022857 Ry
     xc contribution           =    -482.83802700 Ry
     ewald contribution        =   -1580.95467265 Ry
     smearing contrib. (-TS)   =      -0.00000000 Ry

     convergence has been achieved in  14 iterations

     Forces acting on atoms (cartesian axes, Ry/au):

     atom    1 type  1   force =     0.00000000    0.00000000   -0.00150614
     atom    2 type  1   force =     0.00000000    0.00000000    0.00150614
     atom    3 type  1   force =     0.00000000    0.00000000    0.00150614
     atom    4 type  1   force =     0.00000000    0.00000000   -0.00150614
     atom    5 type  2   force =     0.00000000    0.00000000    0.00864065
     atom    6 type  2   force =     0.00000000    0.00000000   -0.00864065
     atom    7 type  2   force =     0.00000000    0.00000000   -0.00864065
     atom    8 type  2   force =     0.00000000    0.00000000    0.00864065
     atom    9 type  2   force =    -0.00073555    0.00073555    0.00000000
     atom   10 type  2   force =     0.00073555   -0.00073555    0.00000000
     atom   11 type  2   force =     0.00073555   -0.00073555    0.00000000
     atom   12 type  2   force =    -0.00073555    0.00073555    0.00000000
     atom   13 type  2   force =    -0.00073555   -0.00073555    0.00000000
     atom   14 type  2   force =     0.00073555    0.00073555    0.00000000
     atom   15 type  2   force =     0.00073555    0.00073555    0.00000000
     atom   16 type  2   force =    -0.00073555   -0.00073555    0.00000000

     Total force =     0.000000     Total SCF correction =     0.000000

     Computing stress (Cartesian axis) and pressure

          total   stress  (Ry/bohr**3)                   (kbar)     P=    0.12
   0.00000113   0.00000000   0.00000000          0.17      0.00      0.00
   0.00000000   0.00000113   0.00000000          0.00      0.17      0.00
   0.00000000   0.00000000   0.00000019          0.00      0.00      0.03

     Writing output data file Landau_3.save/

     General routines

     Parallel routines

   This run was terminated on:  18: 5:56  21Nov2019

   JOB DONE.