     Program PWSCF v.6.4.1 starts on 21Nov2019 at 17:57:30

     K-points division:     npool     =      40
     Reading input from rscf.in

     Current dimensions of program PWSCF are:
     Max number of different atomic species (ntypx) = 10
     Max number of k-points (npk) =  40000
     Max angular momentum in pseudopotentials (lmaxx) =  3

     Subspace diagonalization in iterative solution of the eigenvalue problem:
     a serial algorithm will be used

     Message from routine setup:
     using ibrav=0 with symmetry is DISCOURAGED, use correct ibrav instead

     bravais-lattice index     =            0
     lattice parameter (alat)  =       9.7849  a.u.
     unit-cell volume          =    1402.1515 (a.u.)^3
     number of atoms/cell      =           16
     number of atomic types    =            2
     number of electrons       =       184.00
     number of Kohn-Sham states=          110
     kinetic-energy cutoff     =     120.0000  Ry
     charge density cutoff     =     480.0000  Ry
     convergence threshold     =      1.0E-08
     mixing beta               =       0.7000
     number of iterations used =            8  plain     mixing
     Exchange-correlation      = SLA PW NOGX NOGC ( 1  4  0  0 0 0)
     nstep                     =           50

     celldm(1)=   9.784926  celldm(2)=   0.000000  celldm(3)=   0.000000
     celldm(4)=   0.000000  celldm(5)=   0.000000  celldm(6)=   0.000000

     crystal axes: (cart. coord. in units of alat)
               a(1) = (   1.000000   0.000000   0.000000 )
               a(2) = (   0.000000   1.000000   0.000000 )
               a(3) = (   0.000000   0.000000   1.496657 )

     reciprocal axes: (cart. coord. in units 2 pi/alat)
               b(1) = (  1.000000  0.000000  0.000000 )
               b(2) = (  0.000000  1.000000  0.000000 )
               b(3) = (  0.000000  0.000000  0.668156 )

     PseudoPot. # 1 for W  read from file:
     /cluster/scratch/mnoe/QE/pps/W_ONCV_LDA-4.0.upf
     MD5 check sum: ba0307d5d4cd419d6f1d13dc49d7c13a
     Pseudo is Norm-conserving + core correction, Zval = 28.0
     Generated using ONCVPSP code by D. R. Hamann
     Using radial grid of 1380 points,  8 beta functions with:
                l(1) =   0
                l(2) =   0
                l(3) =   1
                l(4) =   1
                l(5) =   2
                l(6) =   2
                l(7) =   3
                l(8) =   3

     PseudoPot. # 2 for O  read from file:
     /cluster/scratch/mnoe/QE/pps/O_ONCV_LDA-3.0.upf
     MD5 check sum: b55cdb4f45ae2203d24ad12cf8d61a31
     Pseudo is Norm-conserving + core correction, Zval =  6.0
     Generated using ONCVPSP code by D. R. Hamann
     Using radial grid of  926 points,  5 beta functions with:
                l(1) =   0
                l(2) =   0
                l(3) =   1
                l(4) =   1
                l(5) =   2

     atomic species   valence    mass     pseudopotential
        W             28.00   183.84000     W ( 1.00)
        O              6.00    15.99940     O ( 1.00)

     16 Sym. Ops., with inversion, found (14 have fractional translation)

   Cartesian axes

     site n.     atom                  positions (alat units)
         1           W   tau(   1) = (   0.2500000   0.2500000   0.3091751  )
         2           W   tau(   2) = (   0.7500000   0.7500000   1.1874819  )
         3           W   tau(   3) = (   0.7500000   0.7500000   0.4391534  )
         4           W   tau(   4) = (   0.2500000   0.2500000   1.0575036  )
         5           O   tau(   5) = (   0.2500000   0.2500000   0.7031686  )
         6           O   tau(   6) = (   0.7500000   0.7500000   0.7934884  )
         7           O   tau(   7) = (   0.7500000   0.7500000   0.0451599  )
         8           O   tau(   8) = (   0.2500000   0.2500000   1.4514971  )
         9           O   tau(   9) = (   0.5090940   0.4909059   0.3741643  )
        10           O   tau(  10) = (   0.4909060   0.5090941   1.1224928  )
        11           O   tau(  11) = (  -0.0090940   1.0090941   0.3741643  )
        12           O   tau(  12) = (   1.0090940  -0.0090940   1.1224928  )
        13           O   tau(  13) = (   1.0090941   0.5090940   0.3741643  )
        14           O   tau(  14) = (  -0.0090940   0.4909060   1.1224928  )
        15           O   tau(  15) = (   0.4909059  -0.0090940   0.3741643  )
        16           O   tau(  16) = (   0.5090941   1.0090940   1.1224928  )

     number of k points=    60  gaussian smearing, width (Ry)=  0.0007
                       cart. coord. in units 2pi/alat
        k(    1) = (   0.0000000   0.0000000   0.0000000), wk =   0.0041152
        k(    2) = (   0.0000000   0.0000000   0.1113593), wk =   0.0082305
        k(    3) = (   0.0000000   0.0000000   0.2227186), wk =   0.0082305
        k(    4) = (   0.0000000   0.0000000  -0.3340779), wk =   0.0041152
        k(    5) = (   0.0000000   0.1111111   0.0000000), wk =   0.0164609
        k(    6) = (   0.0000000   0.1111111   0.1113593), wk =   0.0329218
        k(    7) = (   0.0000000   0.1111111   0.2227186), wk =   0.0329218
        k(    8) = (   0.0000000   0.1111111  -0.3340779), wk =   0.0164609
        k(    9) = (   0.0000000   0.2222222   0.0000000), wk =   0.0164609
        k(   10) = (   0.0000000   0.2222222   0.1113593), wk =   0.0329218
        k(   11) = (   0.0000000   0.2222222   0.2227186), wk =   0.0329218
        k(   12) = (   0.0000000   0.2222222  -0.3340779), wk =   0.0164609
        k(   13) = (   0.0000000   0.3333333   0.0000000), wk =   0.0164609
        k(   14) = (   0.0000000   0.3333333   0.1113593), wk =   0.0329218
        k(   15) = (   0.0000000   0.3333333   0.2227186), wk =   0.0329218
        k(   16) = (   0.0000000   0.3333333  -0.3340779), wk =   0.0164609
        k(   17) = (   0.0000000   0.4444444   0.0000000), wk =   0.0164609
        k(   18) = (   0.0000000   0.4444444   0.1113593), wk =   0.0329218
        k(   19) = (   0.0000000   0.4444444   0.2227186), wk =   0.0329218
        k(   20) = (   0.0000000   0.4444444  -0.3340779), wk =   0.0164609
        k(   21) = (   0.1111111   0.1111111   0.0000000), wk =   0.0164609
        k(   22) = (   0.1111111   0.1111111   0.1113593), wk =   0.0329218
        k(   23) = (   0.1111111   0.1111111   0.2227186), wk =   0.0329218
        k(   24) = (   0.1111111   0.1111111  -0.3340779), wk =   0.0164609
        k(   25) = (   0.1111111   0.2222222   0.0000000), wk =   0.0329218
        k(   26) = (   0.1111111   0.2222222   0.1113593), wk =   0.0658436
        k(   27) = (   0.1111111   0.2222222   0.2227186), wk =   0.0658436
        k(   28) = (   0.1111111   0.2222222  -0.3340779), wk =   0.0329218
        k(   29) = (   0.1111111   0.3333333   0.0000000), wk =   0.0329218
        k(   30) = (   0.1111111   0.3333333   0.1113593), wk =   0.0658436
        k(   31) = (   0.1111111   0.3333333   0.2227186), wk =   0.0658436
        k(   32) = (   0.1111111   0.3333333  -0.3340779), wk =   0.0329218
        k(   33) = (   0.1111111   0.4444444   0.0000000), wk =   0.0329218
        k(   34) = (   0.1111111   0.4444444   0.1113593), wk =   0.0658436
        k(   35) = (   0.1111111   0.4444444   0.2227186), wk =   0.0658436
        k(   36) = (   0.1111111   0.4444444  -0.3340779), wk =   0.0329218
        k(   37) = (   0.2222222   0.2222222   0.0000000), wk =   0.0164609
        k(   38) = (   0.2222222   0.2222222   0.1113593), wk =   0.0329218
        k(   39) = (   0.2222222   0.2222222   0.2227186), wk =   0.0329218
        k(   40) = (   0.2222222   0.2222222  -0.3340779), wk =   0.0164609
        k(   41) = (   0.2222222   0.3333333   0.0000000), wk =   0.0329218
        k(   42) = (   0.2222222   0.3333333   0.1113593), wk =   0.0658436
        k(   43) = (   0.2222222   0.3333333   0.2227186), wk =   0.0658436
        k(   44) = (   0.2222222   0.3333333  -0.3340779), wk =   0.0329218
        k(   45) = (   0.2222222   0.4444444   0.0000000), wk =   0.0329218
        k(   46) = (   0.2222222   0.4444444   0.1113593), wk =   0.0658436
        k(   47) = (   0.2222222   0.4444444   0.2227186), wk =   0.0658436
        k(   48) = (   0.2222222   0.4444444  -0.3340779), wk =   0.0329218
        k(   49) = (   0.3333333   0.3333333   0.0000000), wk =   0.0164609
        k(   50) = (   0.3333333   0.3333333   0.1113593), wk =   0.0329218
        k(   51) = (   0.3333333   0.3333333   0.2227186), wk =   0.0329218
        k(   52) = (   0.3333333   0.3333333  -0.3340779), wk =   0.0164609
        k(   53) = (   0.3333333   0.4444444   0.0000000), wk =   0.0329218
        k(   54) = (   0.3333333   0.4444444   0.1113593), wk =   0.0658436
        k(   55) = (   0.3333333   0.4444444   0.2227186), wk =   0.0658436
        k(   56) = (   0.3333333   0.4444444  -0.3340779), wk =   0.0329218
        k(   57) = (   0.4444444   0.4444444   0.0000000), wk =   0.0164609
        k(   58) = (   0.4444444   0.4444444   0.1113593), wk =   0.0329218
        k(   59) = (   0.4444444   0.4444444   0.2227186), wk =   0.0329218
        k(   60) = (   0.4444444   0.4444444  -0.3340779), wk =   0.0164609

     Initial potential from superposition of free atoms

     starting charge  183.99828, renormalised to  184.00000
     Starting wfcs are  116 randomized atomic wfcs

     Self-consistent Calculation

     iteration #  1     ecut=   120.00 Ry     beta= 0.70
     Davidson diagonalization with overlap
     ethr =  1.00E-02,  avg # of iterations =  4.3

     total energy              =   -3126.78878698 Ry
     Harris-Foulkes estimate   =   -3132.26682630 Ry
     estimated scf accuracy    <       6.93204677 Ry

[...]

     End of self-consistent calculation

          k = 0.0000 0.0000 0.0000 ( 31095 PWs)   bands (ev):

   -66.1809 -66.1805 -66.1793 -66.1789 -30.5739 -30.5739 -30.5705 -30.5705
   -30.4835 -30.4835 -30.4809 -30.4809 -30.4439 -30.4401 -30.3844 -30.3820
   -20.3412 -20.3411 -20.3411 -20.3410 -20.3376 -20.3376 -20.3376 -20.3376
   -20.3350 -20.3350 -20.3350 -20.3350 -20.3143 -20.3142 -20.3138 -20.3136
   -20.3078 -20.3074 -20.3039 -20.3039 -20.3027 -20.3027 -20.3019 -20.3016
   -20.3013 -20.3013 -20.3001 -20.3001 -10.0713  -9.8006  -9.1391  -9.1189
    -8.8470  -8.6042  -7.7769  -7.7769  -7.7589  -7.7589  -7.5811  -7.4346
     0.8982   0.9024   1.3040   1.3599   1.6241   1.7536   2.2780   2.3760
     2.5386   2.5386   3.8617   3.8617   4.9554   5.2508   5.2508   5.6126
     5.6126   5.8911   5.8911   5.9950   6.2024   6.2461   6.2461   6.8189
     6.8189   6.8536   7.0992   7.1562   7.1562   7.2229   7.2229   7.3476
     8.4055   8.4128   8.4952   8.4952   8.9467   8.9582   9.6368   9.6368
    12.3402  12.3402  13.4980  13.5856  13.5856  13.9520  13.9686  14.2879
    14.2879  14.5113  14.5139  14.6652  15.3490  16.5519

[...]

     the Fermi energy is     8.7681 ev

!    total energy              =   -3130.47103736 Ry
     Harris-Foulkes estimate   =   -3130.47103737 Ry
     estimated scf accuracy    <          2.0E-09 Ry

     The total energy is the sum of the following terms:

     one-electron contribution =   -2376.56825584 Ry
     hartree contribution      =    1306.79172503 Ry
[...]
O        0.490905928  -0.009094043   0.250000000    0   0   0
O        0.509094072   1.009093980   0.750000000    0   0   0

     Writing output data file Landau_34.save/
     NEW-OLD atomic charge density approx. for the potential
     extrapolated charge  186.16282, renormalised to  184.00000

[...]

     enthalpy old            =   -3130.4710373645 Ry
     enthalpy new            =   -3130.4876766753 Ry

     CASE: enthalpy_new < enthalpy_old

[...]

     number of scf cycles    =   4
     number of bfgs steps    =   3

     enthalpy old            =   -3130.4877844303 Ry
     enthalpy new            =   -3130.4878009751 Ry

     CASE: enthalpy_new < enthalpy_old

     small trust_radius: resetting bfgs history

     new trust radius        =       0.0000943461 bohr
     new conv_thr            =            1.0E-10 Ry

     new unit-cell volume =   1414.60307 a.u.^3 (   209.62255 Ang^3 )
     density =      7.34609 g/cm^3

[...]

ATOMIC_POSITIONS (crystal)
W        0.250000000   0.250000000   0.206577117    0   0   0
W        0.750000023   0.750000023   0.793422898    0   0   0
W        0.750000023   0.750000023   0.293422898    0   0   0
W        0.250000000   0.250000000   0.706577102    0   0   0
O        0.250000000   0.250000000   0.469826150    0   0   0
O        0.750000023   0.750000023   0.530173850    0   0   0
O        0.750000023   0.750000023   0.030173863    0   0   0
O        0.250000000   0.250000000   0.969826150    0   0   0
O        0.509094026   0.490905928   0.250000000    0   0   0
O        0.490905974   0.509094072   0.750000000    0   0   0
O       -0.009094043   1.009094072   0.250000000    0   0   0
O        1.009093980  -0.009094009   0.750000000    0   0   0
O        1.009094072   0.509094026   0.250000000    0   0   0
O       -0.009094009   0.490905974   0.750000000    0   0   0
O        0.490905928  -0.009094043   0.250000000    0   0   0
O        0.509094072   1.009093980   0.750000000    0   0   0

     Writing output data file Landau_34.save/
     NEW-OLD atomic charge density approx. for the potential
     extrapolated charge  183.99486, renormalised to  184.00000

[...]

     Threshold (ethr) on eigenvalues was too large:
     Diagonalizing with lowered threshold

     Davidson diagonalization with overlap
     ethr =  1.56E-09,  avg # of iterations =  2.1

[...]

     bfgs converged in   5 scf cycles and   4 bfgs steps
     (criteria: energy <  1.0E-07 Ry, force <  1.0E-07Ry/Bohr, cell <  5.0E-01kbar)

     End of BFGS Geometry Optimization

     Final enthalpy =   -3130.4878009797 Ry
Begin final coordinates
     new unit-cell volume =   1414.60307 a.u.^3 (   209.62255 Ang^3 )
     density =      7.34609 g/cm^3

CELL_PARAMETERS (angstrom)
   5.244267592   0.000000000   0.000000000
   0.000000000   5.244267592   0.000000000
   0.000000000   0.000000000   7.621988733

ATOMIC_POSITIONS (crystal)
W        0.250000000   0.250000000   0.206577117    0   0   0
W        0.750000023   0.750000023   0.793422898    0   0   0
W        0.750000023   0.750000023   0.293422898    0   0   0
W        0.250000000   0.250000000   0.706577102    0   0   0
O        0.250000000   0.250000000   0.469826150    0   0   0
O        0.750000023   0.750000023   0.530173850    0   0   0
O        0.750000023   0.750000023   0.030173863    0   0   0
O        0.250000000   0.250000000   0.969826150    0   0   0
O        0.509094026   0.490905928   0.250000000    0   0   0
O        0.490905974   0.509094072   0.750000000    0   0   0
O       -0.009094043   1.009094072   0.250000000    0   0   0
O        1.009093980  -0.009094009   0.750000000    0   0   0
O        1.009094072   0.509094026   0.250000000    0   0   0
O       -0.009094009   0.490905974   0.750000000    0   0   0
O        0.490905928  -0.009094043   0.250000000    0   0   0
O        0.509094072   1.009093980   0.750000000    0   0   0
End final coordinates

     Writing output data file Landau_34.save/

     Final scf calculation at the relaxed structure.
     The G-vectors are recalculated for the final unit cell
     Results may differ from those at the preceding step.

     bravais-lattice index     =            0
     lattice parameter (alat)  =       9.7849  a.u.
     unit-cell volume          =    1414.6031 (a.u.)^3
     number of atoms/cell      =           16
     number of atomic types    =            2
     number of electrons       =       184.00
     number of Kohn-Sham states=          110
     kinetic-energy cutoff     =     120.0000  Ry
     charge density cutoff     =     480.0000  Ry
     convergence threshold     =      1.0E-10
     mixing beta               =       0.7000
     number of iterations used =            8  plain     mixing
     Exchange-correlation      = SLA PW NOGX NOGC ( 1  4  0  0 0 0)

     celldm(1)=   9.784926  celldm(2)=   0.000000  celldm(3)=   0.000000
     celldm(4)=   0.000000  celldm(5)=   0.000000  celldm(6)=   0.000000

     crystal axes: (cart. coord. in units of alat)
               a(1) = (   1.012806   0.000000   0.000000 )
               a(2) = (   0.000000   1.012806   0.000000 )
               a(3) = (   0.000000   0.000000   1.472006 )

     reciprocal axes: (cart. coord. in units 2 pi/alat)
               b(1) = (  0.987356  0.000000  0.000000 )
               b(2) = (  0.000000  0.987356  0.000000 )
               b(3) = (  0.000000  0.000000  0.679345 )

     PseudoPot. # 1 for W  read from file:
     /cluster/scratch/mnoe/QE/pps/W_ONCV_LDA-4.0.upf
     MD5 check sum: ba0307d5d4cd419d6f1d13dc49d7c13a
     Pseudo is Norm-conserving + core correction, Zval = 28.0
     Generated using ONCVPSP code by D. R. Hamann
     Using radial grid of 1380 points,  8 beta functions with:
                l(1) =   0
                l(2) =   0
                l(3) =   1
                l(4) =   1
                l(5) =   2
                l(6) =   2
                l(7) =   3
                l(8) =   3

     PseudoPot. # 2 for O  read from file:
     /cluster/scratch/mnoe/QE/pps/O_ONCV_LDA-3.0.upf
     MD5 check sum: b55cdb4f45ae2203d24ad12cf8d61a31
     Pseudo is Norm-conserving + core correction, Zval =  6.0
     Generated using ONCVPSP code by D. R. Hamann
     Using radial grid of  926 points,  5 beta functions with:
                l(1) =   0
                l(2) =   0
                l(3) =   1
                l(4) =   1
                l(5) =   2

     atomic species   valence    mass     pseudopotential
        W             28.00   183.84000     W ( 1.00)
        O              6.00    15.99940     O ( 1.00)

     16 Sym. Ops., with inversion, found (14 have fractional translation)

   Cartesian axes

     site n.     atom                  positions (alat units)
         1           W   tau(   1) = (   0.2532014   0.2532014   0.3040828  )
         2           W   tau(   2) = (   0.7596043   0.7596043   1.1679234  )
         3           W   tau(   3) = (   0.7596043   0.7596043   0.4319203  )
         4           W   tau(   4) = (   0.2532014   0.2532014   1.0400858  )
         5           O   tau(   5) = (   0.2532014   0.2532014   0.6915870  )
         6           O   tau(   6) = (   0.7596043   0.7596043   0.7804192  )
         7           O   tau(   7) = (   0.7596043   0.7596043   0.0444161  )
         8           O   tau(   8) = (   0.2532014   0.2532014   1.4275900  )
         9           O   tau(   9) = (   0.5156134   0.4971923   0.3680015  )
        10           O   tau(  10) = (   0.4971924   0.5156134   1.1040046  )
        11           O   tau(  11) = (  -0.0092105   1.0220163   0.3680015  )
        12           O   tau(  12) = (   1.0220162  -0.0092105   1.1040046  )
        13           O   tau(  13) = (   1.0220163   0.5156134   0.3680015  )
        14           O   tau(  14) = (  -0.0092105   0.4971924   1.1040046  )
        15           O   tau(  15) = (   0.4971923  -0.0092105   0.3680015  )
        16           O   tau(  16) = (   0.5156134   1.0220162   1.1040046  )

     number of k points=    60  gaussian smearing, width (Ry)=  0.0007
                       cart. coord. in units 2pi/alat
        k(    1) = (   0.0000000   0.0000000   0.0000000), wk =   0.0041152
        k(    2) = (   0.0000000   0.0000000   0.1132242), wk =   0.0082305
        k(    3) = (   0.0000000   0.0000000   0.2264483), wk =   0.0082305
        k(    4) = (   0.0000000   0.0000000  -0.3396725), wk =   0.0041152
        k(    5) = (   0.0000000   0.1097062   0.0000000), wk =   0.0164609
        k(    6) = (   0.0000000   0.1097062   0.1132242), wk =   0.0329218
        k(    7) = (   0.0000000   0.1097062   0.2264483), wk =   0.0329218
        k(    8) = (   0.0000000   0.1097062  -0.3396725), wk =   0.0164609
        k(    9) = (   0.0000000   0.2194125   0.0000000), wk =   0.0164609
        k(   10) = (   0.0000000   0.2194125   0.1132242), wk =   0.0329218
        k(   11) = (   0.0000000   0.2194125   0.2264483), wk =   0.0329218
        k(   12) = (   0.0000000   0.2194125  -0.3396725), wk =   0.0164609
        k(   13) = (   0.0000000   0.3291187   0.0000000), wk =   0.0164609
        k(   14) = (   0.0000000   0.3291187   0.1132242), wk =   0.0329218
        k(   15) = (   0.0000000   0.3291187   0.2264483), wk =   0.0329218
        k(   16) = (   0.0000000   0.3291187  -0.3396725), wk =   0.0164609
        k(   17) = (   0.0000000   0.4388250   0.0000000), wk =   0.0164609
        k(   18) = (   0.0000000   0.4388250   0.1132242), wk =   0.0329218
        k(   19) = (   0.0000000   0.4388250   0.2264483), wk =   0.0329218
        k(   20) = (   0.0000000   0.4388250  -0.3396725), wk =   0.0164609
        k(   21) = (   0.1097062   0.1097062   0.0000000), wk =   0.0164609
        k(   22) = (   0.1097062   0.1097062   0.1132242), wk =   0.0329218
        k(   23) = (   0.1097062   0.1097062   0.2264483), wk =   0.0329218
        k(   24) = (   0.1097062   0.1097062  -0.3396725), wk =   0.0164609
        k(   25) = (   0.1097062   0.2194125   0.0000000), wk =   0.0329218
        k(   26) = (   0.1097062   0.2194125   0.1132242), wk =   0.0658436
        k(   27) = (   0.1097062   0.2194125   0.2264483), wk =   0.0658436
        k(   28) = (   0.1097062   0.2194125  -0.3396725), wk =   0.0329218
        k(   29) = (   0.1097062   0.3291187   0.0000000), wk =   0.0329218
        k(   30) = (   0.1097062   0.3291187   0.1132242), wk =   0.0658436
        k(   31) = (   0.1097062   0.3291187   0.2264483), wk =   0.0658436
        k(   32) = (   0.1097062   0.3291187  -0.3396725), wk =   0.0329218
        k(   33) = (   0.1097062   0.4388250   0.0000000), wk =   0.0329218
        k(   34) = (   0.1097062   0.4388250   0.1132242), wk =   0.0658436
        k(   35) = (   0.1097062   0.4388250   0.2264483), wk =   0.0658436
        k(   36) = (   0.1097062   0.4388250  -0.3396725), wk =   0.0329218
        k(   37) = (   0.2194125   0.2194125   0.0000000), wk =   0.0164609
        k(   38) = (   0.2194125   0.2194125   0.1132242), wk =   0.0329218
        k(   39) = (   0.2194125   0.2194125   0.2264483), wk =   0.0329218
        k(   40) = (   0.2194125   0.2194125  -0.3396725), wk =   0.0164609
        k(   41) = (   0.2194125   0.3291187   0.0000000), wk =   0.0329218
        k(   42) = (   0.2194125   0.3291187   0.1132242), wk =   0.0658436
        k(   43) = (   0.2194125   0.3291187   0.2264483), wk =   0.0658436
        k(   44) = (   0.2194125   0.3291187  -0.3396725), wk =   0.0329218
        k(   45) = (   0.2194125   0.4388250   0.0000000), wk =   0.0329218
        k(   46) = (   0.2194125   0.4388250   0.1132242), wk =   0.0658436
        k(   47) = (   0.2194125   0.4388250   0.2264483), wk =   0.0658436
        k(   48) = (   0.2194125   0.4388250  -0.3396725), wk =   0.0329218
        k(   49) = (   0.3291187   0.3291187   0.0000000), wk =   0.0164609
        k(   50) = (   0.3291187   0.3291187   0.1132242), wk =   0.0329218
        k(   51) = (   0.3291187   0.3291187   0.2264483), wk =   0.0329218
        k(   52) = (   0.3291187   0.3291187  -0.3396725), wk =   0.0164609
        k(   53) = (   0.3291187   0.4388250   0.0000000), wk =   0.0329218
        k(   54) = (   0.3291187   0.4388250   0.1132242), wk =   0.0658436
        k(   55) = (   0.3291187   0.4388250   0.2264483), wk =   0.0658436
        k(   56) = (   0.3291187   0.4388250  -0.3396725), wk =   0.0329218
        k(   57) = (   0.4388250   0.4388250   0.0000000), wk =   0.0164609
        k(   58) = (   0.4388250   0.4388250   0.1132242), wk =   0.0329218
        k(   59) = (   0.4388250   0.4388250   0.2264483), wk =   0.0329218
        k(   60) = (   0.4388250   0.4388250  -0.3396725), wk =   0.0164609

     Initial potential from superposition of free atoms

     starting charge  183.99828, renormalised to  184.00000
     Starting wfcs are  116 randomized atomic wfcs

     Self-consistent Calculation

[...]

     total energy              =   -3130.48794685 Ry
     Harris-Foulkes estimate   =   -3130.48794685 Ry
     estimated scf accuracy    <          1.3E-09 Ry

     iteration # 13     ecut=   120.00 Ry     beta= 0.70
     Davidson diagonalization with overlap
     ethr =  7.14E-13,  avg # of iterations =  3.0

     End of self-consistent calculation

[...]

          k = 0.4388 0.4388-0.3397 ( 31454 PWs)   bands (ev):

   -66.3439 -66.3439 -66.3439 -66.3439 -30.6823 -30.6823 -30.6801 -30.6801
   -30.6335 -30.6335 -30.6331 -30.6331 -30.5985 -30.5985 -30.5963 -30.5963
   -20.5141 -20.5141 -20.5140 -20.5140 -20.5139 -20.5139 -20.5139 -20.5139
   -20.5086 -20.5086 -20.5085 -20.5085 -20.4871 -20.4871 -20.4871 -20.4871
   -20.4766 -20.4765 -20.4765 -20.4765 -20.4726 -20.4726 -20.4725 -20.4725
   -20.4703 -20.4703 -20.4702 -20.4702  -9.4747  -9.4747  -9.4345  -9.4345
    -8.5236  -8.5236  -8.5180  -8.5179  -7.9307  -7.9307  -7.8793  -7.8792
     1.1804   1.1804   1.2914   1.2914   2.9670   2.9670   2.9761   2.9761
     3.2404   3.2404   3.2619   3.2619   4.4404   4.4404   4.6299   4.6299
     5.2008   5.2008   5.3404   5.3404   5.7566   5.7566   5.9195   5.9195
     6.2143   6.2143   6.3463   6.3464   6.6760   6.6760   6.7827   6.7827
     7.5292   7.5292   7.5364   7.5364  11.1055  11.1055  11.1625  11.1625
    12.2886  12.2886  12.3989  12.3989  13.4421  13.4421  13.5397  13.5397
    14.9023  14.9023  15.0952  15.0952  17.7925  17.7926

     the Fermi energy is     8.6057 ev

!    total energy              =   -3130.48794685 Ry
     Harris-Foulkes estimate   =   -3130.48794685 Ry
     estimated scf accuracy    <          2.0E-11 Ry

     The total energy is the sum of the following terms:

     one-electron contribution =   -2383.65825587 Ry
     hartree contribution      =    1309.31821319 Ry
     xc contribution           =    -482.86567894 Ry
     ewald contribution        =   -1573.28222524 Ry
     smearing contrib. (-TS)   =      -0.00000000 Ry

     convergence has been achieved in  13 iterations

     Forces acting on atoms (cartesian axes, Ry/au):

     atom    1 type  1   force =     0.00000000    0.00000000   -0.02274217
     atom    2 type  1   force =     0.00000000    0.00000000    0.02274217
     atom    3 type  1   force =     0.00000000    0.00000000    0.02274217
     atom    4 type  1   force =     0.00000000    0.00000000   -0.02274217
     atom    5 type  2   force =     0.00000000    0.00000000    0.10855306
     atom    6 type  2   force =     0.00000000    0.00000000   -0.10855306
     atom    7 type  2   force =     0.00000000    0.00000000   -0.10855306
     atom    8 type  2   force =     0.00000000    0.00000000    0.10855306
     atom    9 type  2   force =     0.00076854   -0.00076854    0.00000000
     atom   10 type  2   force =    -0.00076854    0.00076854    0.00000000
     atom   11 type  2   force =    -0.00076854    0.00076854    0.00000000
     atom   12 type  2   force =     0.00076854   -0.00076854    0.00000000
     atom   13 type  2   force =     0.00076854    0.00076854    0.00000000
     atom   14 type  2   force =    -0.00076854   -0.00076854    0.00000000
     atom   15 type  2   force =    -0.00076854   -0.00076854    0.00000000
     atom   16 type  2   force =     0.00076854    0.00076854    0.00000000

     Total force =     0.000000     Total SCF correction =     0.000000

     Computing stress (Cartesian axis) and pressure

          total   stress  (Ry/bohr**3)                   (kbar)     P=    0.50
   0.00000545   0.00000000   0.00000000          0.80      0.00      0.00
   0.00000000   0.00000545   0.00000000          0.00      0.80      0.00
   0.00000000   0.00000000  -0.00000066          0.00      0.00     -0.10

     Writing output data file Landau_34.save/

     General routines

     Parallel routines

   This run was terminated on:  18:47:28  21Nov2019

   JOB DONE.