     Program PWSCF v.6.2 (svn rev. 14038) starts on 30Apr2019 at 22:44:15

     K-points division:     npool     =      32
     Reading input from rscf.in

     Current dimensions of program PWSCF are:
     Max number of different atomic species (ntypx) = 10
     Max number of k-points (npk) =  40000
     Max angular momentum in pseudopotentials (lmaxx) =  3

     Subspace diagonalization in iterative solution of the eigenvalue problem:
     a serial algorithm will be used

     bravais-lattice index     =            0
     lattice parameter (alat)  =      13.8397  a.u.
     unit-cell volume          =    2804.9816 (a.u.)^3
     number of atoms/cell      =           32
     number of atomic types    =            2
     number of electrons       =       368.00
     number of Kohn-Sham states=          221
     kinetic-energy cutoff     =     120.0000  Ry
     charge density cutoff     =     480.0000  Ry
     convergence threshold     =      1.0E-08
     mixing beta               =       0.7000
     number of iterations used =            8  plain     mixing
     Exchange-correlation      = SLA PW NOGX NOGC ( 1  4  0  0 0 0)
     nstep                     =           50

     celldm(1)=  13.839685  celldm(2)=   0.000000  celldm(3)=   0.000000
     celldm(4)=   0.000000  celldm(5)=   0.000000  celldm(6)=   0.000000

     crystal axes: (cart. coord. in units of alat)
               a(1) = (   1.000000   0.000000   0.000000 )
               a(2) = (   0.000000   1.058160   0.000000 )
               a(3) = (   0.000000   0.000000   1.000000 )

     reciprocal axes: (cart. coord. in units 2 pi/alat)
               b(1) = (  1.000000  0.000000  0.000000 )
               b(2) = (  0.000000  0.945037  0.000000 )
               b(3) = (  0.000000  0.000000  1.000000 )

     PseudoPot. # 1 for W  read from file:
     /cluster/scratch/mnoe/QE/pps/W_ONCV_LDA-4.0.upf
     MD5 check sum: ba0307d5d4cd419d6f1d13dc49d7c13a
     Pseudo is Norm-conserving + core correction, Zval = 28.0
     Generated using ONCVPSP code by D. R. Hamann
     Using radial grid of 1380 points,  8 beta functions with:
                l(1) =   0
                l(2) =   0
                l(3) =   1
                l(4) =   1
                l(5) =   2
                l(6) =   2
                l(7) =   3
                l(8) =   3

     PseudoPot. # 2 for O  read from file:
     /cluster/scratch/mnoe/QE/pps/O_ONCV_LDA-3.0.upf
     MD5 check sum: a1bd6164e7280c17a38c229939bfbd54
     Pseudo is Norm-conserving + core correction, Zval =  6.0
     Generated using ONCVPSP code by D. R. Hamann
     Using radial grid of  926 points,  5 beta functions with:
                l(1) =   0
                l(2) =   0
                l(3) =   1
                l(4) =   1
                l(5) =   2

     atomic species   valence    mass     pseudopotential
        W             28.00   183.84000     W ( 1.00)
        O              6.00    15.99940     O ( 1.00)

      8 Sym. Ops. (no inversion) found ( 4 have fractional translation)

   Cartesian axes

     site n.     atom                  positions (alat units)
         1           W   tau(   1) = (   0.2625900   0.2982530   0.2503500  )
         2           W   tau(   2) = (  -0.2503500   0.7599071  -0.7374100  )
         3           W   tau(   3) = (   0.2374100   0.2308271   0.7503500  )
         4           W   tau(   4) = (   0.7503500   0.8273330   0.7625900  )
         5           W   tau(   5) = (   0.7374100   0.2982530   0.7496500  )
         6           W   tau(   6) = (   0.2503500   0.7599071   0.7374100  )
         7           W   tau(   7) = (  -0.2374100   0.2308271  -0.7503500  )
         8           W   tau(   8) = (   0.2496500   0.8273330   0.2374100  )
         9           O   tau(   9) = (   0.2638400   0.0088039   0.2600400  )
        10           O   tau(  10) = (  -0.2600400   1.0493562  -0.7361599  )
        11           O   tau(  11) = (   0.2361600   0.5202761   0.7600400  )
        12           O   tau(  12) = (   0.7600400   0.5378839   0.7638400  )
        13           O   tau(  13) = (   0.7361600   0.0088039   0.7399600  )
        14           O   tau(  14) = (   0.2600400   1.0493562   0.7361600  )
        15           O   tau(  15) = (  -0.2361599   0.5202761  -0.7600400  )
        16           O   tau(  16) = (   0.2399600   0.5378839   0.2361600  )
        17           O   tau(  17) = (   0.4955500   0.2803384   0.6995400  )
        18           O   tau(  18) = (   0.4990900   0.7834934   0.8004600  )
        19           O   tau(  19) = (  -0.9955499   0.2487417   1.1995400  )
        20           O   tau(  20) = (   0.0009101   0.8037466   0.3004600  )
        21           O   tau(  21) = (   0.5044500   0.2803384   0.3004600  )
        22           O   tau(  22) = (   0.5009100   0.7834934   1.1995400  )
        23           O   tau(  23) = (  -0.0044500   0.2487417   0.8004600  )
        24           O   tau(  24) = (  -1.0009100   0.8037466   0.6995400  )
        25           O   tau(  25) = (   0.6995400   0.2544134   2.0009100  )
        26           O   tau(  26) = (   0.3004600   0.7778216   0.4955500  )
        27           O   tau(  27) = (   0.8004600   0.2746666   0.5009100  )
        28           O   tau(  28) = (   0.1995400   0.8094183   1.9955500  )
        29           O   tau(  29) = (   0.3004600   0.2544134   0.9990900  )
        30           O   tau(  30) = (   0.6995400   0.7778216   0.5044501  )
        31           O   tau(  31) = (   0.1995400   0.2746666   0.4990900  )
        32           O   tau(  32) = (   0.8004600   0.8094183   1.0044500  )

     number of k points=    40  gaussian smearing, width (Ry)=  0.0007
                       cart. coord. in units 2pi/alat
        k(    1) = (   0.0000000   0.0000000   0.0000000), wk =   0.0092593
        k(    2) = (   0.0000000   0.0000000   0.1666667), wk =   0.0370370
        k(    3) = (   0.0000000   0.0000000   0.3333333), wk =   0.0370370
        k(    4) = (   0.0000000   0.0000000  -0.5000000), wk =   0.0185185
        k(    5) = (   0.0000000   0.1575061   0.0000000), wk =   0.0185185
        k(    6) = (   0.0000000   0.1575061   0.1666667), wk =   0.0740741
        k(    7) = (   0.0000000   0.1575061   0.3333333), wk =   0.0740741
        k(    8) = (   0.0000000   0.1575061  -0.5000000), wk =   0.0370370
        k(    9) = (   0.0000000   0.3150122   0.0000000), wk =   0.0185185
        k(   10) = (   0.0000000   0.3150122   0.1666667), wk =   0.0740741
        k(   11) = (   0.0000000   0.3150122   0.3333333), wk =   0.0740741
        k(   12) = (   0.0000000   0.3150122  -0.5000000), wk =   0.0370370
        k(   13) = (   0.0000000  -0.4725183   0.0000000), wk =   0.0092593
        k(   14) = (   0.0000000  -0.4725183   0.1666667), wk =   0.0370370
        k(   15) = (   0.0000000  -0.4725183   0.3333333), wk =   0.0370370
        k(   16) = (   0.0000000  -0.4725183  -0.5000000), wk =   0.0185185
        k(   17) = (   0.1666667   0.0000000   0.1666667), wk =   0.0370370
        k(   18) = (   0.1666667   0.0000000   0.3333333), wk =   0.0740741
        k(   19) = (   0.1666667   0.0000000  -0.5000000), wk =   0.0370370
        k(   20) = (   0.1666667   0.1575061   0.1666667), wk =   0.0740741
        k(   21) = (   0.1666667   0.1575061   0.3333333), wk =   0.1481481
        k(   22) = (   0.1666667   0.1575061  -0.5000000), wk =   0.0740741
        k(   23) = (   0.1666667   0.3150122   0.1666667), wk =   0.0740741
        k(   24) = (   0.1666667   0.3150122   0.3333333), wk =   0.1481481
        k(   25) = (   0.1666667   0.3150122  -0.5000000), wk =   0.0740741
        k(   26) = (   0.1666667  -0.4725183   0.1666667), wk =   0.0370370
        k(   27) = (   0.1666667  -0.4725183   0.3333333), wk =   0.0740741
        k(   28) = (   0.1666667  -0.4725183  -0.5000000), wk =   0.0370370
        k(   29) = (   0.3333333   0.0000000   0.3333333), wk =   0.0370370
        k(   30) = (   0.3333333   0.0000000  -0.5000000), wk =   0.0370370
        k(   31) = (   0.3333333   0.1575061   0.3333333), wk =   0.0740741
        k(   32) = (   0.3333333   0.1575061  -0.5000000), wk =   0.0740741
        k(   33) = (   0.3333333   0.3150122   0.3333333), wk =   0.0740741
        k(   34) = (   0.3333333   0.3150122  -0.5000000), wk =   0.0740741
        k(   35) = (   0.3333333  -0.4725183   0.3333333), wk =   0.0370370
        k(   36) = (   0.3333333  -0.4725183  -0.5000000), wk =   0.0370370
        k(   37) = (  -0.5000000   0.0000000  -0.5000000), wk =   0.0092593
        k(   38) = (  -0.5000000   0.1575061  -0.5000000), wk =   0.0185185
        k(   39) = (  -0.5000000   0.3150122  -0.5000000), wk =   0.0185185
        k(   40) = (  -0.5000000  -0.4725183  -0.5000000), wk =   0.0092593

     Initial potential from superposition of free atoms

     starting charge  367.99656, renormalised to  368.00000
     Starting wfc are  232 randomized atomic wfcs

     Self-consistent Calculation

     iteration #  1     ecut=   120.00 Ry     beta= 0.70
     Davidson diagonalization with overlap
     ethr =  1.00E-02,  avg # of iterations =  5.0

     total energy              =   -6253.96609944 Ry
     Harris-Foulkes estimate   =   -6264.57637680 Ry
     estimated scf accuracy    <      13.43083536 Ry

[...]

     End of self-consistent calculation

          k = 0.0000 0.0000 0.0000 ( 62239 PWs)   bands (ev):

   -66.1730 -66.1726 -66.1720 -66.1720 -66.1716 -66.1716 -66.1710 -66.1706
   -30.5606 -30.5518 -30.5518 -30.5501 -30.5355 -30.5288 -30.5288 -30.5250
   -30.5069 -30.5055 -30.5026 -30.5026 -30.4828 -30.4790 -30.4790 -30.4760
   -30.4396 -30.4391 -30.4390 -30.4344 -30.4085 -30.4084 -30.4041 -30.4029
   -20.3361 -20.3360 -20.3359 -20.3359 -20.3357 -20.3357 -20.3356 -20.3355
   -20.3169 -20.3167 -20.3163 -20.3163 -20.3161 -20.3161 -20.3158 -20.3156
   -20.3152 -20.3147 -20.3147 -20.3142 -20.3125 -20.3116 -20.3116 -20.3111
   -20.3106 -20.3100 -20.3100 -20.3094 -20.3081 -20.3077 -20.3076 -20.3073
   -20.3042 -20.3038 -20.3036 -20.3036 -20.3011 -20.3010 -20.3008 -20.3008
   -20.2970 -20.2966 -20.2966 -20.2964 -20.2960 -20.2959 -20.2951 -20.2951
   -20.2946 -20.2944 -20.2942 -20.2942 -20.2911 -20.2911 -20.2908 -20.2905
    -9.9456  -9.6862  -9.4909  -9.4909  -9.2415  -9.2415  -9.0484  -9.0377
    -8.9891  -8.8162  -8.7972  -8.7972  -7.8818  -7.8361  -7.7842  -7.7677
    -7.7652  -7.7652  -7.7554  -7.6983  -7.6771  -7.6771  -7.6110  -7.6110
     1.1995   1.2031   1.2753   1.2753   1.3307   1.3307   1.4433   1.6461
     1.7153   1.7153   1.7230   1.8918   2.3630   2.4409   2.5976   2.6387
     2.7683   2.7683   4.1437   4.1437   4.3596   4.3653   4.7896   4.7896
     4.8094   4.8250   4.8250   4.9120   5.1118   5.1118   5.1470   5.4739
     5.4798   5.5121   5.5121   5.5633   5.5633   5.6510   5.6510   5.8547
     5.8547   5.8755   5.8769   5.8872   5.9504   5.9671   5.9746   6.0862
     6.1008   6.2566   6.2727   6.5424   6.5424   6.7930   6.8512   6.8512
     6.8749   6.8791   6.9554   7.0117   7.0480   7.0480   7.2773   7.2773
     7.4091   7.4091   7.7377   7.7533   8.0551   8.0551   8.0914   8.1497
     9.3754   9.3814  10.0330  10.0447  10.0679  10.0679  12.2181  12.2181
[...]
W        0.237409980   0.218140012   0.750349960    0   0   0
W        0.750349974   0.781859972   0.762589988    0   0   0
W        0.737410026   0.281860003   0.749650008    0   0   0
W        0.250349960   0.718139997   0.737409980    0   0   0
W       -0.237410028   0.218140012  -0.750349976    0   0   0
W        0.249650008   0.781859972   0.237410026    0   0   0
O        0.263840006   0.008320000   0.260040025    0   0   0
O       -0.260039995   0.991680023  -0.736159945    0   0   0
O        0.236159962   0.491679992   0.760039978    0   0   0
O        0.760040025   0.508319977   0.763840006    0   0   0
O        0.736159975   0.008320000   0.739959990    0   0   0
O        0.260039978   0.991680023   0.736159962    0   0   0
O       -0.236159945   0.491679992  -0.760039995    0   0   0
O        0.239959990   0.508319977   0.236159975    0   0   0
O        0.495549960   0.264930001   0.699540004    0   0   0
O        0.499090028   0.740429917   0.800459963    0   0   0
O       -0.995549927   0.235069999   1.199540037    0   0   0
O        0.000910051   0.759569932   0.300460012    0   0   0
O        0.504450040   0.264930001   0.300460012    0   0   0
O        0.500909972   0.740429917   1.199540037    0   0   0
O       -0.004450026   0.235069999   0.800459963    0   0   0
O       -1.000910004   0.759569932   0.699540004    0   0   0
O        0.699540037   0.240429993   2.000910004    0   0   0
O        0.300459996   0.735069893   0.495549960    0   0   0
O        0.800459963   0.259570007   0.500910037    0   0   0
O        0.199540020   0.764929956   1.995549992    0   0   0
O        0.300459996   0.240429993   0.999090014    0   0   0
O        0.699540037   0.735069893   0.504450105    0   0   0
O        0.199540020   0.259570007   0.499090028    0   0   0
O        0.800459963   0.764929956   1.004450026    0   0   0
End final coordinates

     A final scf calculation at the relaxed structure.
     The G-vectors are recalculated for the final unit cell
     Results may differ from those at the preceding step.

     bravais-lattice index     =            0
     lattice parameter (alat)  =      13.8397  a.u.
     unit-cell volume          =    2795.0080 (a.u.)^3
     number of atoms/cell      =           32
     number of atomic types    =            2
     number of electrons       =       368.00
     number of Kohn-Sham states=          221
     kinetic-energy cutoff     =     120.0000  Ry
     charge density cutoff     =     480.0000  Ry
     convergence threshold     =      1.0E-10
     mixing beta               =       0.7000
     number of iterations used =            8  plain     mixing
     Exchange-correlation      = SLA PW NOGX NOGC ( 1  4  0  0 0 0)

     celldm(1)=  13.839685  celldm(2)=   0.000000  celldm(3)=   0.000000
     celldm(4)=   0.000000  celldm(5)=   0.000000  celldm(6)=   0.000000

     crystal axes: (cart. coord. in units of alat)
               a(1) = (   1.000595   0.000000   0.000000 )
               a(2) = (   0.000000   1.053144   0.000000 )
               a(3) = (   0.000000   0.000000   1.000595 )

     reciprocal axes: (cart. coord. in units 2 pi/alat)
               b(1) = (  0.999406  0.000000  0.000000 )
               b(2) = (  0.000000  0.949537  0.000000 )
               b(3) = (  0.000000  0.000000  0.999406 )

     PseudoPot. # 1 for W  read from file:
     /cluster/scratch/mnoe/QE/pps/W_ONCV_LDA-4.0.upf
     MD5 check sum: ba0307d5d4cd419d6f1d13dc49d7c13a
     Pseudo is Norm-conserving + core correction, Zval = 28.0
     Generated using ONCVPSP code by D. R. Hamann
     Using radial grid of 1380 points,  8 beta functions with:
                l(1) =   0
                l(2) =   0
                l(3) =   1
                l(4) =   1
                l(5) =   2
                l(6) =   2
                l(7) =   3
                l(8) =   3

     PseudoPot. # 2 for O  read from file:
     /cluster/scratch/mnoe/QE/pps/O_ONCV_LDA-3.0.upf
     MD5 check sum: a1bd6164e7280c17a38c229939bfbd54
     Pseudo is Norm-conserving + core correction, Zval =  6.0
     Generated using ONCVPSP code by D. R. Hamann
     Using radial grid of  926 points,  5 beta functions with:
                l(1) =   0
                l(2) =   0
                l(3) =   1
                l(4) =   1
                l(5) =   2

     atomic species   valence    mass     pseudopotential
        W             28.00   183.84000     W ( 1.00)
        O              6.00    15.99940     O ( 1.00)

      8 Sym. Ops. (no inversion) found ( 4 have fractional translation)

   Cartesian axes

     site n.     atom                  positions (alat units)
         1           W   tau(   1) = (   0.2627462   0.2968393   0.2504989  )
         2           W   tau(   2) = (  -0.2504989   0.7563051  -0.7378486  )
         3           W   tau(   3) = (   0.2375512   0.2297329   0.7507963  )
         4           W   tau(   4) = (   0.7507963   0.8234114   0.7630436  )
         5           W   tau(   5) = (   0.7378486   0.2968393   0.7500959  )
         6           W   tau(   6) = (   0.2504989   0.7563051   0.7378486  )
         7           W   tau(   7) = (  -0.2375512   0.2297329  -0.7507963  )
         8           W   tau(   8) = (   0.2497985   0.8234114   0.2375512  )
         9           O   tau(   9) = (   0.2639969   0.0087622   0.2601947  )
        10           O   tau(  10) = (  -0.2601947   1.0443822  -0.7365978  )
        11           O   tau(  11) = (   0.2363004   0.5178100   0.7604921  )
        12           O   tau(  12) = (   0.7604921   0.5353343   0.7642943  )
        13           O   tau(  13) = (   0.7365978   0.0087622   0.7404001  )
        14           O   tau(  14) = (   0.2601947   1.0443822   0.7365978  )
        15           O   tau(  15) = (  -0.2363004   0.5178100  -0.7604921  )
        16           O   tau(  16) = (   0.2401027   0.5353343   0.2363004  )
        17           O   tau(  17) = (   0.4958447   0.2790095   0.6999561  )
        18           O   tau(  18) = (   0.4993869   0.7797796   0.8009361  )
        19           O   tau(  19) = (  -0.9961421   0.2475626   1.2002535  )
        20           O   tau(  20) = (   0.0009106   0.7999368   0.3006387  )
        21           O   tau(  21) = (   0.5047501   0.2790095   0.3006387  )
        22           O   tau(  22) = (   0.5012079   0.7797796   1.2002535  )
        23           O   tau(  23) = (  -0.0044527   0.2475626   0.8009361  )
        24           O   tau(  24) = (  -1.0015053   0.7999368   0.6999561  )
        25           O   tau(  25) = (   0.6999561   0.2532075   2.0021001  )
        26           O   tau(  26) = (   0.3006387   0.7741347   0.4958447  )
        27           O   tau(  27) = (   0.8009361   0.2733647   0.5012080  )
        28           O   tau(  28) = (   0.1996587   0.8055817   1.9967369  )
        29           O   tau(  29) = (   0.3006387   0.2532075   0.9996843  )
        30           O   tau(  30) = (   0.6999561   0.7741347   0.5047502  )
        31           O   tau(  31) = (   0.1996587   0.2733647   0.4993869  )
        32           O   tau(  32) = (   0.8009361   0.8055817   1.0050475  )

     number of k points=    40  gaussian smearing, width (Ry)=  0.0007
                       cart. coord. in units 2pi/alat
        k(    1) = (   0.0000000   0.0000000   0.0000000), wk =   0.0092593
        k(    2) = (   0.0000000   0.0000000   0.1665676), wk =   0.0370370
        k(    3) = (   0.0000000   0.0000000   0.3331352), wk =   0.0370370
        k(    4) = (   0.0000000   0.0000000  -0.4997028), wk =   0.0185185
        k(    5) = (   0.0000000   0.1582562   0.0000000), wk =   0.0185185
        k(    6) = (   0.0000000   0.1582562   0.1665676), wk =   0.0740741
        k(    7) = (   0.0000000   0.1582562   0.3331352), wk =   0.0740741
        k(    8) = (   0.0000000   0.1582562  -0.4997028), wk =   0.0370370
        k(    9) = (   0.0000000   0.3165125   0.0000000), wk =   0.0185185
        k(   10) = (   0.0000000   0.3165125   0.1665676), wk =   0.0740741
        k(   11) = (   0.0000000   0.3165125   0.3331352), wk =   0.0740741
        k(   12) = (   0.0000000   0.3165125  -0.4997028), wk =   0.0370370
        k(   13) = (   0.0000000  -0.4747687   0.0000000), wk =   0.0092593
        k(   14) = (   0.0000000  -0.4747687   0.1665676), wk =   0.0370370
        k(   15) = (   0.0000000  -0.4747687   0.3331352), wk =   0.0370370
        k(   16) = (   0.0000000  -0.4747687  -0.4997028), wk =   0.0185185
        k(   17) = (   0.1665676   0.0000000   0.1665676), wk =   0.0370370
        k(   18) = (   0.1665676   0.0000000   0.3331352), wk =   0.0740741
        k(   19) = (   0.1665676   0.0000000  -0.4997028), wk =   0.0370370
        k(   20) = (   0.1665676   0.1582562   0.1665676), wk =   0.0740741
        k(   21) = (   0.1665676   0.1582562   0.3331352), wk =   0.1481481
        k(   22) = (   0.1665676   0.1582562  -0.4997028), wk =   0.0740741
        k(   23) = (   0.1665676   0.3165125   0.1665676), wk =   0.0740741
        k(   24) = (   0.1665676   0.3165125   0.3331352), wk =   0.1481481
        k(   25) = (   0.1665676   0.3165125  -0.4997028), wk =   0.0740741
        k(   26) = (   0.1665676  -0.4747687   0.1665676), wk =   0.0370370
        k(   27) = (   0.1665676  -0.4747687   0.3331352), wk =   0.0740741
        k(   28) = (   0.1665676  -0.4747687  -0.4997028), wk =   0.0370370
        k(   29) = (   0.3331352   0.0000000   0.3331352), wk =   0.0370370
        k(   30) = (   0.3331352   0.0000000  -0.4997028), wk =   0.0370370
        k(   31) = (   0.3331352   0.1582562   0.3331352), wk =   0.0740741
        k(   32) = (   0.3331352   0.1582562  -0.4997028), wk =   0.0740741
        k(   33) = (   0.3331352   0.3165125   0.3331352), wk =   0.0740741
        k(   34) = (   0.3331352   0.3165125  -0.4997028), wk =   0.0740741
        k(   35) = (   0.3331352  -0.4747687   0.3331352), wk =   0.0370370
        k(   36) = (   0.3331352  -0.4747687  -0.4997028), wk =   0.0370370
        k(   37) = (  -0.4997028   0.0000000  -0.4997028), wk =   0.0092593
        k(   38) = (  -0.4997028   0.1582562  -0.4997028), wk =   0.0185185
        k(   39) = (  -0.4997028   0.3165125  -0.4997028), wk =   0.0185185
        k(   40) = (  -0.4997028  -0.4747687  -0.4997028), wk =   0.0092593

     Initial potential from superposition of free atoms

     starting charge  367.99656, renormalised to  368.00000
     Starting wfc are  232 randomized atomic wfcs

     Writing output data file Landau_14.save

     Self-consistent Calculation

[...]

     total energy              =   -6261.11044212 Ry
     Harris-Foulkes estimate   =   -6261.11044212 Ry
     estimated scf accuracy    <          5.5E-10 Ry

     iteration # 14     ecut=   120.00 Ry     beta= 0.70
     Davidson diagonalization with overlap
     ethr =  1.49E-13,  avg # of iterations =  3.0

     End of self-consistent calculation

[...]

          k = 0.3331-0.4748-0.4997 ( 61960 PWs)   bands (ev):

[...]

          k =-0.4997-0.4748-0.4997 ( 62024 PWs)   bands (ev):

   -66.1025 -66.1025 -66.1025 -66.1025 -66.1025 -66.1025 -66.1025 -66.1025
   -30.4695 -30.4695 -30.4685 -30.4685 -30.4685 -30.4685 -30.4682 -30.4682
   -30.4157 -30.4157 -30.4157 -30.4157 -30.4157 -30.4157 -30.4146 -30.4146
   -30.3835 -30.3835 -30.3833 -30.3833 -30.3832 -30.3832 -30.3832 -30.3832
   -20.2632 -20.2632 -20.2632 -20.2632 -20.2632 -20.2632 -20.2632 -20.2632
   -20.2437 -20.2437 -20.2437 -20.2437 -20.2437 -20.2436 -20.2436 -20.2436
   -20.2405 -20.2405 -20.2405 -20.2405 -20.2405 -20.2404 -20.2403 -20.2403
   -20.2366 -20.2366 -20.2366 -20.2366 -20.2366 -20.2366 -20.2366 -20.2366
   -20.2278 -20.2278 -20.2277 -20.2277 -20.2277 -20.2277 -20.2277 -20.2276
   -20.2249 -20.2249 -20.2249 -20.2249 -20.2248 -20.2248 -20.2248 -20.2248
   -20.2201 -20.2201 -20.2201 -20.2201 -20.2201 -20.2200 -20.2200 -20.2200
    -8.9032  -8.9031  -8.8779  -8.8778  -8.8752  -8.8752  -8.8752  -8.8752
    -8.3855  -8.3855  -8.3511  -8.3511  -8.3511  -8.3510  -8.3461  -8.3461
    -8.2839  -8.2839  -8.2838  -8.2838  -8.2636  -8.2635  -8.2423  -8.2422
     2.9977   2.9977   2.9990   2.9990   2.9990   2.9990   3.0182   3.0182
     3.2347   3.2347   3.2378   3.2379   3.2379   3.2379   3.2649   3.2649
     3.3795   3.3795   3.5157   3.5157   3.5157   3.5157   3.5789   3.5789
     4.1822   4.1823   4.2061   4.2061   4.2141   4.2141   4.2141   4.2141
     4.4222   4.4222   4.4222   4.4222   4.4379   4.4379   4.4676   4.4676
     4.5420   4.5420   4.5564   4.5564   4.5702   4.5702   4.5702   4.5702
     7.1316   7.1316   7.2320   7.2320   7.2320   7.2320   7.3551   7.3551
     7.4056   7.4056   7.4056   7.4056   7.4079   7.4079   7.4168   7.4168
     7.6134   7.6134   7.6391   7.6391   7.6391   7.6391   7.6840   7.6840
    11.8900  11.8900  11.8900  11.8900  11.8913  11.8913  11.9006  11.9006
    12.2487  12.2487  12.3233  12.3234  12.3234  12.3234  12.4569  12.4569
    12.5551  12.5551  12.6216  12.6216  12.6216  12.6216  12.6478  12.6478
    17.1571  17.1571  17.1854  17.1854  17.1855  17.1855  17.2147  17.2147
    17.4027  17.4027  17.4027  17.4027  17.4620

     the Fermi energy is     8.9915 ev

!    total energy              =   -6261.11044212 Ry
     Harris-Foulkes estimate   =   -6261.11044212 Ry
     estimated scf accuracy    <          8.1E-11 Ry

     The total energy is the sum of the following terms:

     one-electron contribution =   -4702.96432146 Ry
     hartree contribution      =    2589.04692397 Ry
     xc contribution           =    -965.66523673 Ry
     ewald contribution        =   -3181.52780789 Ry
     smearing contrib. (-TS)   =      -0.00000000 Ry

     convergence has been achieved in  14 iterations

     Forces acting on atoms (cartesian axes, Ry/au):

     atom    1 type  1   force =    -0.00310268   -0.00304914   -0.00040716
     atom    2 type  1   force =     0.00040716    0.00304914   -0.00310268
     atom    3 type  1   force =     0.00310268    0.00304914   -0.00040716
     atom    4 type  1   force =    -0.00040716   -0.00304914   -0.00310268
     atom    5 type  1   force =     0.00310268   -0.00304914    0.00040716
     atom    6 type  1   force =    -0.00040716    0.00304914    0.00310268
     atom    7 type  1   force =    -0.00310268    0.00304914    0.00040716
     atom    8 type  1   force =     0.00040716   -0.00304914    0.00310268
     atom    9 type  2   force =     0.00084668    0.00161819   -0.00027960
     atom   10 type  2   force =     0.00027960   -0.00161819    0.00084668
     atom   11 type  2   force =    -0.00084668   -0.00161819   -0.00027960
     atom   12 type  2   force =    -0.00027960    0.00161819    0.00084668
     atom   13 type  2   force =    -0.00084668    0.00161819    0.00027960
     atom   14 type  2   force =    -0.00027960   -0.00161819   -0.00084668
     atom   15 type  2   force =     0.00084668   -0.00161819    0.00027960
     atom   16 type  2   force =     0.00027960    0.00161819   -0.00084668
     atom   17 type  2   force =    -0.00264094    0.00089215    0.00021845
     atom   18 type  2   force =    -0.00032134    0.00166350   -0.00105363
     atom   19 type  2   force =     0.00264094   -0.00089215    0.00021845
     atom   20 type  2   force =     0.00032134   -0.00166350   -0.00105363
     atom   21 type  2   force =     0.00264094    0.00089215   -0.00021845
     atom   22 type  2   force =     0.00032134    0.00166350    0.00105363
     atom   23 type  2   force =    -0.00264094   -0.00089215   -0.00021845
     atom   24 type  2   force =    -0.00032134   -0.00166350    0.00105363
     atom   25 type  2   force =     0.00105363    0.00166350    0.00032134
     atom   26 type  2   force =    -0.00021845   -0.00089215   -0.00264094
     atom   27 type  2   force =    -0.00105363   -0.00166350    0.00032134
     atom   28 type  2   force =     0.00021845    0.00089215   -0.00264094
     atom   29 type  2   force =    -0.00105363    0.00166350   -0.00032134
     atom   30 type  2   force =     0.00021845   -0.00089215    0.00264094
     atom   31 type  2   force =     0.00105363   -0.00166350   -0.00032134
     atom   32 type  2   force =    -0.00021845    0.00089215    0.00264094

     Total force =     0.000000     Total SCF correction =     0.000000

     Computing stress (Cartesian axis) and pressure

          total   stress  (Ry/bohr**3)                   (kbar)     P=   -0.07
  -0.00000021   0.00000000   0.00000000         -0.03      0.00      0.00
   0.00000000  -0.00000102   0.00000000          0.00     -0.15      0.00
   0.00000000   0.00000000  -0.00000021          0.00      0.00     -0.03

     Writing output data file Landau_14.save

     General routines

     Parallel routines

   This run was terminated on:   1:34: 4   1May2019

   JOB DONE.