     Program PWSCF v.6.2 (svn rev. 14038) starts on 25Mar2020 at 21:26: 8

     K-points division:     npool     =      40
     Reading input from scf.in

     Current dimensions of program PWSCF are:
     Max number of different atomic species (ntypx) = 10
     Max number of k-points (npk) =  40000
     Max angular momentum in pseudopotentials (lmaxx) =  3

     Subspace diagonalization in iterative solution of the eigenvalue problem:
     a serial algorithm will be used

     bravais-lattice index     =            0
     lattice parameter (alat)  =      14.0006  a.u.
     unit-cell volume          =    2845.7813 (a.u.)^3
     number of atoms/cell      =           32
     number of atomic types    =            2
     number of electrons       =       368.60
     number of Kohn-Sham states=          221
     kinetic-energy cutoff     =     120.0000  Ry
     charge density cutoff     =     480.0000  Ry
     convergence threshold     =      1.0E-08
     mixing beta               =       0.7000
     number of iterations used =            8  plain     mixing
     Exchange-correlation      = SLA PW NOGX NOGC ( 1  4  0  0 0 0)

     celldm(1)=  14.000629  celldm(2)=   0.000000  celldm(3)=   0.000000
     celldm(4)=   0.000000  celldm(5)=   0.000000  celldm(6)=   0.000000

     crystal axes: (cart. coord. in units of alat)
               a(1) = (   1.000000   0.000000   0.000000 )
               a(2) = (   0.000000   1.036768   0.000000 )
               a(3) = (   0.000000   0.000000   1.000178 )

     reciprocal axes: (cart. coord. in units 2 pi/alat)
               b(1) = (  1.000000  0.000000  0.000000 )
               b(2) = (  0.000000  0.964536  0.000000 )
               b(3) = (  0.000000  0.000000  0.999822 )

     PseudoPot. # 1 for W  read from file:
     /cluster/scratch/mnoe/QE/pps/W_ONCV_LDA-4.0.upf
     MD5 check sum: ba0307d5d4cd419d6f1d13dc49d7c13a
     Pseudo is Norm-conserving + core correction, Zval = 28.0
     Generated using ONCVPSP code by D. R. Hamann
     Using radial grid of 1380 points,  8 beta functions with:
                l(1) =   0
                l(2) =   0
                l(3) =   1
                l(4) =   1
                l(5) =   2
                l(6) =   2
                l(7) =   3
                l(8) =   3

     PseudoPot. # 2 for O  read from file:
     /cluster/scratch/mnoe/QE/pps/O_ONCV_LDA-3.0.upf
     MD5 check sum: a1bd6164e7280c17a38c229939bfbd54
     Pseudo is Norm-conserving + core correction, Zval =  6.0
     Generated using ONCVPSP code by D. R. Hamann
     Using radial grid of  926 points,  5 beta functions with:
                l(1) =   0
                l(2) =   0
                l(3) =   1
                l(4) =   1
                l(5) =   2

     atomic species   valence    mass     pseudopotential
        W             28.00   183.84000     W ( 1.00)
        O              6.00    15.99940     O ( 1.00)

      4 Sym. Ops. (no inversion) found ( 3 have fractional translation)

   Cartesian axes

     site n.     atom                  positions (alat units)
         1           W   tau(   1) = (   0.2457471   0.2865990   0.0019767  )
         2           W   tau(   2) = (   0.7522165   0.7501693  -0.0041336  )
         3           W   tau(   3) = (   0.2542529   0.2317852   0.5020656  )
         4           W   tau(   4) = (   0.7477835   0.8049832   0.4959553  )
         5           W   tau(   5) = (   0.7542529   0.2865990   0.4981121  )
         6           W   tau(   6) = (   0.2477835   0.7501693   0.5042224  )
         7           W   tau(   7) = (   0.7457471   0.2317852  -0.0019767  )
         8           W   tau(   8) = (   0.2522165   0.8049832   0.0041336  )
         9           O   tau(   9) = (   0.2437159   0.0070936  -0.0010399  )
        10           O   tau(  10) = (   0.7556511  -0.0070937  -0.0029391  )
        11           O   tau(  11) = (   0.2562841   0.5112905   0.4990489  )
        12           O   tau(  12) = (   0.7443489   0.5254778   0.4971497  )
        13           O   tau(  13) = (   0.7562840   0.0070936   0.5011288  )
        14           O   tau(  14) = (   0.2443489  -0.0070937   0.5030280  )
        15           O   tau(  15) = (   0.7437159   0.5112905   0.0010399  )
        16           O   tau(  16) = (   0.2556511   0.5254778   0.0029391  )
        17           O   tau(  17) = (   0.5013318   0.2523839   0.4628875  )
        18           O   tau(  18) = (   0.4995623   0.7834611   0.5372903  )
        19           O   tau(  19) = (  -0.0013318   0.2660003   0.9629764  )
        20           O   tau(  20) = (   0.0004377   0.7716914   0.0372013  )
        21           O   tau(  21) = (   0.4986682   0.2523839   0.0372013  )
        22           O   tau(  22) = (   0.5004377   0.7834611   0.9629764  )
        23           O   tau(  23) = (   0.0013318   0.2660003   0.5372903  )
        24           O   tau(  24) = (  -0.0004377   0.7716914   0.4628875  )
        25           O   tau(  25) = (   0.7128052   0.2599226   0.7490869  )
        26           O   tau(  26) = (   0.2871947   0.7810767   0.2516807  )
        27           O   tau(  27) = (   0.7871948   0.2584615   0.2489981  )
        28           O   tau(  28) = (   0.2128053   0.7740758   0.7517696  )
        29           O   tau(  29) = (   0.2871947   0.2599226   0.7511796  )
        30           O   tau(  30) = (   0.7128052   0.7810767   0.2484082  )
        31           O   tau(  31) = (   0.2128053   0.2584615   0.2510908  )
        32           O   tau(  32) = (   0.7871948   0.7740758   0.7484970  )

     number of k points=    64  gaussian smearing, width (Ry)=  0.0007
                       cart. coord. in units 2pi/alat
        k(    1) = (   0.0000000   0.0000000   0.0000000), wk =   0.0092593
        k(    2) = (   0.0000000   0.0000000   0.1666370), wk =   0.0185185
        k(    3) = (   0.0000000   0.0000000   0.3332741), wk =   0.0185185
        k(    4) = (   0.0000000   0.0000000  -0.4999111), wk =   0.0092593
        k(    5) = (   0.0000000   0.1607559   0.0000000), wk =   0.0185185
        k(    6) = (   0.0000000   0.1607559   0.1666370), wk =   0.0370370
        k(    7) = (   0.0000000   0.1607559   0.3332741), wk =   0.0370370
        k(    8) = (   0.0000000   0.1607559  -0.4999111), wk =   0.0185185
        k(    9) = (   0.0000000   0.3215119   0.0000000), wk =   0.0185185
        k(   10) = (   0.0000000   0.3215119   0.1666370), wk =   0.0370370
        k(   11) = (   0.0000000   0.3215119   0.3332741), wk =   0.0370370
        k(   12) = (   0.0000000   0.3215119  -0.4999111), wk =   0.0185185
        k(   13) = (   0.0000000  -0.4822678   0.0000000), wk =   0.0092593
        k(   14) = (   0.0000000  -0.4822678   0.1666370), wk =   0.0185185
        k(   15) = (   0.0000000  -0.4822678   0.3332741), wk =   0.0185185
        k(   16) = (   0.0000000  -0.4822678  -0.4999111), wk =   0.0092593
        k(   17) = (   0.1666667   0.0000000   0.0000000), wk =   0.0185185
        k(   18) = (   0.1666667   0.0000000   0.1666370), wk =   0.0370370
        k(   19) = (   0.1666667   0.0000000   0.3332741), wk =   0.0370370
        k(   20) = (   0.1666667   0.0000000  -0.4999111), wk =   0.0185185
        k(   21) = (   0.1666667   0.1607559   0.0000000), wk =   0.0370370
        k(   22) = (   0.1666667   0.1607559   0.1666370), wk =   0.0740741
        k(   23) = (   0.1666667   0.1607559   0.3332741), wk =   0.0740741
        k(   24) = (   0.1666667   0.1607559  -0.4999111), wk =   0.0370370
        k(   25) = (   0.1666667   0.3215119   0.0000000), wk =   0.0370370
        k(   26) = (   0.1666667   0.3215119   0.1666370), wk =   0.0740741
        k(   27) = (   0.1666667   0.3215119   0.3332741), wk =   0.0740741
        k(   28) = (   0.1666667   0.3215119  -0.4999111), wk =   0.0370370
        k(   29) = (   0.1666667  -0.4822678   0.0000000), wk =   0.0185185
        k(   30) = (   0.1666667  -0.4822678   0.1666370), wk =   0.0370370
        k(   31) = (   0.1666667  -0.4822678   0.3332741), wk =   0.0370370
        k(   32) = (   0.1666667  -0.4822678  -0.4999111), wk =   0.0185185
        k(   33) = (   0.3333333   0.0000000   0.0000000), wk =   0.0185185
        k(   34) = (   0.3333333   0.0000000   0.1666370), wk =   0.0370370
        k(   35) = (   0.3333333   0.0000000   0.3332741), wk =   0.0370370
        k(   36) = (   0.3333333   0.0000000  -0.4999111), wk =   0.0185185
        k(   37) = (   0.3333333   0.1607559   0.0000000), wk =   0.0370370
        k(   38) = (   0.3333333   0.1607559   0.1666370), wk =   0.0740741
        k(   39) = (   0.3333333   0.1607559   0.3332741), wk =   0.0740741
        k(   40) = (   0.3333333   0.1607559  -0.4999111), wk =   0.0370370
        k(   41) = (   0.3333333   0.3215119   0.0000000), wk =   0.0370370
        k(   42) = (   0.3333333   0.3215119   0.1666370), wk =   0.0740741
        k(   43) = (   0.3333333   0.3215119   0.3332741), wk =   0.0740741
        k(   44) = (   0.3333333   0.3215119  -0.4999111), wk =   0.0370370
        k(   45) = (   0.3333333  -0.4822678   0.0000000), wk =   0.0185185
        k(   46) = (   0.3333333  -0.4822678   0.1666370), wk =   0.0370370
        k(   47) = (   0.3333333  -0.4822678   0.3332741), wk =   0.0370370
        k(   48) = (   0.3333333  -0.4822678  -0.4999111), wk =   0.0185185
        k(   49) = (  -0.5000000   0.0000000   0.0000000), wk =   0.0092593
        k(   50) = (  -0.5000000   0.0000000   0.1666370), wk =   0.0185185
        k(   51) = (  -0.5000000   0.0000000   0.3332741), wk =   0.0185185
        k(   52) = (  -0.5000000   0.0000000  -0.4999111), wk =   0.0092593
        k(   53) = (  -0.5000000   0.1607559   0.0000000), wk =   0.0185185
        k(   54) = (  -0.5000000   0.1607559   0.1666370), wk =   0.0370370
        k(   55) = (  -0.5000000   0.1607559   0.3332741), wk =   0.0370370
        k(   56) = (  -0.5000000   0.1607559  -0.4999111), wk =   0.0185185
        k(   57) = (  -0.5000000   0.3215119   0.0000000), wk =   0.0185185
        k(   58) = (  -0.5000000   0.3215119   0.1666370), wk =   0.0370370
        k(   59) = (  -0.5000000   0.3215119   0.3332741), wk =   0.0370370
        k(   60) = (  -0.5000000   0.3215119  -0.4999111), wk =   0.0185185
        k(   61) = (  -0.5000000  -0.4822678   0.0000000), wk =   0.0092593
        k(   62) = (  -0.5000000  -0.4822678   0.1666370), wk =   0.0185185
        k(   63) = (  -0.5000000  -0.4822678   0.3332741), wk =   0.0185185
        k(   64) = (  -0.5000000  -0.4822678  -0.4999111), wk =   0.0092593

     Initial potential from superposition of free atoms

     starting charge  367.99656, renormalised to  368.60000
     Starting wfc are  232 randomized atomic wfcs

     Self-consistent Calculation

     iteration #  1     ecut=   120.00 Ry     beta= 0.70
     Davidson diagonalization with overlap
     ethr =  1.00E-02,  avg # of iterations =  5.1

     total energy              =   -6253.41946635 Ry
     Harris-Foulkes estimate   =   -6264.31205248 Ry
     estimated scf accuracy    <      13.71999435 Ry

[...]

     total energy              =   -6260.69513152 Ry
     Harris-Foulkes estimate   =   -6260.69513154 Ry
     estimated scf accuracy    <       0.00000003 Ry

     iteration # 14     ecut=   120.00 Ry     beta= 0.70
     Davidson diagonalization with overlap
     ethr =  8.89E-12,  avg # of iterations =  2.9

     End of self-consistent calculation

          k = 0.0000 0.0000 0.0000 ( 63239 PWs)   bands (ev):

   -66.2990 -66.2985 -66.2982 -66.2982 -66.2977 -66.2977 -66.2974 -66.2969
   -30.7198 -30.7159 -30.7158 -30.7120 -30.6551 -30.6508 -30.6504 -30.6463
   -30.6358 -30.6340 -30.6312 -30.6300 -30.6296 -30.6288 -30.6264 -30.6244
   -30.5418 -30.5409 -30.5378 -30.5378 -30.5366 -30.5366 -30.5336 -30.5322
   -20.4531 -20.4530 -20.4530 -20.4530 -20.4529 -20.4529 -20.4528 -20.4527
   -20.4512 -20.4508 -20.4508 -20.4504 -20.4453 -20.4448 -20.4448 -20.4443
   -20.4422 -20.4420 -20.4419 -20.4417 -20.4409 -20.4408 -20.4404 -20.4404
   -20.4391 -20.4391 -20.4388 -20.4387 -20.4379 -20.4377 -20.4375 -20.4373
   -20.4304 -20.4303 -20.4298 -20.4297 -20.4296 -20.4295 -20.4291 -20.4289
   -20.4036 -20.4035 -20.4033 -20.4031 -20.4020 -20.4020 -20.4019 -20.4016
   -20.3979 -20.3979 -20.3978 -20.3975 -20.3964 -20.3964 -20.3962 -20.3960
   -10.1228  -9.8182  -9.7399  -9.7398  -9.4436  -9.4416  -9.3649  -9.2201
    -9.2029  -9.1400  -9.1140  -9.1133  -8.0339  -7.9784  -7.9773  -7.9286
    -7.9131  -7.9114  -7.8811  -7.8788  -7.8156  -7.8147  -7.7870  -7.7863
     0.9664   0.9703   1.0337   1.0357   1.0749   1.0809   1.0850   1.2778
     1.3330   1.3357   1.3558   1.5725   2.3030   2.3727   2.3758   2.3933
     2.5019   2.5044   4.0644   4.0693   4.2362   4.2440   4.5661   4.5685
     4.5722   4.5840   4.6073   4.6084   4.7127   4.7128   4.9047   5.2290
     5.2360   5.3146   5.3185   5.3712   5.3820   5.3891   5.3926   5.6059
     5.6069   5.6701   5.7106   5.7160   5.7901   5.9415   5.9427   5.9840
     5.9882   6.1772   6.1806   6.2712   6.2717   6.6482   6.6733   6.6790
     6.7274   6.7314   6.8558   6.8834   6.9131   6.9167   7.1238   7.1274
     7.1364   7.1398   7.8531   7.8638   7.9179   7.9253   7.9785   7.9868
     9.0061   9.0245   9.5360   9.5380   9.5448   9.5474  12.1738  12.1787
    12.2375  12.2392  12.2806  12.2840  12.3431  12.3500  12.8371  12.8870
    13.0418  13.0472  13.0794  13.1199  13.7286  13.9089  13.9508  13.9573
    14.0068  14.1976  14.2414  14.6014  15.0161  15.0258  15.3971  15.8216
    15.8277  16.7592  16.9214  16.9272  16.9820

[...]

          k = 0.3333-0.4823-0.4999 ( 63160 PWs)   bands (ev):

[...]

          k =-0.5000 0.0000 0.0000 ( 63136 PWs)   bands (ev):

[...]

          k =-0.5000-0.4823-0.4999 ( 63104 PWs)   bands (ev):

   -66.2980 -66.2980 -66.2980 -66.2980 -66.2979 -66.2979 -66.2979 -66.2979
   -30.6837 -30.6837 -30.6836 -30.6836 -30.6834 -30.6834 -30.6834 -30.6834
   -30.5865 -30.5865 -30.5862 -30.5862 -30.5857 -30.5857 -30.5854 -30.5854
   -30.5825 -30.5825 -30.5818 -30.5818 -30.5816 -30.5816 -30.5811 -30.5811
   -20.4530 -20.4530 -20.4530 -20.4530 -20.4529 -20.4528 -20.4528 -20.4528
   -20.4480 -20.4480 -20.4480 -20.4480 -20.4479 -20.4479 -20.4479 -20.4479
   -20.4402 -20.4402 -20.4401 -20.4401 -20.4401 -20.4401 -20.4399 -20.4399
   -20.4396 -20.4396 -20.4395 -20.4395 -20.4394 -20.4394 -20.4393 -20.4393
   -20.4297 -20.4297 -20.4296 -20.4296 -20.4295 -20.4295 -20.4295 -20.4295
   -20.4003 -20.4003 -20.4002 -20.4002 -20.4002 -20.4002 -20.4001 -20.4001
   -20.3998 -20.3998 -20.3997 -20.3997 -20.3996 -20.3996 -20.3996 -20.3996
    -9.1192  -9.1192  -9.1170  -9.1170  -9.1141  -9.1141  -9.1133  -9.1133
    -8.6077  -8.6077  -8.6012  -8.6012  -8.5954  -8.5954  -8.5952  -8.5952
    -8.5660  -8.5660  -8.5633  -8.5633  -8.5627  -8.5627  -8.5583  -8.5583
     2.8473   2.8473   2.8476   2.8476   2.8647   2.8648   2.8673   2.8674
     2.9532   2.9532   2.9571   2.9571   2.9798   2.9798   2.9856   2.9856
     3.2170   3.2170   3.2375   3.2375   3.2720   3.2721   3.2863   3.2863
     3.9591   3.9591   3.9642   3.9642   3.9718   3.9718   3.9735   3.9735
     4.1044   4.1044   4.1076   4.1076   4.1113   4.1113   4.1167   4.1167
     4.2039   4.2039   4.2117   4.2117   4.2250   4.2250   4.2267   4.2267
     6.9942   6.9942   7.0099   7.0099   7.0437   7.0437   7.0635   7.0635
     7.1505   7.1506   7.1524   7.1524   7.1562   7.1562   7.1573   7.1574
     7.4114   7.4115   7.4148   7.4148   7.4245   7.4246   7.4300   7.4301
    11.6739  11.6739  11.6740  11.6740  11.6788  11.6788  11.6804  11.6804
    11.9706  11.9706  11.9862  11.9862  12.0206  12.0206  12.0399  12.0400
    12.1993  12.1993  12.2096  12.2096  12.2271  12.2271  12.2338  12.2338
    16.9575  16.9575  16.9656  16.9656  16.9848  16.9848  16.9955  16.9955
    17.3546  17.3547  17.3548  17.3548  17.3658

     the Fermi energy is     9.5322 ev

!    total energy              =   -6260.69513153 Ry
     Harris-Foulkes estimate   =   -6260.69513153 Ry
     estimated scf accuracy    <          4.2E-09 Ry

     The total energy is the sum of the following terms:

     one-electron contribution =   -4784.51661272 Ry
     hartree contribution      =    2627.44363424 Ry
     xc contribution           =    -966.32994677 Ry
     ewald contribution        =   -3137.29217707 Ry
     smearing contrib. (-TS)   =      -0.00002920 Ry

     convergence has been achieved in  14 iterations

     Writing output data file Landau_7.save

     General routines

     Parallel routines

   This run was terminated on:  22: 0: 2  25Mar2020

   JOB DONE.