     Program PWSCF v.6.2 (svn rev. 14038) starts on 11Mar2020 at  2:17: 4

     K-points division:     npool     =      40
     Reading input from rscf.in

     Current dimensions of program PWSCF are:
     Max number of different atomic species (ntypx) = 10
     Max number of k-points (npk) =  40000
     Max angular momentum in pseudopotentials (lmaxx) =  3

     Subspace diagonalization in iterative solution of the eigenvalue problem:
     a serial algorithm will be used

     Found symmetry operation: I + (  0.5000  0.0000 -0.5000)
     This is a supercell, fractional translations are disabled

     bravais-lattice index     =            0
     lattice parameter (alat)  =      13.8397  a.u.
     unit-cell volume          =    2804.9816 (a.u.)^3
     number of atoms/cell      =           32
     number of atomic types    =            2
     number of electrons       =       368.00
     number of Kohn-Sham states=          221
     kinetic-energy cutoff     =     120.0000  Ry
     charge density cutoff     =     480.0000  Ry
     convergence threshold     =      1.0E-08
     mixing beta               =       0.7000
     number of iterations used =            8  plain     mixing
     Exchange-correlation      = SLA PW NOGX NOGC ( 1  4  0  0 0 0)
     nstep                     =           50

     celldm(1)=  13.839685  celldm(2)=   0.000000  celldm(3)=   0.000000
     celldm(4)=   0.000000  celldm(5)=   0.000000  celldm(6)=   0.000000

     crystal axes: (cart. coord. in units of alat)
               a(1) = (   1.000000   0.000000   0.000000 )
               a(2) = (   0.000000   1.058160   0.000000 )
               a(3) = (   0.000000   0.000000   1.000000 )

     reciprocal axes: (cart. coord. in units 2 pi/alat)
               b(1) = (  1.000000  0.000000  0.000000 )
               b(2) = (  0.000000  0.945037  0.000000 )
               b(3) = (  0.000000  0.000000  1.000000 )

     PseudoPot. # 1 for W  read from file:
     /cluster/scratch/mnoe/QE/pps/W_ONCV_LDA-4.0.upf
     MD5 check sum: ba0307d5d4cd419d6f1d13dc49d7c13a
     Pseudo is Norm-conserving + core correction, Zval = 28.0
     Generated using ONCVPSP code by D. R. Hamann
     Using radial grid of 1380 points,  8 beta functions with:
                l(1) =   0
                l(2) =   0
                l(3) =   1
                l(4) =   1
                l(5) =   2
                l(6) =   2
                l(7) =   3
                l(8) =   3

     PseudoPot. # 2 for O  read from file:
     /cluster/scratch/mnoe/QE/pps/O_ONCV_LDA-3.0.upf
     MD5 check sum: a1bd6164e7280c17a38c229939bfbd54
     Pseudo is Norm-conserving + core correction, Zval =  6.0
     Generated using ONCVPSP code by D. R. Hamann
     Using radial grid of  926 points,  5 beta functions with:
                l(1) =   0
                l(2) =   0
                l(3) =   1
                l(4) =   1
                l(5) =   2

     atomic species   valence    mass     pseudopotential
        W             28.00   183.84000     W ( 1.00)
        O              6.00    15.99940     O ( 1.00)

      2 Sym. Ops., with inversion, found

   Cartesian axes

     site n.     atom                  positions (alat units)
         1           W   tau(   1) = (   0.2500000   0.2973680   0.0000000  )
         2           W   tau(   2) = (   0.7500000   0.7607921   0.0000000  )
         3           W   tau(   3) = (   0.2500000   0.2317121   0.5000000  )
         4           W   tau(   4) = (   0.7500000   0.8264480   0.5000000  )
         5           W   tau(   5) = (   0.7500000   0.2973680   0.5000000  )
         6           W   tau(   6) = (   0.2500000   0.7607921   0.5000000  )
         7           W   tau(   7) = (   0.7500000   0.2317121   0.0000000  )
         8           W   tau(   8) = (   0.2500000   0.8264480   0.0000000  )
         9           O   tau(   9) = (   0.2500000   0.0085628   0.0000000  )
        10           O   tau(  10) = (   0.7500000   1.0495973   0.0000000  )
        11           O   tau(  11) = (   0.2500000   0.5205172   0.5000000  )
        12           O   tau(  12) = (   0.7500000   0.5376428   0.5000000  )
        13           O   tau(  13) = (   0.7500000   0.0085628   0.5000000  )
        14           O   tau(  14) = (   0.2500000   1.0495973   0.5000000  )
        15           O   tau(  15) = (   0.7500000   0.5205172   0.0000000  )
        16           O   tau(  16) = (   0.2500000   0.5376428   0.0000000  )
        17           O   tau(  17) = (   0.5000000   0.2645400   0.4515851  )
        18           O   tau(  18) = (   0.5000000   0.7936200   0.5484149  )
        19           O   tau(  19) = (   0.0000000   0.2645400   0.9515851  )
        20           O   tau(  20) = (   0.0000000   0.7936200   0.0484149  )
        21           O   tau(  21) = (   0.5000000   0.2645400   0.0484149  )
        22           O   tau(  22) = (   0.5000000   0.7936200   0.9515851  )
        23           O   tau(  23) = (   0.0000000   0.2645400   0.5484149  )
        24           O   tau(  24) = (   0.0000000   0.7936200   0.4515851  )
        25           O   tau(  25) = (   0.7015851   0.2645400   0.7500000  )
        26           O   tau(  26) = (   0.2984149   0.7936200   0.2500000  )
        27           O   tau(  27) = (   0.7984149   0.2645400   0.2500000  )
        28           O   tau(  28) = (   0.2015851   0.7936200   0.7500000  )
        29           O   tau(  29) = (   0.2984149   0.2645400   0.7500000  )
        30           O   tau(  30) = (   0.7015851   0.7936200   0.2500000  )
        31           O   tau(  31) = (   0.2015851   0.2645400   0.2500000  )
        32           O   tau(  32) = (   0.7984149   0.7936200   0.7500000  )

     number of k points=   112  gaussian smearing, width (Ry)=  0.0007

     Number of k-points >= 100: set verbosity='high' to print them.

     Initial potential from superposition of free atoms

     starting charge  367.99656, renormalised to  368.00000
     Starting wfc are  232 randomized atomic wfcs

     Self-consistent Calculation

     iteration #  1     ecut=   120.00 Ry     beta= 0.70
     Davidson diagonalization with overlap
     ethr =  1.00E-02,  avg # of iterations =  5.1

     total energy              =   -6253.99510148 Ry
     Harris-Foulkes estimate   =   -6264.58841292 Ry
     estimated scf accuracy    <      13.41696607 Ry

[...]

     End of self-consistent calculation

     Number of k-points >= 100: set verbosity='high' to print the bands.

     the Fermi energy is     8.9812 ev

!    total energy              =   -6261.10858084 Ry
     Harris-Foulkes estimate   =   -6261.10858085 Ry
     estimated scf accuracy    <          5.0E-09 Ry

     The total energy is the sum of the following terms:

     one-electron contribution =   -4728.96310575 Ry
     hartree contribution      =    2601.18577313 Ry
     xc contribution           =    -965.74623851 Ry
     ewald contribution        =   -3167.58500971 Ry
     smearing contrib. (-TS)   =      -0.00000000 Ry

     convergence has been achieved in  14 iterations

     Forces acting on atoms (cartesian axes, Ry/au):

     atom    1 type  1   force =    -0.00000479    0.00758087   -0.00000676
     atom    2 type  1   force =     0.00000479   -0.00758087    0.00000676
     atom    3 type  1   force =    -0.00000965   -0.00759264    0.00000857
     atom    4 type  1   force =     0.00000965    0.00759264   -0.00000857
     atom    5 type  1   force =     0.00001036    0.00755688   -0.00000445
     atom    6 type  1   force =    -0.00001036   -0.00755688    0.00000445
     atom    7 type  1   force =     0.00000685   -0.00758643    0.00000558
     atom    8 type  1   force =    -0.00000685    0.00758643   -0.00000558
     atom    9 type  2   force =    -0.00000038   -0.00384097   -0.00000035
     atom   10 type  2   force =     0.00000038    0.00384097    0.00000035
     atom   11 type  2   force =    -0.00000055    0.00383701    0.00000044
     atom   12 type  2   force =     0.00000055   -0.00383701   -0.00000044
     atom   13 type  2   force =     0.00000124   -0.00384039   -0.00000087
     atom   14 type  2   force =    -0.00000124    0.00384039    0.00000087
     atom   15 type  2   force =     0.00000105    0.00383554    0.00000094
     atom   16 type  2   force =    -0.00000105   -0.00383554   -0.00000094
     atom   17 type  2   force =     0.00000153    0.00000079   -0.00203993
     atom   18 type  2   force =    -0.00000153   -0.00000079    0.00203993
     atom   19 type  2   force =    -0.00000073    0.00000071   -0.00204029
     atom   20 type  2   force =     0.00000073   -0.00000071    0.00204029
     atom   21 type  2   force =     0.00000143    0.00000085    0.00203987
     atom   22 type  2   force =    -0.00000143   -0.00000085   -0.00203987
     atom   23 type  2   force =    -0.00000168    0.00000051    0.00204023
     atom   24 type  2   force =     0.00000168   -0.00000051   -0.00204023
     atom   25 type  2   force =    -0.00203962    0.00000030   -0.00000014
     atom   26 type  2   force =     0.00203962   -0.00000030    0.00000014
     atom   27 type  2   force =     0.00204089    0.00000073    0.00000039
     atom   28 type  2   force =    -0.00204089   -0.00000073   -0.00000039
     atom   29 type  2   force =     0.00203910    0.00000118    0.00000099
     atom   30 type  2   force =    -0.00203910   -0.00000118   -0.00000099
     atom   31 type  2   force =    -0.00204047    0.00000035   -0.00000044
     atom   32 type  2   force =     0.00204047   -0.00000035    0.00000044

     Total force =     0.000000     Total SCF correction =     0.000000

     Computing stress (Cartesian axis) and pressure

          total   stress  (Ry/bohr**3)                   (kbar)     P=    6.75
   0.00009233   0.00000000  -0.00000000         13.58      0.00     -0.00
   0.00000000  -0.00004701  -0.00000001          0.00     -6.91     -0.00
  -0.00000000  -0.00000001   0.00009234         -0.00     -0.00     13.58

     BFGS Geometry Optimization

     number of scf cycles    =   1
     number of bfgs steps    =   0

     enthalpy new            =   -6261.1085808430 Ry

     new trust radius        =       0.0244530582 bohr
     new conv_thr            =       0.0000000100 Ry

     new unit-cell volume =   2814.63490 a.u.^3 (   417.08585 Ang^3 )
     density =      7.38412 g/cm^3

CELL_PARAMETERS (angstrom)
   7.340550483   0.000000300  -0.000000009
   0.000000317   7.740482823  -0.000001674
  -0.000000009  -0.000001582   7.340553029

ATOMIC_POSITIONS (crystal)
W        0.250000000   0.281023623   0.000000000    0   0   0
W        0.749999996   0.718976377   0.000000000    0   0   0
W        0.250000000   0.218976392   0.500000000    0   0   0
W        0.749999996   0.781023601   0.500000000    0   0   0
W        0.749999996   0.281023623   0.500000000    0   0   0
W        0.250000000   0.718976377   0.500000000    0   0   0
W        0.749999996   0.218976392  -0.000000000    0   0   0
W        0.250000000   0.781023601   0.000000000    0   0   0
O        0.250000000   0.008092145  -0.000000000    0   0   0
O        0.749999996   0.991907872  -0.000000000    0   0   0
[...]
O        0.749999996   0.491907849   0.000000000    0   0   0
O        0.250000000   0.508092128  -0.000000000    0   0   0
O        0.500000000   0.250000000   0.451585117    0   0   0
O        0.500000000   0.749999989   0.548414859    0   0   0
O       -0.000000000   0.250000000   0.951585150    0   0   0
O       -0.000000000   0.749999989   0.048414891    0   0   0
O        0.500000000   0.250000000   0.048414891    0   0   0
O        0.500000000   0.749999989   0.951585150    0   0   0
O       -0.000000000   0.250000000   0.548414859    0   0   0
O       -0.000000000   0.749999989   0.451585117    0   0   0
O        0.701585145   0.250000000   0.749999996    0   0   0
O        0.298414879   0.749999989   0.250000000    0   0   0
O        0.798414864   0.250000000   0.250000000    0   0   0
O        0.201585133   0.749999989   0.749999996    0   0   0
O        0.298414879   0.250000000   0.749999996    0   0   0
O        0.701585145   0.749999989   0.250000000    0   0   0
O        0.201585133   0.250000000   0.250000000    0   0   0
O        0.798414864   0.749999989   0.749999996    0   0   0

     Writing output data file Landau_6.save
     NEW-OLD atomic charge density approx. for the potential
     extrapolated charge  369.26210, renormalised to  368.00000

[...]

     enthalpy old            =   -6261.1085808430 Ry
     enthalpy new            =   -6261.1091528382 Ry

     CASE: enthalpy_new < enthalpy_old

[...]

     Threshold (ethr) on eigenvalues was too large:
     Diagonalizing with lowered threshold

     Davidson diagonalization with overlap
     ethr =  1.70E-08,  avg # of iterations =  2.8

[...]

     number of scf cycles    =   4
     number of bfgs steps    =   3

     enthalpy old            =   -6261.1091749762 Ry
     enthalpy new            =   -6261.1091753762 Ry

     CASE: enthalpy_new < enthalpy_old

     small trust_radius: resetting bfgs history

     new trust radius        =       0.0000814154 bohr
     new conv_thr            =            1.0E-10 Ry

     new unit-cell volume =   2812.02965 a.u.^3 (   416.69980 Ang^3 )
     density =      7.39096 g/cm^3

[...]

ATOMIC_POSITIONS (crystal)
W        0.250000000   0.281023623  -0.000000000    0   0   0
W        0.749999996   0.718976377  -0.000000000    0   0   0
W        0.250000000   0.218976392   0.500000000    0   0   0
W        0.749999996   0.781023601   0.500000000    0   0   0
W        0.749999996   0.281023623   0.500000000    0   0   0
W        0.250000000   0.718976377   0.500000000    0   0   0
W        0.749999996   0.218976392  -0.000000000    0   0   0
W        0.250000000   0.781023601  -0.000000000    0   0   0
O        0.250000000   0.008092145  -0.000000000    0   0   0
O        0.749999996   0.991907872  -0.000000000    0   0   0
O        0.250000000   0.491907849   0.500000000    0   0   0
O        0.749999996   0.508092128   0.500000000    0   0   0
O        0.749999996   0.008092145   0.500000000    0   0   0
O        0.250000000   0.991907872   0.500000000    0   0   0
O        0.749999996   0.491907849  -0.000000000    0   0   0
O        0.250000000   0.508092128  -0.000000000    0   0   0
O        0.500000000   0.250000000   0.451585117    0   0   0
O        0.500000000   0.749999989   0.548414859    0   0   0
O       -0.000000000   0.250000000   0.951585150    0   0   0
O       -0.000000000   0.749999989   0.048414891    0   0   0
O        0.500000000   0.250000000   0.048414891    0   0   0
O        0.500000000   0.749999989   0.951585150    0   0   0
O       -0.000000000   0.250000000   0.548414859    0   0   0
O       -0.000000000   0.749999989   0.451585117    0   0   0
O        0.701585145   0.250000000   0.749999996    0   0   0
O        0.298414879   0.749999989   0.250000000    0   0   0
O        0.798414864   0.250000000   0.250000000    0   0   0
O        0.201585133   0.749999989   0.749999996    0   0   0
O        0.298414879   0.250000000   0.749999996    0   0   0
O        0.701585145   0.749999989   0.250000000    0   0   0
O        0.201585133   0.250000000   0.250000000    0   0   0
O        0.798414864   0.749999989   0.749999996    0   0   0

     Writing output data file Landau_6.save
     NEW-OLD atomic charge density approx. for the potential
     extrapolated charge  367.99835, renormalised to  368.00000

[...]

     Threshold (ethr) on eigenvalues was too large:
     Diagonalizing with lowered threshold

     Davidson diagonalization with overlap
     ethr =  3.99E-11,  avg # of iterations =  3.0

[...]

     bfgs converged in   5 scf cycles and   4 bfgs steps
     (criteria: energy <  1.0E-07 Ry, force <  1.0E-07Ry/Bohr, cell <  5.0E-01kbar)

     End of BFGS Geometry Optimization

     Final enthalpy =   -6261.1091753802 Ry
Begin final coordinates
     new unit-cell volume =   2812.02965 a.u.^3 (   416.69980 Ang^3 )
     density =      7.39096 g/cm^3

CELL_PARAMETERS (angstrom)
   7.337937754  -0.000000065  -0.000000018
  -0.000000071   7.738828924  -0.000000521
  -0.000000018  -0.000000495   7.337937673

ATOMIC_POSITIONS (crystal)
W        0.250000000   0.281023623  -0.000000000    0   0   0
W        0.749999996   0.718976377  -0.000000000    0   0   0
W        0.250000000   0.218976392   0.500000000    0   0   0
W        0.749999996   0.781023601   0.500000000    0   0   0
W        0.749999996   0.281023623   0.500000000    0   0   0
W        0.250000000   0.718976377   0.500000000    0   0   0
W        0.749999996   0.218976392  -0.000000000    0   0   0
W        0.250000000   0.781023601  -0.000000000    0   0   0
O        0.250000000   0.008092145  -0.000000000    0   0   0
O        0.749999996   0.991907872  -0.000000000    0   0   0
O        0.250000000   0.491907849   0.500000000    0   0   0
O        0.749999996   0.508092128   0.500000000    0   0   0
O        0.749999996   0.008092145   0.500000000    0   0   0
O        0.250000000   0.991907872   0.500000000    0   0   0
O        0.749999996   0.491907849  -0.000000000    0   0   0
O        0.250000000   0.508092128  -0.000000000    0   0   0
O        0.500000000   0.250000000   0.451585117    0   0   0
O        0.500000000   0.749999989   0.548414859    0   0   0
O       -0.000000000   0.250000000   0.951585150    0   0   0
O       -0.000000000   0.749999989   0.048414891    0   0   0
O        0.500000000   0.250000000   0.048414891    0   0   0
O        0.500000000   0.749999989   0.951585150    0   0   0
O       -0.000000000   0.250000000   0.548414859    0   0   0
O       -0.000000000   0.749999989   0.451585117    0   0   0
O        0.701585145   0.250000000   0.749999996    0   0   0
O        0.298414879   0.749999989   0.250000000    0   0   0
O        0.798414864   0.250000000   0.250000000    0   0   0
O        0.201585133   0.749999989   0.749999996    0   0   0
O        0.298414879   0.250000000   0.749999996    0   0   0
O        0.701585145   0.749999989   0.250000000    0   0   0
O        0.201585133   0.250000000   0.250000000    0   0   0
O        0.798414864   0.749999989   0.749999996    0   0   0
End final coordinates

     A final scf calculation at the relaxed structure.
     The G-vectors are recalculated for the final unit cell
     Results may differ from those at the preceding step.

     bravais-lattice index     =            0
     lattice parameter (alat)  =      13.8397  a.u.
     unit-cell volume          =    2812.0296 (a.u.)^3
     number of atoms/cell      =           32
     number of atomic types    =            2
     number of electrons       =       368.00
     number of Kohn-Sham states=          221
     kinetic-energy cutoff     =     120.0000  Ry
     charge density cutoff     =     480.0000  Ry
     convergence threshold     =      1.0E-10
     mixing beta               =       0.7000
     number of iterations used =            8  plain     mixing
     Exchange-correlation      = SLA PW NOGX NOGC ( 1  4  0  0 0 0)

     celldm(1)=  13.839685  celldm(2)=   0.000000  celldm(3)=   0.000000
     celldm(4)=   0.000000  celldm(5)=   0.000000  celldm(6)=   0.000000

     crystal axes: (cart. coord. in units of alat)
               a(1) = (   1.001951  -0.000000  -0.000000 )
               a(2) = (  -0.000000   1.056691  -0.000000 )
               a(3) = (  -0.000000  -0.000000   1.001951 )

     reciprocal axes: (cart. coord. in units 2 pi/alat)
               b(1) = (  0.998052  0.000000  0.000000 )
               b(2) = (  0.000000  0.946351  0.000000 )
               b(3) = (  0.000000  0.000000  0.998052 )

     PseudoPot. # 1 for W  read from file:
     /cluster/scratch/mnoe/QE/pps/W_ONCV_LDA-4.0.upf
     MD5 check sum: ba0307d5d4cd419d6f1d13dc49d7c13a
     Pseudo is Norm-conserving + core correction, Zval = 28.0
     Generated using ONCVPSP code by D. R. Hamann
     Using radial grid of 1380 points,  8 beta functions with:
                l(1) =   0
                l(2) =   0
                l(3) =   1
                l(4) =   1
                l(5) =   2
                l(6) =   2
                l(7) =   3
                l(8) =   3

     PseudoPot. # 2 for O  read from file:
     /cluster/scratch/mnoe/QE/pps/O_ONCV_LDA-3.0.upf
     MD5 check sum: a1bd6164e7280c17a38c229939bfbd54
     Pseudo is Norm-conserving + core correction, Zval =  6.0
     Generated using ONCVPSP code by D. R. Hamann
     Using radial grid of  926 points,  5 beta functions with:
                l(1) =   0
                l(2) =   0
                l(3) =   1
                l(4) =   1
                l(5) =   2

     atomic species   valence    mass     pseudopotential
        W             28.00   183.84000     W ( 1.00)
        O              6.00    15.99940     O ( 1.00)

      2 Sym. Ops., with inversion, found

   Cartesian axes

     site n.     atom                  positions (alat units)
         1           W   tau(   1) = (   0.2504879   0.2969551  -0.0000000  )
         2           W   tau(   2) = (   0.7514636   0.7597357  -0.0000001  )
         3           W   tau(   3) = (   0.2504879   0.2313903   0.5009757  )
         4           W   tau(   4) = (   0.7514636   0.8253004   0.5009757  )
         5           W   tau(   5) = (   0.7514636   0.2969550   0.5009757  )
         6           W   tau(   6) = (   0.2504879   0.7597356   0.5009757  )
         7           W   tau(   7) = (   0.7514636   0.2313903  -0.0000000  )
         8           W   tau(   8) = (   0.2504879   0.8253004  -0.0000001  )
         9           O   tau(   9) = (   0.2504879   0.0085509  -0.0000000  )
        10           O   tau(  10) = (   0.7514636   1.0481398  -0.0000001  )
        11           O   tau(  11) = (   0.2504879   0.5197944   0.5009757  )
        12           O   tau(  12) = (   0.7514636   0.5368962   0.5009757  )
        13           O   tau(  13) = (   0.7514636   0.0085509   0.5009757  )
        14           O   tau(  14) = (   0.2504879   1.0481398   0.5009756  )
        15           O   tau(  15) = (   0.7514636   0.5197945  -0.0000000  )
        16           O   tau(  16) = (   0.2504879   0.5368962  -0.0000000  )
        17           O   tau(  17) = (   0.5009757   0.2641726   0.4524663  )
        18           O   tau(  18) = (   0.5009757   0.7925180   0.5494850  )
        19           O   tau(  19) = (  -0.0000000   0.2641726   0.9534421  )
        20           O   tau(  20) = (  -0.0000000   0.7925180   0.0485093  )
        21           O   tau(  21) = (   0.5009757   0.2641727   0.0485094  )
        22           O   tau(  22) = (   0.5009757   0.7925180   0.9534420  )
        23           O   tau(  23) = (  -0.0000000   0.2641726   0.5494850  )
        24           O   tau(  24) = (  -0.0000000   0.7925180   0.4524663  )
        25           O   tau(  25) = (   0.7029542   0.2641726   0.7514636  )
        26           O   tau(  26) = (   0.2989972   0.7925180   0.2504878  )
        27           O   tau(  27) = (   0.7999729   0.2641727   0.2504878  )
        28           O   tau(  28) = (   0.2019785   0.7925180   0.7514635  )
        29           O   tau(  29) = (   0.2989972   0.2641726   0.7514636  )
        30           O   tau(  30) = (   0.7029542   0.7925180   0.2504878  )
        31           O   tau(  31) = (   0.2019785   0.2641727   0.2504878  )
        32           O   tau(  32) = (   0.7999729   0.7925180   0.7514635  )

     number of k points=   112  gaussian smearing, width (Ry)=  0.0007

     Number of k-points >= 100: set verbosity='high' to print them.

     Initial potential from superposition of free atoms

     starting charge  367.99656, renormalised to  368.00000
     Starting wfc are  232 randomized atomic wfcs

     Writing output data file Landau_6.save

     Self-consistent Calculation

[...]

     total energy              =   -6261.10920715 Ry
     Harris-Foulkes estimate   =   -6261.10920715 Ry
     estimated scf accuracy    <          2.7E-10 Ry

     iteration # 17     ecut=   120.00 Ry     beta= 0.70
     Davidson diagonalization with overlap
     ethr =  1.00E-13,  avg # of iterations =  2.0

     End of self-consistent calculation

     Number of k-points >= 100: set verbosity='high' to print the bands.

     the Fermi energy is     8.5247 ev

!    total energy              =   -6261.10920715 Ry
     Harris-Foulkes estimate   =   -6261.10920715 Ry
     estimated scf accuracy    <          8.0E-11 Ry

     The total energy is the sum of the following terms:

     one-electron contribution =   -4732.42203903 Ry
     hartree contribution      =    2602.32151811 Ry
     xc contribution           =    -965.66925052 Ry
     ewald contribution        =   -3165.33943572 Ry
     smearing contrib. (-TS)   =      -0.00000000 Ry

     convergence has been achieved in  17 iterations

     Forces acting on atoms (cartesian axes, Ry/au):

     atom    1 type  1   force =    -0.00000246    0.00220755    0.00000004
     atom    2 type  1   force =     0.00000246   -0.00220755   -0.00000004
     atom    3 type  1   force =    -0.00000248   -0.00220745   -0.00000103
     atom    4 type  1   force =     0.00000248    0.00220745    0.00000103
     atom    5 type  1   force =     0.00000266    0.00221171    0.00000004
     atom    6 type  1   force =    -0.00000266   -0.00221171   -0.00000004
     atom    7 type  1   force =     0.00000412   -0.00221130   -0.00000013
     atom    8 type  1   force =    -0.00000412    0.00221130    0.00000013
     atom    9 type  2   force =     0.00000006   -0.00108925   -0.00000001
     atom   10 type  2   force =    -0.00000006    0.00108925    0.00000001
     atom   11 type  2   force =    -0.00000003    0.00108922   -0.00000000
     atom   12 type  2   force =     0.00000003   -0.00108922    0.00000000
     atom   13 type  2   force =     0.00000004   -0.00108984   -0.00000001
     atom   14 type  2   force =    -0.00000004    0.00108984    0.00000001
     atom   15 type  2   force =     0.00000008    0.00109047   -0.00000001
     atom   16 type  2   force =    -0.00000008   -0.00109047    0.00000001
     atom   17 type  2   force =    -0.00000017   -0.00000001   -0.00042473
     atom   18 type  2   force =     0.00000017    0.00000001    0.00042473
     atom   19 type  2   force =     0.00000032    0.00000002   -0.00042472
     atom   20 type  2   force =    -0.00000032   -0.00000002    0.00042472
     atom   21 type  2   force =    -0.00000041   -0.00000001    0.00042472
     atom   22 type  2   force =     0.00000041    0.00000001   -0.00042472
     atom   23 type  2   force =     0.00000018   -0.00000002    0.00042475
     atom   24 type  2   force =    -0.00000018    0.00000002   -0.00042475
     atom   25 type  2   force =    -0.00042476   -0.00000001    0.00000011
     atom   26 type  2   force =     0.00042476    0.00000001   -0.00000011
     atom   27 type  2   force =     0.00042460   -0.00000001   -0.00000006
     atom   28 type  2   force =    -0.00042460    0.00000001    0.00000006
     atom   29 type  2   force =     0.00042484   -0.00000000    0.00000013
     atom   30 type  2   force =    -0.00042484    0.00000000   -0.00000013
     atom   31 type  2   force =    -0.00042467    0.00000001   -0.00000010
     atom   32 type  2   force =     0.00042467   -0.00000001    0.00000010

     Total force =     0.000000     Total SCF correction =     0.000000

     Computing stress (Cartesian axis) and pressure

          total   stress  (Ry/bohr**3)                   (kbar)     P=    0.05
   0.00000056   0.00000000  -0.00000000          0.08      0.00     -0.00
   0.00000000  -0.00000005   0.00000000          0.00     -0.01      0.00
  -0.00000000   0.00000000   0.00000056         -0.00      0.00      0.08

     Writing output data file Landau_6.save

     General routines

     Parallel routines

   This run was terminated on:   7:51:44  11Mar2020

   JOB DONE.