     Program PWSCF v.6.4.1 starts on 22Nov2019 at  1: 7:39

     K-points division:     npool     =      40
     Reading input from scf.in

     Current dimensions of program PWSCF are:
     Max number of different atomic species (ntypx) = 10
     Max number of k-points (npk) =  40000
     Max angular momentum in pseudopotentials (lmaxx) =  3

     Subspace diagonalization in iterative solution of the eigenvalue problem:
     a serial algorithm will be used

     Message from routine setup:
     using ibrav=0 with symmetry is DISCOURAGED, use correct ibrav instead

     bravais-lattice index     =            0
     lattice parameter (alat)  =      14.0439  a.u.
     unit-cell volume          =    2844.0623 (a.u.)^3
     number of atoms/cell      =           32
     number of atomic types    =            2
     number of electrons       =       368.36
     number of Kohn-Sham states=          221
     kinetic-energy cutoff     =     120.0000  Ry
     charge density cutoff     =     480.0000  Ry
     convergence threshold     =      1.0E-08
     mixing beta               =       0.7000
     number of iterations used =            8  plain     mixing
     Exchange-correlation      = SLA PW NOGX NOGC ( 1  4  0  0 0 0)

     celldm(1)=  14.043878  celldm(2)=   0.000000  celldm(3)=   0.000000
     celldm(4)=   0.000000  celldm(5)=   0.000000  celldm(6)=   0.000000

     crystal axes: (cart. coord. in units of alat)
               a(1) = (   1.000000   0.000000   0.000000 )
               a(2) = (   0.000000   1.026918   0.000000 )
               a(3) = (   0.000000   0.000000   0.999867 )

     reciprocal axes: (cart. coord. in units 2 pi/alat)
               b(1) = (  1.000000  0.000000  0.000000 )
               b(2) = (  0.000000  0.973788  0.000000 )
               b(3) = (  0.000000  0.000000  1.000133 )

     PseudoPot. # 1 for W  read from file:
     /cluster/scratch/mnoe/QE/pps/W_ONCV_LDA-4.0.upf
     MD5 check sum: ba0307d5d4cd419d6f1d13dc49d7c13a
     Pseudo is Norm-conserving + core correction, Zval = 28.0
     Generated using ONCVPSP code by D. R. Hamann
     Using radial grid of 1380 points,  8 beta functions with:
                l(1) =   0
                l(2) =   0
                l(3) =   1
                l(4) =   1
                l(5) =   2
                l(6) =   2
                l(7) =   3
                l(8) =   3

     PseudoPot. # 2 for O  read from file:
     /cluster/scratch/mnoe/QE/pps/O_ONCV_LDA-3.0.upf
     MD5 check sum: b55cdb4f45ae2203d24ad12cf8d61a31
     Pseudo is Norm-conserving + core correction, Zval =  6.0
     Generated using ONCVPSP code by D. R. Hamann
     Using radial grid of  926 points,  5 beta functions with:
                l(1) =   0
                l(2) =   0
                l(3) =   1
                l(4) =   1
                l(5) =   2

     atomic species   valence    mass     pseudopotential
        W             28.00   183.84000     W ( 1.00)
        O              6.00    15.99940     O ( 1.00)

      8 Sym. Ops., with inversion, found ( 6 have fractional translation)

   Cartesian axes

     site n.     atom                  positions (alat units)
         1           W   tau(   1) = (   0.2407500   0.2964218   0.0087388  )
         2           W   tau(   2) = (   0.7592500   0.7304958   0.9911283  )
         3           W   tau(   3) = (   0.2592500   0.2170370   0.5086724  )
         4           W   tau(   4) = (   0.7407500   0.8098806   0.4911947  )
         5           W   tau(   5) = (   0.7592500   0.2964218   0.4911947  )
         6           W   tau(   6) = (   0.2407500   0.7304958   0.5086724  )
         7           W   tau(   7) = (   0.7407500   0.2170370   0.9911283  )
         8           W   tau(   8) = (   0.2592500   0.8098806   0.0087388  )
         9           O   tau(   9) = (   0.2329400   0.0217419   0.0027196  )
        10           O   tau(  10) = (   0.7670600   1.0051758   0.9971475  )
        11           O   tau(  11) = (   0.2670600   0.4917169   0.5026532  )
        12           O   tau(  12) = (   0.7329400   0.5352007   0.4972139  )
        13           O   tau(  13) = (   0.7670600   0.0217419   0.4972139  )
        14           O   tau(  14) = (   0.2329400   1.0051758   0.5026532  )
        15           O   tau(  15) = (   0.7329400   0.4917169   0.9971475  )
        16           O   tau(  16) = (   0.2670600   0.5352007   0.0027196  )
        17           O   tau(  17) = (   0.5025300   0.2387584   0.4845816  )
        18           O   tau(  18) = (   0.4974700   0.7881593   0.5152855  )
        19           O   tau(  19) = (   0.9974700   0.2747005   0.9845152  )
        20           O   tau(  20) = (   0.0025300   0.7522172   0.0153520  )
        21           O   tau(  21) = (   0.4974700   0.2387584   0.0153520  )
        22           O   tau(  22) = (   0.5025300   0.7881593   0.9845152  )
        23           O   tau(  23) = (   0.0025300   0.2747005   0.5152855  )
        24           O   tau(  24) = (   0.9974700   0.7522172   0.4845816  )
        25           O   tau(  25) = (   0.7346461   0.2528066   0.7460608  )
        26           O   tau(  26) = (   0.2653540   0.7741111   0.2538063  )
        27           O   tau(  27) = (   0.7653540   0.2606523   0.2461273  )
        28           O   tau(  28) = (   0.2346460   0.7662654   0.7537399  )
        29           O   tau(  29) = (   0.2653540   0.2528066   0.7537399  )
        30           O   tau(  30) = (   0.7346461   0.7741111   0.2461273  )
        31           O   tau(  31) = (   0.2346460   0.2606523   0.2538063  )
        32           O   tau(  32) = (   0.7653540   0.7662654   0.7460608  )

     number of k points=    64  gaussian smearing, width (Ry)=  0.0007
                       cart. coord. in units 2pi/alat
        k(    1) = (   0.0000000   0.0000000   0.0000000), wk =   0.0092593
        k(    2) = (   0.0000000   0.0000000   0.1666888), wk =   0.0185185
        k(    3) = (   0.0000000   0.0000000   0.3333776), wk =   0.0185185
        k(    4) = (   0.0000000   0.0000000  -0.5000664), wk =   0.0092593
        k(    5) = (   0.0000000   0.1622980   0.0000000), wk =   0.0185185
        k(    6) = (   0.0000000   0.1622980   0.1666888), wk =   0.0370370
        k(    7) = (   0.0000000   0.1622980   0.3333776), wk =   0.0370370
        k(    8) = (   0.0000000   0.1622980  -0.5000664), wk =   0.0185185
        k(    9) = (   0.0000000   0.3245960   0.0000000), wk =   0.0185185
        k(   10) = (   0.0000000   0.3245960   0.1666888), wk =   0.0370370
        k(   11) = (   0.0000000   0.3245960   0.3333776), wk =   0.0370370
        k(   12) = (   0.0000000   0.3245960  -0.5000664), wk =   0.0185185
        k(   13) = (   0.0000000  -0.4868939   0.0000000), wk =   0.0092593
        k(   14) = (   0.0000000  -0.4868939   0.1666888), wk =   0.0185185
        k(   15) = (   0.0000000  -0.4868939   0.3333776), wk =   0.0185185
        k(   16) = (   0.0000000  -0.4868939  -0.5000664), wk =   0.0092593
        k(   17) = (   0.1666667   0.0000000   0.0000000), wk =   0.0185185
        k(   18) = (   0.1666667   0.0000000   0.1666888), wk =   0.0370370
        k(   19) = (   0.1666667   0.0000000   0.3333776), wk =   0.0370370
        k(   20) = (   0.1666667   0.0000000  -0.5000664), wk =   0.0185185
        k(   21) = (   0.1666667   0.1622980   0.0000000), wk =   0.0370370
        k(   22) = (   0.1666667   0.1622980   0.1666888), wk =   0.0740741
        k(   23) = (   0.1666667   0.1622980   0.3333776), wk =   0.0740741
        k(   24) = (   0.1666667   0.1622980  -0.5000664), wk =   0.0370370
        k(   25) = (   0.1666667   0.3245960   0.0000000), wk =   0.0370370
        k(   26) = (   0.1666667   0.3245960   0.1666888), wk =   0.0740741
        k(   27) = (   0.1666667   0.3245960   0.3333776), wk =   0.0740741
        k(   28) = (   0.1666667   0.3245960  -0.5000664), wk =   0.0370370
        k(   29) = (   0.1666667  -0.4868939   0.0000000), wk =   0.0185185
        k(   30) = (   0.1666667  -0.4868939   0.1666888), wk =   0.0370370
        k(   31) = (   0.1666667  -0.4868939   0.3333776), wk =   0.0370370
        k(   32) = (   0.1666667  -0.4868939  -0.5000664), wk =   0.0185185
        k(   33) = (   0.3333333   0.0000000   0.0000000), wk =   0.0185185
        k(   34) = (   0.3333333   0.0000000   0.1666888), wk =   0.0370370
        k(   35) = (   0.3333333   0.0000000   0.3333776), wk =   0.0370370
        k(   36) = (   0.3333333   0.0000000  -0.5000664), wk =   0.0185185
        k(   37) = (   0.3333333   0.1622980   0.0000000), wk =   0.0370370
        k(   38) = (   0.3333333   0.1622980   0.1666888), wk =   0.0740741
        k(   39) = (   0.3333333   0.1622980   0.3333776), wk =   0.0740741
        k(   40) = (   0.3333333   0.1622980  -0.5000664), wk =   0.0370370
        k(   41) = (   0.3333333   0.3245960   0.0000000), wk =   0.0370370
        k(   42) = (   0.3333333   0.3245960   0.1666888), wk =   0.0740741
        k(   43) = (   0.3333333   0.3245960   0.3333776), wk =   0.0740741
        k(   44) = (   0.3333333   0.3245960  -0.5000664), wk =   0.0370370
        k(   45) = (   0.3333333  -0.4868939   0.0000000), wk =   0.0185185
        k(   46) = (   0.3333333  -0.4868939   0.1666888), wk =   0.0370370
        k(   47) = (   0.3333333  -0.4868939   0.3333776), wk =   0.0370370
        k(   48) = (   0.3333333  -0.4868939  -0.5000664), wk =   0.0185185
        k(   49) = (  -0.5000000   0.0000000   0.0000000), wk =   0.0092593
        k(   50) = (  -0.5000000   0.0000000   0.1666888), wk =   0.0185185
        k(   51) = (  -0.5000000   0.0000000   0.3333776), wk =   0.0185185
        k(   52) = (  -0.5000000   0.0000000  -0.5000664), wk =   0.0092593
        k(   53) = (  -0.5000000   0.1622980   0.0000000), wk =   0.0185185
        k(   54) = (  -0.5000000   0.1622980   0.1666888), wk =   0.0370370
        k(   55) = (  -0.5000000   0.1622980   0.3333776), wk =   0.0370370
        k(   56) = (  -0.5000000   0.1622980  -0.5000664), wk =   0.0185185
        k(   57) = (  -0.5000000   0.3245960   0.0000000), wk =   0.0185185
        k(   58) = (  -0.5000000   0.3245960   0.1666888), wk =   0.0370370
        k(   59) = (  -0.5000000   0.3245960   0.3333776), wk =   0.0370370
        k(   60) = (  -0.5000000   0.3245960  -0.5000664), wk =   0.0185185
        k(   61) = (  -0.5000000  -0.4868939   0.0000000), wk =   0.0092593
        k(   62) = (  -0.5000000  -0.4868939   0.1666888), wk =   0.0185185
        k(   63) = (  -0.5000000  -0.4868939   0.3333776), wk =   0.0185185
        k(   64) = (  -0.5000000  -0.4868939  -0.5000664), wk =   0.0092593

     Initial potential from superposition of free atoms

     starting charge  367.99656, renormalised to  368.36000
     Starting wfcs are  232 randomized atomic wfcs

     Self-consistent Calculation

     iteration #  1     ecut=   120.00 Ry     beta= 0.70
     Davidson diagonalization with overlap
     ethr =  1.00E-02,  avg # of iterations =  5.2

     total energy              =   -6253.52027373 Ry
     Harris-Foulkes estimate   =   -6264.40505663 Ry
     estimated scf accuracy    <      13.73489123 Ry

[...]

     total energy              =   -6260.81753942 Ry
     Harris-Foulkes estimate   =   -6260.81753945 Ry
     estimated scf accuracy    <       0.00000005 Ry

     iteration # 13     ecut=   120.00 Ry     beta= 0.70
     Davidson diagonalization with overlap
     ethr =  1.31E-11,  avg # of iterations =  2.8

     End of self-consistent calculation

          k = 0.0000 0.0000 0.0000 ( 63135 PWs)   bands (ev):

   -66.3120 -66.3115 -66.3113 -66.3113 -66.3108 -66.3108 -66.3106 -66.3101
   -30.6967 -30.6928 -30.6895 -30.6859 -30.6659 -30.6624 -30.6611 -30.6592
   -30.6547 -30.6534 -30.6472 -30.6458 -30.6193 -30.6189 -30.6119 -30.6082
   -30.5778 -30.5770 -30.5751 -30.5708 -30.5698 -30.5684 -30.5625 -30.5608
   -20.4694 -20.4694 -20.4693 -20.4692 -20.4689 -20.4689 -20.4689 -20.4688
   -20.4549 -20.4548 -20.4546 -20.4546 -20.4542 -20.4541 -20.4540 -20.4539
   -20.4507 -20.4506 -20.4505 -20.4505 -20.4461 -20.4461 -20.4457 -20.4456
   -20.4454 -20.4451 -20.4450 -20.4448 -20.4437 -20.4436 -20.4434 -20.4434
   -20.4432 -20.4430 -20.4429 -20.4426 -20.4413 -20.4412 -20.4404 -20.4403
   -20.4397 -20.4395 -20.4387 -20.4385 -20.4355 -20.4353 -20.4344 -20.4341
   -20.4321 -20.4321 -20.4315 -20.4314 -20.4309 -20.4308 -20.4303 -20.4301
   -10.1471  -9.7700  -9.7682  -9.7675  -9.4143  -9.3995  -9.3487  -9.1326
    -9.1064  -9.0271  -9.0245  -9.0207  -8.0266  -7.9493  -7.9462  -7.9285
    -7.9242  -7.9181  -7.8918  -7.8865  -7.8718  -7.8597  -7.8425  -7.8390
     1.0122   1.0128   1.0803   1.0910   1.1073   1.1246   1.1667   1.2827
     1.2869   1.3143   1.3419   1.4746   2.3106   2.3209   2.3659   2.3795
     2.4006   2.4761   3.9535   3.9952   4.1284   4.1919   4.4838   4.5010
     4.5269   4.5501   4.5830   4.6670   4.6794   4.6874   4.9725   5.3667
     5.3802   5.3823   5.3911   5.4692   5.4788   5.5183   5.5739   5.6781
     5.7439   5.7574   5.7685   5.7740   5.7966   5.8433   5.9573   6.0439
     6.0779   6.1978   6.2658   6.2978   6.3061   6.5229   6.5475   6.5702
     6.5799   6.6472   6.9460   6.9623   6.9737   6.9755   6.9985   7.0018
     7.0161   7.0180   8.0289   8.0431   8.1239   8.1343   8.1582   8.1675
     9.0449   9.0612   9.5727   9.5908   9.6883   9.7186  12.3124  12.3803
    12.3814  12.4054  12.4222  12.4473  12.4596  12.4779  12.8136  13.0159
    13.0810  13.1443  13.3181  13.5140  13.5322  13.6297  13.9679  13.9955
    14.0319  14.0963  14.4024  14.4049  14.4997  14.5498  15.3415  15.4083
    15.5017  16.3465  16.7986  16.8490  16.9124

[...]

          k = 0.3333-0.4869-0.5001 ( 63120 PWs)   bands (ev):

[...]

          k =-0.5000 0.0000 0.0000 ( 63124 PWs)   bands (ev):

[...]

          k =-0.5000-0.4869-0.5001 ( 63056 PWs)   bands (ev):

   -66.3111 -66.3111 -66.3111 -66.3111 -66.3111 -66.3110 -66.3110 -66.3110
   -30.6601 -30.6601 -30.6601 -30.6601 -30.6589 -30.6589 -30.6589 -30.6589
   -30.6201 -30.6201 -30.6201 -30.6201 -30.6186 -30.6186 -30.6186 -30.6186
   -30.6019 -30.6019 -30.6019 -30.6019 -30.6004 -30.6004 -30.6004 -30.6004
   -20.4691 -20.4691 -20.4691 -20.4691 -20.4691 -20.4691 -20.4691 -20.4691
   -20.4545 -20.4545 -20.4545 -20.4545 -20.4545 -20.4545 -20.4545 -20.4545
   -20.4480 -20.4480 -20.4480 -20.4480 -20.4479 -20.4479 -20.4479 -20.4479
   -20.4440 -20.4440 -20.4440 -20.4440 -20.4439 -20.4439 -20.4439 -20.4439
   -20.4418 -20.4418 -20.4418 -20.4418 -20.4416 -20.4416 -20.4416 -20.4416
   -20.4377 -20.4377 -20.4377 -20.4377 -20.4377 -20.4377 -20.4377 -20.4377
   -20.4312 -20.4312 -20.4312 -20.4312 -20.4312 -20.4312 -20.4312 -20.4312
    -9.1619  -9.1619  -9.1619  -9.1619  -9.1407  -9.1407  -9.1407  -9.1407
    -8.5763  -8.5763  -8.5763  -8.5763  -8.5612  -8.5612  -8.5612  -8.5611
    -8.5121  -8.5121  -8.5121  -8.5121  -8.4784  -8.4784  -8.4784  -8.4784
     2.6620   2.6620   2.6620   2.6620   2.7741   2.7741   2.7741   2.7741
     2.8290   2.8290   2.8290   2.8290   2.9802   2.9802   2.9802   2.9802
     3.1524   3.1524   3.1525   3.1525   3.2765   3.2765   3.2765   3.2765
     3.9862   3.9862   3.9862   3.9863   4.0375   4.0375   4.0375   4.0375
     4.1680   4.1680   4.1680   4.1681   4.2098   4.2098   4.2098   4.2098
     4.3227   4.3227   4.3227   4.3227   4.3843   4.3843   4.3843   4.3843
     7.0110   7.0110   7.0110   7.0111   7.1448   7.1448   7.1449   7.1449
     7.1770   7.1770   7.1770   7.1770   7.2427   7.2427   7.2427   7.2427
     7.4376   7.4376   7.4376   7.4376   7.4950   7.4950   7.4950   7.4950
    11.6888  11.6888  11.6888  11.6888  11.7536  11.7536  11.7536  11.7536
    12.0308  12.0308  12.0308  12.0308  12.1669  12.1669  12.1669  12.1669
    12.2299  12.2299  12.2299  12.2299  12.3295  12.3295  12.3295  12.3295
    16.7407  16.7407  16.7407  16.7407  16.8503  16.8503  16.8503  16.8503
    17.3201  17.3201  17.3201  17.3202  17.3866

     the Fermi energy is     9.4010 ev

!    total energy              =   -6260.81753943 Ry
     Harris-Foulkes estimate   =   -6260.81753943 Ry
     estimated scf accuracy    <          1.3E-09 Ry

     The total energy is the sum of the following terms:

     one-electron contribution =   -4779.72475407 Ry
     hartree contribution      =    2624.85773385 Ry
     xc contribution           =    -966.10240030 Ry
     ewald contribution        =   -3139.84805294 Ry
     smearing contrib. (-TS)   =      -0.00006597 Ry

     convergence has been achieved in  13 iterations

     Writing output data file Landau_20.save/

     General routines

     Parallel routines

   This run was terminated on:   1:40: 3  22Nov2019

   JOB DONE.