     Program PWSCF v.6.2 (svn rev. 14038) starts on  5Mar2020 at 17:27: 1

     K-points division:     npool     =      64
     Reading input from rscf.in

     Current dimensions of program PWSCF are:
     Max number of different atomic species (ntypx) = 10
     Max number of k-points (npk) =  40000
     Max angular momentum in pseudopotentials (lmaxx) =  3

     Subspace diagonalization in iterative solution of the eigenvalue problem:
     a serial algorithm will be used

     bravais-lattice index     =            0
     lattice parameter (alat)  =      13.8397  a.u.
     unit-cell volume          =    2804.9816 (a.u.)^3
     number of atoms/cell      =           32
     number of atomic types    =            2
     number of electrons       =       368.00
     number of Kohn-Sham states=          221
     kinetic-energy cutoff     =     120.0000  Ry
     charge density cutoff     =     480.0000  Ry
     convergence threshold     =      1.0E-08
     mixing beta               =       0.7000
     number of iterations used =            8  plain     mixing
     Exchange-correlation      = SLA PW NOGX NOGC ( 1  4  0  0 0 0)
     nstep                     =           50

     celldm(1)=  13.839685  celldm(2)=   0.000000  celldm(3)=   0.000000
     celldm(4)=   0.000000  celldm(5)=   0.000000  celldm(6)=   0.000000

     crystal axes: (cart. coord. in units of alat)
               a(1) = (   1.000000   0.000000   0.000000 )
               a(2) = (   0.000000   1.058160   0.000000 )
               a(3) = (   0.000000   0.000000   1.000000 )

     reciprocal axes: (cart. coord. in units 2 pi/alat)
               b(1) = (  1.000000  0.000000  0.000000 )
               b(2) = (  0.000000  0.945037  0.000000 )
               b(3) = (  0.000000  0.000000  1.000000 )

     PseudoPot. # 1 for W  read from file:
     /cluster/scratch/mnoe/QE/pps/W_ONCV_LDA-4.0.upf
     MD5 check sum: ba0307d5d4cd419d6f1d13dc49d7c13a
     Pseudo is Norm-conserving + core correction, Zval = 28.0
     Generated using ONCVPSP code by D. R. Hamann
     Using radial grid of 1380 points,  8 beta functions with:
                l(1) =   0
                l(2) =   0
                l(3) =   1
                l(4) =   1
                l(5) =   2
                l(6) =   2
                l(7) =   3
                l(8) =   3

     PseudoPot. # 2 for O  read from file:
     /cluster/scratch/mnoe/QE/pps/O_ONCV_LDA-3.0.upf
     MD5 check sum: a1bd6164e7280c17a38c229939bfbd54
     Pseudo is Norm-conserving + core correction, Zval =  6.0
     Generated using ONCVPSP code by D. R. Hamann
     Using radial grid of  926 points,  5 beta functions with:
                l(1) =   0
                l(2) =   0
                l(3) =   1
                l(4) =   1
                l(5) =   2

     atomic species   valence    mass     pseudopotential
        W             28.00   183.84000     W ( 1.00)
        O              6.00    15.99940     O ( 1.00)

      8 Sym. Ops., with inversion, found ( 6 have fractional translation)

   Cartesian axes

     site n.     atom                  positions (alat units)
         1           W   tau(   1) = (   0.2472300   0.2993757   0.0026200  )
         2           W   tau(   2) = (   0.7527700   0.7587844   0.9973800  )
         3           W   tau(   3) = (   0.2527700   0.2297043   0.5026200  )
         4           W   tau(   4) = (   0.7472300   0.8284557   0.4973800  )
         5           W   tau(   5) = (   0.7527700   0.2993757   0.4973800  )
         6           W   tau(   6) = (   0.2472300   0.7587844   0.5026200  )
         7           W   tau(   7) = (   0.7472300   0.2297043   0.9973800  )
         8           W   tau(   8) = (   0.2527700   0.8284557   0.0026200  )
         9           O   tau(   9) = (   0.2448800   0.0109283   0.0008200  )
        10           O   tau(  10) = (   0.7551200   1.0472318   0.9991800  )
        11           O   tau(  11) = (   0.2551200   0.5181517   0.5008200  )
        12           O   tau(  12) = (   0.7448800   0.5400083   0.4991800  )
        13           O   tau(  13) = (   0.7551200   0.0109283   0.4991800  )
        14           O   tau(  14) = (   0.2448800   1.0472318   0.5008200  )
        15           O   tau(  15) = (   0.7448800   0.5181517   0.9991800  )
        16           O   tau(  16) = (   0.2551200   0.5400083   0.0008200  )
        17           O   tau(  17) = (   0.5007600   0.2589847   0.4550240  )
        18           O   tau(  18) = (   0.4992400   0.7991754   0.5449760  )
        19           O   tau(  19) = (   0.9992399   0.2700954   0.9550240  )
        20           O   tau(  20) = (   0.0007601   0.7880648   0.0449760  )
        21           O   tau(  21) = (   0.4992400   0.2589847   0.0449760  )
        22           O   tau(  22) = (   0.5007600   0.7991754   0.9550240  )
        23           O   tau(  23) = (   0.0007601   0.2700954   0.5449760  )
        24           O   tau(  24) = (   0.9992399   0.7880648   0.4550240  )
        25           O   tau(  25) = (   0.7050240   0.2633231   0.7488500  )
        26           O   tau(  26) = (   0.2949760   0.7948370   0.2511500  )
        27           O   tau(  27) = (   0.7949760   0.2657569   0.2488500  )
        28           O   tau(  28) = (   0.2050240   0.7924032   0.7511500  )
        29           O   tau(  29) = (   0.2949760   0.2633231   0.7511500  )
        30           O   tau(  30) = (   0.7050240   0.7948370   0.2488500  )
        31           O   tau(  31) = (   0.2050240   0.2657569   0.2511500  )
        32           O   tau(  32) = (   0.7949760   0.7924032   0.7488500  )

     number of k points=    64  gaussian smearing, width (Ry)=  0.0007
                       cart. coord. in units 2pi/alat
        k(    1) = (   0.0000000   0.0000000   0.0000000), wk =   0.0092593
        k(    2) = (   0.0000000   0.0000000   0.1666667), wk =   0.0185185
        k(    3) = (   0.0000000   0.0000000   0.3333333), wk =   0.0185185
        k(    4) = (   0.0000000   0.0000000  -0.5000000), wk =   0.0092593
        k(    5) = (   0.0000000   0.1575061   0.0000000), wk =   0.0185185
        k(    6) = (   0.0000000   0.1575061   0.1666667), wk =   0.0370370
        k(    7) = (   0.0000000   0.1575061   0.3333333), wk =   0.0370370
        k(    8) = (   0.0000000   0.1575061  -0.5000000), wk =   0.0185185
        k(    9) = (   0.0000000   0.3150122   0.0000000), wk =   0.0185185
        k(   10) = (   0.0000000   0.3150122   0.1666667), wk =   0.0370370
        k(   11) = (   0.0000000   0.3150122   0.3333333), wk =   0.0370370
        k(   12) = (   0.0000000   0.3150122  -0.5000000), wk =   0.0185185
        k(   13) = (   0.0000000  -0.4725183   0.0000000), wk =   0.0092593
        k(   14) = (   0.0000000  -0.4725183   0.1666667), wk =   0.0185185
        k(   15) = (   0.0000000  -0.4725183   0.3333333), wk =   0.0185185
        k(   16) = (   0.0000000  -0.4725183  -0.5000000), wk =   0.0092593
        k(   17) = (   0.1666667   0.0000000   0.1666667), wk =   0.0370370
        k(   18) = (   0.1666667   0.0000000   0.3333333), wk =   0.0370370
        k(   19) = (   0.1666667   0.0000000  -0.5000000), wk =   0.0185185
        k(   20) = (   0.1666667   0.1575061   0.1666667), wk =   0.0740741
        k(   21) = (   0.1666667   0.1575061   0.3333333), wk =   0.0740741
        k(   22) = (   0.1666667   0.1575061  -0.5000000), wk =   0.0370370
        k(   23) = (   0.1666667   0.3150122   0.1666667), wk =   0.0740741
        k(   24) = (   0.1666667   0.3150122   0.3333333), wk =   0.0740741
        k(   25) = (   0.1666667   0.3150122  -0.5000000), wk =   0.0370370
        k(   26) = (   0.1666667  -0.4725183   0.1666667), wk =   0.0370370
        k(   27) = (   0.1666667  -0.4725183   0.3333333), wk =   0.0370370
        k(   28) = (   0.1666667  -0.4725183  -0.5000000), wk =   0.0185185
        k(   29) = (   0.3333333   0.0000000   0.3333333), wk =   0.0370370
        k(   30) = (   0.3333333   0.0000000  -0.5000000), wk =   0.0185185
        k(   31) = (   0.3333333   0.1575061   0.3333333), wk =   0.0740741
        k(   32) = (   0.3333333   0.1575061  -0.5000000), wk =   0.0370370
        k(   33) = (   0.3333333   0.3150122   0.3333333), wk =   0.0740741
        k(   34) = (   0.3333333   0.3150122  -0.5000000), wk =   0.0370370
        k(   35) = (   0.3333333  -0.4725183   0.3333333), wk =   0.0370370
        k(   36) = (   0.3333333  -0.4725183  -0.5000000), wk =   0.0185185
        k(   37) = (  -0.5000000   0.0000000  -0.5000000), wk =   0.0092593
        k(   38) = (  -0.5000000   0.1575061  -0.5000000), wk =   0.0185185
        k(   39) = (  -0.5000000   0.3150122  -0.5000000), wk =   0.0185185
        k(   40) = (  -0.5000000  -0.4725183  -0.5000000), wk =   0.0092593
        k(   41) = (   0.1666667   0.0000000   0.0000000), wk =   0.0185185
        k(   42) = (   0.3333333   0.0000000   0.0000000), wk =   0.0185185
        k(   43) = (  -0.5000000   0.0000000   0.0000000), wk =   0.0092593
        k(   44) = (   0.1666667  -0.1575061   0.0000000), wk =   0.0370370
        k(   45) = (   0.3333333  -0.1575061   0.0000000), wk =   0.0370370
        k(   46) = (  -0.5000000  -0.1575061   0.0000000), wk =   0.0185185
        k(   47) = (   0.1666667  -0.3150122   0.0000000), wk =   0.0370370
        k(   48) = (   0.3333333  -0.3150122   0.0000000), wk =   0.0370370
        k(   49) = (  -0.5000000  -0.3150122   0.0000000), wk =   0.0185185
        k(   50) = (   0.1666667   0.4725183   0.0000000), wk =   0.0185185
        k(   51) = (   0.3333333   0.4725183   0.0000000), wk =   0.0185185
        k(   52) = (  -0.5000000   0.4725183   0.0000000), wk =   0.0092593
        k(   53) = (   0.3333333   0.0000000   0.1666667), wk =   0.0370370
        k(   54) = (  -0.5000000   0.0000000   0.1666667), wk =   0.0185185
        k(   55) = (   0.3333333  -0.1575061   0.1666667), wk =   0.0740741
        k(   56) = (  -0.5000000  -0.1575061   0.1666667), wk =   0.0370370
        k(   57) = (   0.3333333  -0.3150122   0.1666667), wk =   0.0740741
        k(   58) = (  -0.5000000  -0.3150122   0.1666667), wk =   0.0370370
        k(   59) = (   0.3333333   0.4725183   0.1666667), wk =   0.0370370
        k(   60) = (  -0.5000000   0.4725183   0.1666667), wk =   0.0185185
        k(   61) = (  -0.5000000   0.0000000   0.3333333), wk =   0.0185185
        k(   62) = (  -0.5000000  -0.1575061   0.3333333), wk =   0.0370370
        k(   63) = (  -0.5000000  -0.3150122   0.3333333), wk =   0.0370370
        k(   64) = (  -0.5000000   0.4725183   0.3333333), wk =   0.0185185

     Initial potential from superposition of free atoms

     starting charge  367.99656, renormalised to  368.00000
     Starting wfc are  232 randomized atomic wfcs

     Self-consistent Calculation

     iteration #  1     ecut=   120.00 Ry     beta= 0.70
     Davidson diagonalization with overlap
     ethr =  1.00E-02,  avg # of iterations =  5.0

     total energy              =   -6254.00239776 Ry
     Harris-Foulkes estimate   =   -6264.58693622 Ry
     estimated scf accuracy    <      13.40860069 Ry

[...]

     End of self-consistent calculation

[...]
     Results may differ from those at the preceding step.

     bravais-lattice index     =            0
     lattice parameter (alat)  =      13.8397  a.u.
     unit-cell volume          =    2816.6003 (a.u.)^3
     number of atoms/cell      =           32
     number of atomic types    =            2
     number of electrons       =       368.00
     number of Kohn-Sham states=          221
     kinetic-energy cutoff     =     120.0000  Ry
     charge density cutoff     =     480.0000  Ry
     convergence threshold     =      1.0E-10
     mixing beta               =       0.7000
     number of iterations used =            8  plain     mixing
     Exchange-correlation      = SLA PW NOGX NOGC ( 1  4  0  0 0 0)

     celldm(1)=  13.839685  celldm(2)=   0.000000  celldm(3)=   0.000000
     celldm(4)=   0.000000  celldm(5)=   0.000000  celldm(6)=   0.000000

     crystal axes: (cart. coord. in units of alat)
               a(1) = (   1.003181   0.000000   0.000000 )
               a(2) = (   0.000000   1.055654   0.000000 )
               a(3) = (   0.000000   0.000000   1.003335 )

     reciprocal axes: (cart. coord. in units 2 pi/alat)
               b(1) = (  0.996829  0.000000  0.000000 )
               b(2) = (  0.000000  0.947280  0.000000 )
               b(3) = (  0.000000  0.000000  0.996676 )

     PseudoPot. # 1 for W  read from file:
     /cluster/scratch/mnoe/QE/pps/W_ONCV_LDA-4.0.upf
     MD5 check sum: ba0307d5d4cd419d6f1d13dc49d7c13a
     Pseudo is Norm-conserving + core correction, Zval = 28.0
     Generated using ONCVPSP code by D. R. Hamann
     Using radial grid of 1380 points,  8 beta functions with:
                l(1) =   0
                l(2) =   0
                l(3) =   1
                l(4) =   1
                l(5) =   2
                l(6) =   2
                l(7) =   3
                l(8) =   3

     PseudoPot. # 2 for O  read from file:
     /cluster/scratch/mnoe/QE/pps/O_ONCV_LDA-3.0.upf
     MD5 check sum: a1bd6164e7280c17a38c229939bfbd54
     Pseudo is Norm-conserving + core correction, Zval =  6.0
     Generated using ONCVPSP code by D. R. Hamann
     Using radial grid of  926 points,  5 beta functions with:
                l(1) =   0
                l(2) =   0
                l(3) =   1
                l(4) =   1
                l(5) =   2

     atomic species   valence    mass     pseudopotential
        W             28.00   183.84000     W ( 1.00)
        O              6.00    15.99940     O ( 1.00)

      8 Sym. Ops., with inversion, found ( 6 have fractional translation)

   Cartesian axes

     site n.     atom                  positions (alat units)
         1           W   tau(   1) = (   0.2480164   0.2986666   0.0026287  )
         2           W   tau(   2) = (   0.7551643   0.7569871   1.0007062  )
         3           W   tau(   3) = (   0.2535740   0.2291603   0.5042962  )
         4           W   tau(   4) = (   0.7496067   0.8264934   0.4990387  )
         5           W   tau(   5) = (   0.7551643   0.2986666   0.4990387  )
         6           W   tau(   6) = (   0.2480164   0.7569871   0.5042962  )
         7           W   tau(   7) = (   0.7496067   0.2291603   1.0007062  )
         8           W   tau(   8) = (   0.2535740   0.8264934   0.0026287  )
         9           O   tau(   9) = (   0.2456589   0.0109024   0.0008227  )
        10           O   tau(  10) = (   0.7575218   1.0447513   1.0025122  )
        11           O   tau(  11) = (   0.2559314   0.5169244   0.5024902  )
        12           O   tau(  12) = (   0.7472492   0.5387292   0.5008447  )
        13           O   tau(  13) = (   0.7575218   0.0109024   0.5008447  )
        14           O   tau(  14) = (   0.2456589   1.0447513   0.5024902  )
        15           O   tau(  15) = (   0.7472492   0.5169244   1.0025122  )
        16           O   tau(  16) = (   0.2559314   0.5387292   0.0008227  )
        17           O   tau(  17) = (   0.5023528   0.2583712   0.4565415  )
        18           O   tau(  18) = (   0.5008279   0.7972824   0.5467934  )
        19           O   tau(  19) = (   1.0024182   0.2694556   0.9582090  )
        20           O   tau(  20) = (   0.0007625   0.7861981   0.0451260  )
        21           O   tau(  21) = (   0.5008279   0.2583712   0.0451260  )
        22           O   tau(  22) = (   0.5023528   0.7972824   0.9582090  )
        23           O   tau(  23) = (   0.0007625   0.2694556   0.5467934  )
        24           O   tau(  24) = (   1.0024182   0.7861981   0.4565415  )
        25           O   tau(  25) = (   0.7072665   0.2626994   0.7513474  )
        26           O   tau(  26) = (   0.2959142   0.7929543   0.2519876  )
        27           O   tau(  27) = (   0.7975045   0.2651274   0.2496799  )
        28           O   tau(  28) = (   0.2056761   0.7905263   0.7536550  )
        29           O   tau(  29) = (   0.2959142   0.2626994   0.7536550  )
        30           O   tau(  30) = (   0.7072665   0.7929543   0.2496799  )
        31           O   tau(  31) = (   0.2056761   0.2651274   0.2519876  )
        32           O   tau(  32) = (   0.7975045   0.7905263   0.7513474  )

     number of k points=    64  gaussian smearing, width (Ry)=  0.0007
                       cart. coord. in units 2pi/alat
        k(    1) = (   0.0000000   0.0000000   0.0000000), wk =   0.0092593
        k(    2) = (   0.0000000   0.0000000   0.1661127), wk =   0.0185185
        k(    3) = (   0.0000000   0.0000000   0.3322254), wk =   0.0185185
        k(    4) = (   0.0000000   0.0000000  -0.4983381), wk =   0.0092593
        k(    5) = (   0.0000000   0.1578801   0.0000000), wk =   0.0185185
        k(    6) = (   0.0000000   0.1578801   0.1661127), wk =   0.0370370
        k(    7) = (   0.0000000   0.1578801   0.3322254), wk =   0.0370370
        k(    8) = (   0.0000000   0.1578801  -0.4983381), wk =   0.0185185
        k(    9) = (   0.0000000   0.3157601   0.0000000), wk =   0.0185185
        k(   10) = (   0.0000000   0.3157601   0.1661127), wk =   0.0370370
        k(   11) = (   0.0000000   0.3157601   0.3322254), wk =   0.0370370
        k(   12) = (   0.0000000   0.3157601  -0.4983381), wk =   0.0185185
        k(   13) = (   0.0000000  -0.4736402   0.0000000), wk =   0.0092593
        k(   14) = (   0.0000000  -0.4736402   0.1661127), wk =   0.0185185
        k(   15) = (   0.0000000  -0.4736402   0.3322254), wk =   0.0185185
        k(   16) = (   0.0000000  -0.4736402  -0.4983381), wk =   0.0092593
        k(   17) = (   0.1661382   0.0000000   0.1661127), wk =   0.0370370
        k(   18) = (   0.1661382   0.0000000   0.3322254), wk =   0.0370370
        k(   19) = (   0.1661382   0.0000000  -0.4983381), wk =   0.0185185
        k(   20) = (   0.1661382   0.1578801   0.1661127), wk =   0.0740741
        k(   21) = (   0.1661382   0.1578801   0.3322254), wk =   0.0740741
        k(   22) = (   0.1661382   0.1578801  -0.4983381), wk =   0.0370370
        k(   23) = (   0.1661382   0.3157601   0.1661127), wk =   0.0740741
        k(   24) = (   0.1661382   0.3157601   0.3322254), wk =   0.0740741
        k(   25) = (   0.1661382   0.3157601  -0.4983381), wk =   0.0370370
        k(   26) = (   0.1661382  -0.4736402   0.1661127), wk =   0.0370370
        k(   27) = (   0.1661382  -0.4736402   0.3322254), wk =   0.0370370
        k(   28) = (   0.1661382  -0.4736402  -0.4983381), wk =   0.0185185
        k(   29) = (   0.3322765   0.0000000   0.3322254), wk =   0.0370370
        k(   30) = (   0.3322765   0.0000000  -0.4983381), wk =   0.0185185
        k(   31) = (   0.3322765   0.1578801   0.3322254), wk =   0.0740741
        k(   32) = (   0.3322765   0.1578801  -0.4983381), wk =   0.0370370
        k(   33) = (   0.3322765   0.3157601   0.3322254), wk =   0.0740741
        k(   34) = (   0.3322765   0.3157601  -0.4983381), wk =   0.0370370
        k(   35) = (   0.3322765  -0.4736402   0.3322254), wk =   0.0370370
        k(   36) = (   0.3322765  -0.4736402  -0.4983381), wk =   0.0185185
        k(   37) = (  -0.4984147   0.0000000  -0.4983381), wk =   0.0092593
        k(   38) = (  -0.4984147   0.1578801  -0.4983381), wk =   0.0185185
        k(   39) = (  -0.4984147   0.3157601  -0.4983381), wk =   0.0185185
        k(   40) = (  -0.4984147  -0.4736402  -0.4983381), wk =   0.0092593
        k(   41) = (   0.1661382   0.0000000   0.0000000), wk =   0.0185185
        k(   42) = (   0.3322765   0.0000000   0.0000000), wk =   0.0185185
        k(   43) = (  -0.4984147   0.0000000   0.0000000), wk =   0.0092593
        k(   44) = (   0.1661382  -0.1578801   0.0000000), wk =   0.0370370
        k(   45) = (   0.3322765  -0.1578801   0.0000000), wk =   0.0370370
        k(   46) = (  -0.4984147  -0.1578801   0.0000000), wk =   0.0185185
        k(   47) = (   0.1661382  -0.3157601   0.0000000), wk =   0.0370370
        k(   48) = (   0.3322765  -0.3157601   0.0000000), wk =   0.0370370
        k(   49) = (  -0.4984147  -0.3157601   0.0000000), wk =   0.0185185
        k(   50) = (   0.1661382   0.4736402   0.0000000), wk =   0.0185185
        k(   51) = (   0.3322765   0.4736402   0.0000000), wk =   0.0185185
        k(   52) = (  -0.4984147   0.4736402   0.0000000), wk =   0.0092593
        k(   53) = (   0.3322765   0.0000000   0.1661127), wk =   0.0370370
        k(   54) = (  -0.4984147   0.0000000   0.1661127), wk =   0.0185185
        k(   55) = (   0.3322765  -0.1578801   0.1661127), wk =   0.0740741
        k(   56) = (  -0.4984147  -0.1578801   0.1661127), wk =   0.0370370
        k(   57) = (   0.3322765  -0.3157601   0.1661127), wk =   0.0740741
        k(   58) = (  -0.4984147  -0.3157601   0.1661127), wk =   0.0370370
        k(   59) = (   0.3322765   0.4736402   0.1661127), wk =   0.0370370
        k(   60) = (  -0.4984147   0.4736402   0.1661127), wk =   0.0185185
        k(   61) = (  -0.4984147   0.0000000   0.3322254), wk =   0.0185185
        k(   62) = (  -0.4984147  -0.1578801   0.3322254), wk =   0.0370370
        k(   63) = (  -0.4984147  -0.3157601   0.3322254), wk =   0.0370370
        k(   64) = (  -0.4984147   0.4736402   0.3322254), wk =   0.0185185

     Initial potential from superposition of free atoms

     starting charge  367.99656, renormalised to  368.00000
     Starting wfc are  232 randomized atomic wfcs

     Writing output data file Landau_6.save

     Self-consistent Calculation

     iteration #  1     ecut=   120.00 Ry     beta= 0.70
     Davidson diagonalization with overlap
     c_bands:  1 eigenvalues not converged
     ethr =  1.00E-06,  avg # of iterations = 14.6

[...]

     total energy              =   -6261.10814984 Ry
     Harris-Foulkes estimate   =   -6261.10814984 Ry
     estimated scf accuracy    <          4.8E-10 Ry

     iteration # 14     ecut=   120.00 Ry     beta= 0.70
     Davidson diagonalization with overlap
     ethr =  1.30E-13,  avg # of iterations =  3.1

     End of self-consistent calculation

[...]

          k = 0.3323 0.4736 0.1661 ( 62488 PWs)   bands (ev):

[...]

          k =-0.4984 0.4736 0.3322 ( 62476 PWs)   bands (ev):

   -66.2441 -66.2441 -66.2441 -66.2441 -66.2436 -66.2436 -66.2436 -66.2436
   -30.6010 -30.6010 -30.6008 -30.6008 -30.5990 -30.5990 -30.5988 -30.5988
   -30.5608 -30.5608 -30.5608 -30.5608 -30.5378 -30.5378 -30.5375 -30.5375
   -30.5355 -30.5355 -30.5352 -30.5352 -30.5131 -30.5131 -30.5131 -30.5131
   -20.4059 -20.4059 -20.4059 -20.4058 -20.4058 -20.4058 -20.4058 -20.4058
   -20.3842 -20.3842 -20.3842 -20.3842 -20.3838 -20.3838 -20.3838 -20.3838
   -20.3831 -20.3831 -20.3831 -20.3831 -20.3828 -20.3828 -20.3827 -20.3827
   -20.3826 -20.3825 -20.3825 -20.3825 -20.3823 -20.3823 -20.3823 -20.3823
   -20.3737 -20.3737 -20.3737 -20.3737 -20.3728 -20.3728 -20.3728 -20.3728
   -20.3709 -20.3709 -20.3709 -20.3709 -20.3697 -20.3697 -20.3697 -20.3697
   -20.3691 -20.3691 -20.3691 -20.3691 -20.3676 -20.3676 -20.3676 -20.3676
    -9.2502  -9.2502  -9.2473  -9.2473  -8.8562  -8.8562  -8.8488  -8.8488
    -8.6118  -8.6118  -8.6047  -8.6047  -8.4465  -8.4465  -8.4358  -8.4358
    -8.4059  -8.4059  -8.3967  -8.3967  -8.1736  -8.1736  -8.1726  -8.1725
     2.1826   2.1826   2.1869   2.1869   2.9190   2.9190   2.9396   2.9396
     3.0393   3.0393   3.0460   3.0460   3.1848   3.1848   3.2090   3.2090
     3.3035   3.3035   3.3329   3.3330   3.5578   3.5578   3.5773   3.5773
     3.6959   3.6959   3.7522   3.7522   4.2074   4.2074   4.2330   4.2330
     4.2822   4.2822   4.3377   4.3377   4.4053   4.4053   4.5087   4.5087
     4.6003   4.6003   4.7478   4.7478   4.9850   4.9850   4.9998   4.9999
     6.9752   6.9752   7.0151   7.0152   7.1200   7.1200   7.1268   7.1268
     7.2216   7.2216   7.2552   7.2552   7.2839   7.2839   7.3370   7.3370
     7.4271   7.4271   7.4842   7.4842   7.5637   7.5637   7.5872   7.5872
    11.3349  11.3349  11.3639  11.3639  11.6774  11.6774  11.7431  11.7431
    12.1164  12.1164  12.1679  12.1679  12.2583  12.2583  12.2808  12.2808
    12.4236  12.4236  12.5269  12.5269  12.9108  12.9108  12.9854  12.9854
    16.3705  16.3705  16.4189  16.4189  16.9844  16.9844  17.0055  17.0055
    17.2635  17.2642  17.3293  17.3304  17.3404

     the Fermi energy is     8.8768 ev

!    total energy              =   -6261.10814984 Ry
     Harris-Foulkes estimate   =   -6261.10814984 Ry
     estimated scf accuracy    <          7.2E-11 Ry

     The total energy is the sum of the following terms:

     one-electron contribution =   -4738.36299023 Ry
     hartree contribution      =    2604.98066075 Ry
     xc contribution           =    -965.67555891 Ry
     ewald contribution        =   -3162.05026146 Ry
     smearing contrib. (-TS)   =      -0.00000000 Ry

     convergence has been achieved in  14 iterations

     Forces acting on atoms (cartesian axes, Ry/au):

     atom    1 type  1   force =    -0.00127552    0.00136638    0.00097578
     atom    2 type  1   force =     0.00127552   -0.00136638   -0.00097578
     atom    3 type  1   force =     0.00127552   -0.00136638    0.00097578
     atom    4 type  1   force =    -0.00127552    0.00136638   -0.00097578
     atom    5 type  1   force =     0.00127552    0.00136638   -0.00097578
     atom    6 type  1   force =    -0.00127552   -0.00136638    0.00097578
     atom    7 type  1   force =    -0.00127552   -0.00136638   -0.00097578
     atom    8 type  1   force =     0.00127552    0.00136638    0.00097578
     atom    9 type  2   force =    -0.00006365   -0.00885615    0.00013327
     atom   10 type  2   force =     0.00006365    0.00885615   -0.00013327
     atom   11 type  2   force =     0.00006365    0.00885615    0.00013327
     atom   12 type  2   force =    -0.00006365   -0.00885615   -0.00013327
     atom   13 type  2   force =     0.00006365   -0.00885615   -0.00013327
     atom   14 type  2   force =    -0.00006365    0.00885615    0.00013327
     atom   15 type  2   force =    -0.00006365    0.00885615   -0.00013327
     atom   16 type  2   force =     0.00006365   -0.00885615    0.00013327
     atom   17 type  2   force =    -0.00055297   -0.00018158   -0.00097554
     atom   18 type  2   force =     0.00055297    0.00018158    0.00097554
     atom   19 type  2   force =     0.00055297    0.00018158   -0.00097554
     atom   20 type  2   force =    -0.00055297   -0.00018158    0.00097554
     atom   21 type  2   force =     0.00055297   -0.00018158    0.00097554
     atom   22 type  2   force =    -0.00055297    0.00018158   -0.00097554
     atom   23 type  2   force =    -0.00055297    0.00018158    0.00097554
     atom   24 type  2   force =     0.00055297   -0.00018158   -0.00097554
     atom   25 type  2   force =    -0.00107685   -0.00045292    0.00058261
     atom   26 type  2   force =     0.00107685    0.00045292   -0.00058261
     atom   27 type  2   force =     0.00107685    0.00045292    0.00058261
     atom   28 type  2   force =    -0.00107685   -0.00045292   -0.00058261
     atom   29 type  2   force =     0.00107685   -0.00045292   -0.00058261
     atom   30 type  2   force =    -0.00107685    0.00045292    0.00058261
     atom   31 type  2   force =    -0.00107685    0.00045292   -0.00058261
     atom   32 type  2   force =     0.00107685   -0.00045292    0.00058261

     Total force =     0.000000     Total SCF correction =     0.000000

     Computing stress (Cartesian axis) and pressure

          total   stress  (Ry/bohr**3)                   (kbar)     P=    0.08
   0.00000092   0.00000000   0.00000000          0.14      0.00      0.00
   0.00000000  -0.00000016   0.00000000          0.00     -0.02      0.00
   0.00000000   0.00000000   0.00000095          0.00      0.00      0.14

     Writing output data file Landau_6.save

     General routines

     Parallel routines

   This run was terminated on:  19:30:28   5Mar2020

   JOB DONE.