     Program PWSCF v.6.2 (svn rev. 14038) starts on 21Mar2020 at 15:12:20

     K-points division:     npool     =      40
     Reading input from scf.in

     Current dimensions of program PWSCF are:
     Max number of different atomic species (ntypx) = 10
     Max number of k-points (npk) =  40000
     Max angular momentum in pseudopotentials (lmaxx) =  3

     Subspace diagonalization in iterative solution of the eigenvalue problem:
     a serial algorithm will be used

     bravais-lattice index     =            0
     lattice parameter (alat)  =      14.1890  a.u.
     unit-cell volume          =    2881.1183 (a.u.)^3
     number of atoms/cell      =           32
     number of atomic types    =            2
     number of electrons       =       368.60
     number of Kohn-Sham states=          221
     kinetic-energy cutoff     =     120.0000  Ry
     charge density cutoff     =     480.0000  Ry
     convergence threshold     =      1.0E-08
     mixing beta               =       0.7000
     number of iterations used =            8  plain     mixing
     Exchange-correlation      = SLA PW NOGX NOGC ( 1  4  0  0 0 0)

     celldm(1)=  14.188953  celldm(2)=   0.000000  celldm(3)=   0.000000
     celldm(4)=   0.000000  celldm(5)=   0.000000  celldm(6)=   0.000000

     crystal axes: (cart. coord. in units of alat)
               a(1) = (   1.000000   0.000000   0.000000 )
               a(2) = (   0.000000   1.007606   0.000000 )
               a(3) = (   0.000000   0.000000   1.000966 )

     reciprocal axes: (cart. coord. in units 2 pi/alat)
               b(1) = (  1.000000  0.000000  0.000000 )
               b(2) = (  0.000000  0.992451  0.000000 )
               b(3) = (  0.000000  0.000000  0.999035 )

     PseudoPot. # 1 for W  read from file:
     /cluster/scratch/mnoe/QE/pps/W_ONCV_LDA-4.0.upf
     MD5 check sum: ba0307d5d4cd419d6f1d13dc49d7c13a
     Pseudo is Norm-conserving + core correction, Zval = 28.0
     Generated using ONCVPSP code by D. R. Hamann
     Using radial grid of 1380 points,  8 beta functions with:
                l(1) =   0
                l(2) =   0
                l(3) =   1
                l(4) =   1
                l(5) =   2
                l(6) =   2
                l(7) =   3
                l(8) =   3

     PseudoPot. # 2 for O  read from file:
     /cluster/scratch/mnoe/QE/pps/O_ONCV_LDA-3.0.upf
     MD5 check sum: a1bd6164e7280c17a38c229939bfbd54
     Pseudo is Norm-conserving + core correction, Zval =  6.0
     Generated using ONCVPSP code by D. R. Hamann
     Using radial grid of  926 points,  5 beta functions with:
                l(1) =   0
                l(2) =   0
                l(3) =   1
                l(4) =   1
                l(5) =   2

     atomic species   valence    mass     pseudopotential
        W             28.00   183.84000     W ( 1.00)
        O              6.00    15.99940     O ( 1.00)

      8 Sym. Ops., with inversion, found ( 6 have fractional translation)

   Cartesian axes

     site n.     atom                  positions (alat units)
         1           W   tau(   1) = (   0.2407605   0.2681761   0.0087335  )
         2           W   tau(   2) = (   0.7592394   0.7394302  -0.0087335  )
         3           W   tau(   3) = (   0.2592395   0.2356271   0.5092164  )
         4           W   tau(   4) = (   0.7407604   0.7719794   0.4917493  )
         5           W   tau(   5) = (   0.7592394   0.2681761   0.4917493  )
         6           W   tau(   6) = (   0.2407605   0.7394302   0.5092164  )
         7           W   tau(   7) = (   0.7407604   0.2356271  -0.0087335  )
         8           W   tau(   8) = (   0.2592395   0.7719794   0.0087335  )
         9           O   tau(   9) = (   0.2329543   0.0040713   0.0027145  )
        10           O   tau(  10) = (   0.7670456  -0.0040714  -0.0027145  )
        11           O   tau(  11) = (   0.2670457   0.4997319   0.5031974  )
        12           O   tau(  12) = (   0.7329543   0.5078746   0.4977683  )
        13           O   tau(  13) = (   0.7670456   0.0040713   0.4977683  )
        14           O   tau(  14) = (   0.2329543  -0.0040714   0.5031974  )
        15           O   tau(  15) = (   0.7329543   0.4997319  -0.0027145  )
        16           O   tau(  16) = (   0.2670457   0.5078746   0.0027145  )
        17           O   tau(  17) = (   0.5025271   0.2342834   0.4884212  )
        18           O   tau(  18) = (   0.4974729   0.7733230   0.5125447  )
        19           O   tau(  19) = (  -0.0025272   0.2695197   0.9889041  )
        20           O   tau(  20) = (   0.0025271   0.7380866   0.0120616  )
        21           O   tau(  21) = (   0.4974729   0.2342834   0.0120616  )
        22           O   tau(  22) = (   0.5025271   0.7733230   0.9889041  )
        23           O   tau(  23) = (   0.0025271   0.2695197   0.5125447  )
        24           O   tau(  24) = (  -0.0025272   0.7380866   0.4884212  )
        25           O   tau(  25) = (   0.7379499   0.2480569   0.7468899  )
        26           O   tau(  26) = (   0.2620500   0.7595495   0.2540758  )
        27           O   tau(  27) = (   0.7620503   0.2557463   0.2464071  )
        28           O   tau(  28) = (   0.2379500   0.7518601   0.7545586  )
        29           O   tau(  29) = (   0.2620500   0.2480569   0.7545586  )
        30           O   tau(  30) = (   0.7379499   0.7595495   0.2464071  )
        31           O   tau(  31) = (   0.2379500   0.2557463   0.2540758  )
        32           O   tau(  32) = (   0.7620503   0.7518601   0.7468899  )

     number of k points=    64  gaussian smearing, width (Ry)=  0.0007
                       cart. coord. in units 2pi/alat
        k(    1) = (   0.0000000   0.0000000   0.0000000), wk =   0.0092593
        k(    2) = (   0.0000000   0.0000000   0.1665059), wk =   0.0185185
        k(    3) = (   0.0000000   0.0000000   0.3330117), wk =   0.0185185
        k(    4) = (   0.0000000   0.0000000  -0.4995176), wk =   0.0092593
        k(    5) = (   0.0000000   0.1654085   0.0000000), wk =   0.0185185
        k(    6) = (   0.0000000   0.1654085   0.1665059), wk =   0.0370370
        k(    7) = (   0.0000000   0.1654085   0.3330117), wk =   0.0370370
        k(    8) = (   0.0000000   0.1654085  -0.4995176), wk =   0.0185185
        k(    9) = (   0.0000000   0.3308170   0.0000000), wk =   0.0185185
        k(   10) = (   0.0000000   0.3308170   0.1665059), wk =   0.0370370
        k(   11) = (   0.0000000   0.3308170   0.3330117), wk =   0.0370370
        k(   12) = (   0.0000000   0.3308170  -0.4995176), wk =   0.0185185
        k(   13) = (   0.0000000  -0.4962256   0.0000000), wk =   0.0092593
        k(   14) = (   0.0000000  -0.4962256   0.1665059), wk =   0.0185185
        k(   15) = (   0.0000000  -0.4962256   0.3330117), wk =   0.0185185
        k(   16) = (   0.0000000  -0.4962256  -0.4995176), wk =   0.0092593
        k(   17) = (   0.1666667   0.0000000   0.0000000), wk =   0.0185185
        k(   18) = (   0.1666667   0.0000000   0.1665059), wk =   0.0370370
        k(   19) = (   0.1666667   0.0000000   0.3330117), wk =   0.0370370
        k(   20) = (   0.1666667   0.0000000  -0.4995176), wk =   0.0185185
        k(   21) = (   0.1666667   0.1654085   0.0000000), wk =   0.0370370
        k(   22) = (   0.1666667   0.1654085   0.1665059), wk =   0.0740741
        k(   23) = (   0.1666667   0.1654085   0.3330117), wk =   0.0740741
        k(   24) = (   0.1666667   0.1654085  -0.4995176), wk =   0.0370370
        k(   25) = (   0.1666667   0.3308170   0.0000000), wk =   0.0370370
        k(   26) = (   0.1666667   0.3308170   0.1665059), wk =   0.0740741
        k(   27) = (   0.1666667   0.3308170   0.3330117), wk =   0.0740741
        k(   28) = (   0.1666667   0.3308170  -0.4995176), wk =   0.0370370
        k(   29) = (   0.1666667  -0.4962256   0.0000000), wk =   0.0185185
        k(   30) = (   0.1666667  -0.4962256   0.1665059), wk =   0.0370370
        k(   31) = (   0.1666667  -0.4962256   0.3330117), wk =   0.0370370
        k(   32) = (   0.1666667  -0.4962256  -0.4995176), wk =   0.0185185
        k(   33) = (   0.3333333   0.0000000   0.0000000), wk =   0.0185185
        k(   34) = (   0.3333333   0.0000000   0.1665059), wk =   0.0370370
        k(   35) = (   0.3333333   0.0000000   0.3330117), wk =   0.0370370
        k(   36) = (   0.3333333   0.0000000  -0.4995176), wk =   0.0185185
        k(   37) = (   0.3333333   0.1654085   0.0000000), wk =   0.0370370
        k(   38) = (   0.3333333   0.1654085   0.1665059), wk =   0.0740741
        k(   39) = (   0.3333333   0.1654085   0.3330117), wk =   0.0740741
        k(   40) = (   0.3333333   0.1654085  -0.4995176), wk =   0.0370370
        k(   41) = (   0.3333333   0.3308170   0.0000000), wk =   0.0370370
        k(   42) = (   0.3333333   0.3308170   0.1665059), wk =   0.0740741
        k(   43) = (   0.3333333   0.3308170   0.3330117), wk =   0.0740741
        k(   44) = (   0.3333333   0.3308170  -0.4995176), wk =   0.0370370
        k(   45) = (   0.3333333  -0.4962256   0.0000000), wk =   0.0185185
        k(   46) = (   0.3333333  -0.4962256   0.1665059), wk =   0.0370370
        k(   47) = (   0.3333333  -0.4962256   0.3330117), wk =   0.0370370
        k(   48) = (   0.3333333  -0.4962256  -0.4995176), wk =   0.0185185
        k(   49) = (  -0.5000000   0.0000000   0.0000000), wk =   0.0092593
        k(   50) = (  -0.5000000   0.0000000   0.1665059), wk =   0.0185185
        k(   51) = (  -0.5000000   0.0000000   0.3330117), wk =   0.0185185
        k(   52) = (  -0.5000000   0.0000000  -0.4995176), wk =   0.0092593
        k(   53) = (  -0.5000000   0.1654085   0.0000000), wk =   0.0185185
        k(   54) = (  -0.5000000   0.1654085   0.1665059), wk =   0.0370370
        k(   55) = (  -0.5000000   0.1654085   0.3330117), wk =   0.0370370
        k(   56) = (  -0.5000000   0.1654085  -0.4995176), wk =   0.0185185
        k(   57) = (  -0.5000000   0.3308170   0.0000000), wk =   0.0185185
        k(   58) = (  -0.5000000   0.3308170   0.1665059), wk =   0.0370370
        k(   59) = (  -0.5000000   0.3308170   0.3330117), wk =   0.0370370
        k(   60) = (  -0.5000000   0.3308170  -0.4995176), wk =   0.0185185
        k(   61) = (  -0.5000000  -0.4962256   0.0000000), wk =   0.0092593
        k(   62) = (  -0.5000000  -0.4962256   0.1665059), wk =   0.0185185
        k(   63) = (  -0.5000000  -0.4962256   0.3330117), wk =   0.0185185
        k(   64) = (  -0.5000000  -0.4962256  -0.4995176), wk =   0.0092593

     Initial potential from superposition of free atoms

     starting charge  367.99656, renormalised to  368.60000
     Starting wfc are  232 randomized atomic wfcs

     Self-consistent Calculation

     iteration #  1     ecut=   120.00 Ry     beta= 0.70
     Davidson diagonalization with overlap
     ethr =  1.00E-02,  avg # of iterations =  5.3

     total energy              =   -6253.36671540 Ry
     Harris-Foulkes estimate   =   -6264.35205884 Ry
     estimated scf accuracy    <      13.83363680 Ry

[...]

     total energy              =   -6260.69081845 Ry
     Harris-Foulkes estimate   =   -6260.69081846 Ry
     estimated scf accuracy    <       0.00000002 Ry

     iteration # 13     ecut=   120.00 Ry     beta= 0.70
     Davidson diagonalization with overlap
     ethr =  5.42E-12,  avg # of iterations =  3.2

     End of self-consistent calculation

          k = 0.0000 0.0000 0.0000 ( 63933 PWs)   bands (ev):

   -66.5289 -66.5283 -66.5283 -66.5282 -66.5277 -66.5276 -66.5276 -66.5270
   -30.9035 -30.8989 -30.8976 -30.8930 -30.8741 -30.8737 -30.8690 -30.8676
   -30.8674 -30.8663 -30.8629 -30.8609 -30.8189 -30.8182 -30.8165 -30.8160
   -30.7883 -30.7861 -30.7848 -30.7842 -30.7829 -30.7812 -30.7759 -30.7754
   -20.6899 -20.6899 -20.6898 -20.6898 -20.6898 -20.6897 -20.6897 -20.6896
   -20.6743 -20.6739 -20.6731 -20.6726 -20.6722 -20.6713 -20.6713 -20.6706
   -20.6700 -20.6697 -20.6696 -20.6686 -20.6683 -20.6676 -20.6671 -20.6669
   -20.6665 -20.6660 -20.6658 -20.6656 -20.6653 -20.6652 -20.6652 -20.6649
   -20.6647 -20.6647 -20.6637 -20.6637 -20.6636 -20.6629 -20.6624 -20.6623
   -20.6525 -20.6525 -20.6506 -20.6505 -20.6500 -20.6499 -20.6491 -20.6490
   -20.6466 -20.6466 -20.6459 -20.6458 -20.6458 -20.6458 -20.6440 -20.6440
   -10.3026  -9.9782  -9.9676  -9.9623  -9.6532  -9.6460  -9.6265  -9.4080
    -9.3931  -9.3805  -9.3682  -9.3675  -8.1418  -8.0876  -8.0856  -8.0827
    -8.0777  -8.0440  -8.0383  -8.0327  -8.0298  -8.0286  -7.9987  -7.9858
     0.7185   0.7311   0.7472   0.7572   0.7649   0.8351   0.8646   0.9105
     1.0433   1.0537   1.0777   1.2940   2.1787   2.1836   2.2049   2.2866
     2.2996   2.3179   4.0852   4.1213   4.1508   4.2070   4.2499   4.2526
     4.2836   4.2915   4.3099   4.3338   4.3448   4.3591   4.8204   4.9118
     4.9162   5.2305   5.2497   5.2688   5.2721   5.2769   5.2875   5.2992
     5.3105   5.3747   5.6821   5.7001   5.7419   5.7440   5.7514   5.8633
     5.8653   5.9384   5.9552   6.1591   6.1708   6.3584   6.6338   6.6644
     6.6754   6.7115   6.7286   6.7359   6.7559   6.7589   6.8019   6.8023
     6.8029   6.8086   7.7949   7.7980   7.8770   7.8799   7.8914   7.9035
     8.7847   8.8367   8.9415   8.9478   9.0242   9.0257  12.1216  12.1963
    12.2287  12.2570  12.2630  12.2825  12.2890  12.2916  12.3027  12.4179
    12.4435  12.4809  13.3026  13.3929  13.5309  13.5822  13.6909  13.7117
    14.0432  14.1016  14.2458  14.2900  14.3143  14.3689  15.4460  15.4600
    15.5234  16.5886  16.7296  16.7755  16.8143

[...]

          k = 0.3333-0.4962-0.4995 ( 63936 PWs)   bands (ev):

[...]

          k =-0.5000 0.0000 0.0000 ( 64006 PWs)   bands (ev):

[...]

          k =-0.5000-0.4962-0.4995 ( 63872 PWs)   bands (ev):

   -66.5280 -66.5280 -66.5280 -66.5279 -66.5279 -66.5279 -66.5279 -66.5279
   -30.8606 -30.8606 -30.8606 -30.8606 -30.8599 -30.8599 -30.8598 -30.8598
   -30.8308 -30.8307 -30.8307 -30.8307 -30.8290 -30.8290 -30.8290 -30.8290
   -30.8195 -30.8194 -30.8194 -30.8194 -30.8178 -30.8177 -30.8177 -30.8177
   -20.6899 -20.6898 -20.6898 -20.6898 -20.6898 -20.6898 -20.6897 -20.6897
   -20.6717 -20.6717 -20.6717 -20.6716 -20.6716 -20.6716 -20.6715 -20.6715
   -20.6677 -20.6676 -20.6676 -20.6676 -20.6674 -20.6674 -20.6674 -20.6674
   -20.6666 -20.6666 -20.6666 -20.6666 -20.6662 -20.6662 -20.6662 -20.6661
   -20.6644 -20.6644 -20.6643 -20.6643 -20.6642 -20.6642 -20.6641 -20.6641
   -20.6496 -20.6495 -20.6495 -20.6495 -20.6494 -20.6494 -20.6493 -20.6493
   -20.6472 -20.6472 -20.6472 -20.6471 -20.6470 -20.6470 -20.6470 -20.6469
    -9.3015  -9.3015  -9.3014  -9.3014  -9.2934  -9.2934  -9.2934  -9.2933
    -8.8000  -8.8000  -8.7999  -8.7999  -8.7827  -8.7827  -8.7827  -8.7827
    -8.7774  -8.7774  -8.7773  -8.7773  -8.7731  -8.7731  -8.7730  -8.7730
     2.6515   2.6515   2.6515   2.6515   2.7203   2.7203   2.7204   2.7204
     2.7696   2.7696   2.7697   2.7697   2.8210   2.8210   2.8210   2.8211
     3.0161   3.0161   3.0161   3.0161   3.1247   3.1247   3.1248   3.1248
     3.7649   3.7649   3.7649   3.7649   3.7950   3.7950   3.7950   3.7950
     3.8178   3.8178   3.8178   3.8178   3.8670   3.8670   3.8670   3.8670
     3.9525   3.9525   3.9525   3.9525   4.0149   4.0150   4.0150   4.0150
     6.8658   6.8658   6.8658   6.8659   6.9341   6.9342   6.9342   6.9342
     6.9553   6.9553   6.9553   6.9553   7.0014   7.0014   7.0015   7.0015
     7.2220   7.2221   7.2221   7.2221   7.2547   7.2547   7.2548   7.2548
    11.4390  11.4390  11.4390  11.4390  11.4948  11.4949  11.4949  11.4949
    11.6997  11.6997  11.6997  11.6997  11.7884  11.7885  11.7885  11.7885
    11.7955  11.7955  11.7955  11.7955  11.8660  11.8660  11.8661  11.8661
    16.7527  16.7528  16.7529  16.7529  16.8010  16.8010  16.8010  16.8010
    17.4750  17.4751  17.4752  17.4758  17.4929

     the Fermi energy is     9.1759 ev

!    total energy              =   -6260.69081846 Ry
     Harris-Foulkes estimate   =   -6260.69081846 Ry
     estimated scf accuracy    <          3.1E-09 Ry

     The total energy is the sum of the following terms:

     one-electron contribution =   -4840.46131816 Ry
     hartree contribution      =    2652.58846559 Ry
     xc contribution           =    -966.33734218 Ry
     ewald contribution        =   -3106.48059103 Ry
     smearing contrib. (-TS)   =      -0.00003267 Ry

     convergence has been achieved in  13 iterations

     Writing output data file Landau_20.save

     General routines

     Parallel routines

   This run was terminated on:  15:39: 6  21Mar2020

   JOB DONE.