     Program PWSCF v.6.2 (svn rev. 14038) starts on 25Mar2020 at 21:26: 8

     K-points division:     npool     =      40
     Reading input from scf.in

     Current dimensions of program PWSCF are:
     Max number of different atomic species (ntypx) = 10
     Max number of k-points (npk) =  40000
     Max angular momentum in pseudopotentials (lmaxx) =  3

     Subspace diagonalization in iterative solution of the eigenvalue problem:
     a serial algorithm will be used

     bravais-lattice index     =            0
     lattice parameter (alat)  =      14.0204  a.u.
     unit-cell volume          =    2850.4244 (a.u.)^3
     number of atoms/cell      =           32
     number of atomic types    =            2
     number of electrons       =       368.60
     number of Kohn-Sham states=          221
     kinetic-energy cutoff     =     120.0000  Ry
     charge density cutoff     =     480.0000  Ry
     convergence threshold     =      1.0E-08
     mixing beta               =       0.7000
     number of iterations used =            8  plain     mixing
     Exchange-correlation      = SLA PW NOGX NOGC ( 1  4  0  0 0 0)

     celldm(1)=  14.020418  celldm(2)=   0.000000  celldm(3)=   0.000000
     celldm(4)=   0.000000  celldm(5)=   0.000000  celldm(6)=   0.000000

     crystal axes: (cart. coord. in units of alat)
               a(1) = (   1.000000   0.000000   0.000000 )
               a(2) = (   0.000000   1.034020   0.000000 )
               a(3) = (   0.000000   0.000000   1.000225 )

     reciprocal axes: (cart. coord. in units 2 pi/alat)
               b(1) = (  1.000000  0.000000  0.000000 )
               b(2) = (  0.000000  0.967099  0.000000 )
               b(3) = (  0.000000  0.000000  0.999775 )

     PseudoPot. # 1 for W  read from file:
     /cluster/scratch/mnoe/QE/pps/W_ONCV_LDA-4.0.upf
     MD5 check sum: ba0307d5d4cd419d6f1d13dc49d7c13a
     Pseudo is Norm-conserving + core correction, Zval = 28.0
     Generated using ONCVPSP code by D. R. Hamann
     Using radial grid of 1380 points,  8 beta functions with:
                l(1) =   0
                l(2) =   0
                l(3) =   1
                l(4) =   1
                l(5) =   2
                l(6) =   2
                l(7) =   3
                l(8) =   3

     PseudoPot. # 2 for O  read from file:
     /cluster/scratch/mnoe/QE/pps/O_ONCV_LDA-3.0.upf
     MD5 check sum: a1bd6164e7280c17a38c229939bfbd54
     Pseudo is Norm-conserving + core correction, Zval =  6.0
     Generated using ONCVPSP code by D. R. Hamann
     Using radial grid of  926 points,  5 beta functions with:
                l(1) =   0
                l(2) =   0
                l(3) =   1
                l(4) =   1
                l(5) =   2

     atomic species   valence    mass     pseudopotential
        W             28.00   183.84000     W ( 1.00)
        O              6.00    15.99940     O ( 1.00)

      4 Sym. Ops. (no inversion) found ( 3 have fractional translation)

   Cartesian axes

     site n.     atom                  positions (alat units)
         1           W   tau(   1) = (   0.2451395   0.2850381   0.0022592  )
         2           W   tau(   2) = (   0.7525331   0.7489824  -0.0047243  )
         3           W   tau(   3) = (   0.2548605   0.2319722   0.5023715  )
         4           W   tau(   4) = (   0.7474668   0.8020483   0.4953880  )
         5           W   tau(   5) = (   0.7548604   0.2850381   0.4978531  )
         6           W   tau(   6) = (   0.2474669   0.7489824   0.5048366  )
         7           W   tau(   7) = (   0.7451395   0.2319722  -0.0022592  )
         8           W   tau(   8) = (   0.2525331   0.8020483   0.0047243  )
         9           O   tau(   9) = (   0.2428182   0.0068565  -0.0011886  )
        10           O   tau(  10) = (   0.7564584  -0.0068565  -0.0033592  )
        11           O   tau(  11) = (   0.2571818   0.5101537   0.4989237  )
        12           O   tau(  12) = (   0.7435416   0.5238668   0.4967531  )
        13           O   tau(  13) = (   0.7571817   0.0068565   0.5013009  )
        14           O   tau(  14) = (   0.2435416  -0.0068565   0.5034715  )
        15           O   tau(  15) = (   0.7428182   0.5101537   0.0011886  )
        16           O   tau(  16) = (   0.2564584   0.5238668   0.0033592  )
        17           O   tau(  17) = (   0.5015220   0.2507450   0.4648047  )
        18           O   tau(  18) = (   0.4994998   0.7822231   0.5354200  )
        19           O   tau(  19) = (  -0.0015220   0.2662653   0.9649170  )
        20           O   tau(  20) = (   0.0005002   0.7688076   0.0353076  )
        21           O   tau(  21) = (   0.4984780   0.2507450   0.0353076  )
        22           O   tau(  22) = (   0.5005002   0.7822231   0.9649170  )
        23           O   tau(  23) = (   0.0015220   0.2662653   0.5354200  )
        24           O   tau(  24) = (  -0.0005002   0.7688076   0.4648047  )
        25           O   tau(  25) = (   0.7147003   0.2593378   0.7489725  )
        26           O   tau(  26) = (   0.2852997   0.7795053   0.2519263  )
        27           O   tau(  27) = (   0.7852998   0.2576724   0.2488603  )
        28           O   tau(  28) = (   0.2147003   0.7715254   0.7520386  )
        29           O   tau(  29) = (   0.2852997   0.2593378   0.7513643  )
        30           O   tau(  30) = (   0.7147003   0.7795053   0.2481860  )
        31           O   tau(  31) = (   0.2147003   0.2576724   0.2512521  )
        32           O   tau(  32) = (   0.7852998   0.7715254   0.7482983  )

     number of k points=    64  gaussian smearing, width (Ry)=  0.0007
                       cart. coord. in units 2pi/alat
        k(    1) = (   0.0000000   0.0000000   0.0000000), wk =   0.0092593
        k(    2) = (   0.0000000   0.0000000   0.1666292), wk =   0.0185185
        k(    3) = (   0.0000000   0.0000000   0.3332585), wk =   0.0185185
        k(    4) = (   0.0000000   0.0000000  -0.4998877), wk =   0.0092593
        k(    5) = (   0.0000000   0.1611831   0.0000000), wk =   0.0185185
        k(    6) = (   0.0000000   0.1611831   0.1666292), wk =   0.0370370
        k(    7) = (   0.0000000   0.1611831   0.3332585), wk =   0.0370370
        k(    8) = (   0.0000000   0.1611831  -0.4998877), wk =   0.0185185
        k(    9) = (   0.0000000   0.3223663   0.0000000), wk =   0.0185185
        k(   10) = (   0.0000000   0.3223663   0.1666292), wk =   0.0370370
        k(   11) = (   0.0000000   0.3223663   0.3332585), wk =   0.0370370
        k(   12) = (   0.0000000   0.3223663  -0.4998877), wk =   0.0185185
        k(   13) = (   0.0000000  -0.4835494   0.0000000), wk =   0.0092593
        k(   14) = (   0.0000000  -0.4835494   0.1666292), wk =   0.0185185
        k(   15) = (   0.0000000  -0.4835494   0.3332585), wk =   0.0185185
        k(   16) = (   0.0000000  -0.4835494  -0.4998877), wk =   0.0092593
        k(   17) = (   0.1666667   0.0000000   0.0000000), wk =   0.0185185
        k(   18) = (   0.1666667   0.0000000   0.1666292), wk =   0.0370370
        k(   19) = (   0.1666667   0.0000000   0.3332585), wk =   0.0370370
        k(   20) = (   0.1666667   0.0000000  -0.4998877), wk =   0.0185185
        k(   21) = (   0.1666667   0.1611831   0.0000000), wk =   0.0370370
        k(   22) = (   0.1666667   0.1611831   0.1666292), wk =   0.0740741
        k(   23) = (   0.1666667   0.1611831   0.3332585), wk =   0.0740741
        k(   24) = (   0.1666667   0.1611831  -0.4998877), wk =   0.0370370
        k(   25) = (   0.1666667   0.3223663   0.0000000), wk =   0.0370370
        k(   26) = (   0.1666667   0.3223663   0.1666292), wk =   0.0740741
        k(   27) = (   0.1666667   0.3223663   0.3332585), wk =   0.0740741
        k(   28) = (   0.1666667   0.3223663  -0.4998877), wk =   0.0370370
        k(   29) = (   0.1666667  -0.4835494   0.0000000), wk =   0.0185185
        k(   30) = (   0.1666667  -0.4835494   0.1666292), wk =   0.0370370
        k(   31) = (   0.1666667  -0.4835494   0.3332585), wk =   0.0370370
        k(   32) = (   0.1666667  -0.4835494  -0.4998877), wk =   0.0185185
        k(   33) = (   0.3333333   0.0000000   0.0000000), wk =   0.0185185
        k(   34) = (   0.3333333   0.0000000   0.1666292), wk =   0.0370370
        k(   35) = (   0.3333333   0.0000000   0.3332585), wk =   0.0370370
        k(   36) = (   0.3333333   0.0000000  -0.4998877), wk =   0.0185185
        k(   37) = (   0.3333333   0.1611831   0.0000000), wk =   0.0370370
        k(   38) = (   0.3333333   0.1611831   0.1666292), wk =   0.0740741
        k(   39) = (   0.3333333   0.1611831   0.3332585), wk =   0.0740741
        k(   40) = (   0.3333333   0.1611831  -0.4998877), wk =   0.0370370
        k(   41) = (   0.3333333   0.3223663   0.0000000), wk =   0.0370370
        k(   42) = (   0.3333333   0.3223663   0.1666292), wk =   0.0740741
        k(   43) = (   0.3333333   0.3223663   0.3332585), wk =   0.0740741
        k(   44) = (   0.3333333   0.3223663  -0.4998877), wk =   0.0370370
        k(   45) = (   0.3333333  -0.4835494   0.0000000), wk =   0.0185185
        k(   46) = (   0.3333333  -0.4835494   0.1666292), wk =   0.0370370
        k(   47) = (   0.3333333  -0.4835494   0.3332585), wk =   0.0370370
        k(   48) = (   0.3333333  -0.4835494  -0.4998877), wk =   0.0185185
        k(   49) = (  -0.5000000   0.0000000   0.0000000), wk =   0.0092593
        k(   50) = (  -0.5000000   0.0000000   0.1666292), wk =   0.0185185
        k(   51) = (  -0.5000000   0.0000000   0.3332585), wk =   0.0185185
        k(   52) = (  -0.5000000   0.0000000  -0.4998877), wk =   0.0092593
        k(   53) = (  -0.5000000   0.1611831   0.0000000), wk =   0.0185185
        k(   54) = (  -0.5000000   0.1611831   0.1666292), wk =   0.0370370
        k(   55) = (  -0.5000000   0.1611831   0.3332585), wk =   0.0370370
        k(   56) = (  -0.5000000   0.1611831  -0.4998877), wk =   0.0185185
        k(   57) = (  -0.5000000   0.3223663   0.0000000), wk =   0.0185185
        k(   58) = (  -0.5000000   0.3223663   0.1666292), wk =   0.0370370
        k(   59) = (  -0.5000000   0.3223663   0.3332585), wk =   0.0370370
        k(   60) = (  -0.5000000   0.3223663  -0.4998877), wk =   0.0185185
        k(   61) = (  -0.5000000  -0.4835494   0.0000000), wk =   0.0092593
        k(   62) = (  -0.5000000  -0.4835494   0.1666292), wk =   0.0185185
        k(   63) = (  -0.5000000  -0.4835494   0.3332585), wk =   0.0185185
        k(   64) = (  -0.5000000  -0.4835494  -0.4998877), wk =   0.0092593

     Initial potential from superposition of free atoms

     starting charge  367.99656, renormalised to  368.60000
     Starting wfc are  232 randomized atomic wfcs

     Self-consistent Calculation

     iteration #  1     ecut=   120.00 Ry     beta= 0.70
     Davidson diagonalization with overlap
     ethr =  1.00E-02,  avg # of iterations =  5.0

     total energy              =   -6253.41488465 Ry
     Harris-Foulkes estimate   =   -6264.31684552 Ry
     estimated scf accuracy    <      13.73160257 Ry

[...]

     total energy              =   -6260.69542884 Ry
     Harris-Foulkes estimate   =   -6260.69542887 Ry
     estimated scf accuracy    <       0.00000004 Ry

     iteration # 14     ecut=   120.00 Ry     beta= 0.70
     Davidson diagonalization with overlap
     ethr =  1.00E-11,  avg # of iterations =  3.0

     End of self-consistent calculation

          k = 0.0000 0.0000 0.0000 ( 63239 PWs)   bands (ev):

   -66.3286 -66.3281 -66.3278 -66.3278 -66.3273 -66.3273 -66.3270 -66.3265
   -30.7466 -30.7427 -30.7426 -30.7387 -30.6820 -30.6772 -30.6767 -30.6721
   -30.6652 -30.6628 -30.6600 -30.6590 -30.6586 -30.6568 -30.6553 -30.6528
   -30.5722 -30.5711 -30.5683 -30.5676 -30.5669 -30.5661 -30.5633 -30.5618
   -20.4834 -20.4833 -20.4833 -20.4832 -20.4832 -20.4832 -20.4831 -20.4830
   -20.4809 -20.4805 -20.4804 -20.4800 -20.4749 -20.4744 -20.4744 -20.4739
   -20.4723 -20.4722 -20.4721 -20.4718 -20.4711 -20.4709 -20.4705 -20.4704
   -20.4693 -20.4692 -20.4689 -20.4688 -20.4680 -20.4678 -20.4676 -20.4674
   -20.4609 -20.4607 -20.4603 -20.4601 -20.4600 -20.4599 -20.4595 -20.4592
   -20.4339 -20.4337 -20.4335 -20.4332 -20.4322 -20.4321 -20.4321 -20.4317
   -20.4282 -20.4282 -20.4281 -20.4277 -20.4268 -20.4266 -20.4264 -20.4261
   -10.1460  -9.8391  -9.7690  -9.7690  -9.4709  -9.4684  -9.3988  -9.2442
    -9.2263  -9.1721  -9.1465  -9.1457  -8.0531  -7.9980  -7.9966  -7.9482
    -7.9342  -7.9322  -7.9011  -7.8983  -7.8426  -7.8417  -7.8126  -7.8119
     0.9341   0.9387   0.9989   1.0014   1.0366   1.0502   1.0555   1.2335
     1.2971   1.3006   1.3171   1.5362   2.2880   2.3477   2.3518   2.3805
     2.4745   2.4778   4.0564   4.0627   4.2206   4.2307   4.5276   4.5306
     4.5376   4.5525   4.5704   4.5720   4.6721   4.6723   4.8876   5.1918
     5.2001   5.3021   5.3070   5.3485   5.3614   5.3715   5.3754   5.5704
     5.5718   5.6362   5.6996   5.7067   5.7713   5.9165   5.9180   5.9711
     5.9768   6.1682   6.1730   6.2335   6.2338   6.6163   6.6603   6.6676
     6.7163   6.7214   6.8336   6.8658   6.8902   6.8948   7.0847   7.0888
     7.0985   7.1028   7.8571   7.8668   7.9001   7.9099   7.9574   7.9682
     8.9714   8.9935   9.4700   9.4724   9.4849   9.4885  12.1585  12.1662
    12.2339  12.2347  12.2735  12.2770  12.3220  12.3307  12.7856  12.8381
    12.9858  12.9928  13.0999  13.1417  13.7071  13.8636  13.9195  13.9247
    13.9972  14.1751  14.2298  14.5702  14.9490  14.9587  15.3882  15.7826
    15.7906  16.7489  16.9011  16.9085  16.9326

[...]

          k = 0.3333-0.4835-0.4999 ( 63272 PWs)   bands (ev):

[...]

          k =-0.5000 0.0000 0.0000 ( 63248 PWs)   bands (ev):

[...]

          k =-0.5000-0.4835-0.4999 ( 63304 PWs)   bands (ev):

   -66.3276 -66.3276 -66.3276 -66.3276 -66.3274 -66.3274 -66.3274 -66.3274
   -30.7100 -30.7100 -30.7099 -30.7099 -30.7097 -30.7097 -30.7097 -30.7097
   -30.6165 -30.6165 -30.6161 -30.6161 -30.6158 -30.6157 -30.6153 -30.6153
   -30.6116 -30.6116 -30.6109 -30.6109 -30.6107 -30.6107 -30.6100 -30.6100
   -20.4833 -20.4833 -20.4833 -20.4833 -20.4831 -20.4831 -20.4831 -20.4831
   -20.4777 -20.4777 -20.4777 -20.4777 -20.4775 -20.4775 -20.4774 -20.4774
   -20.4704 -20.4704 -20.4703 -20.4703 -20.4703 -20.4703 -20.4701 -20.4701
   -20.4697 -20.4697 -20.4696 -20.4696 -20.4695 -20.4694 -20.4693 -20.4693
   -20.4601 -20.4601 -20.4601 -20.4601 -20.4599 -20.4599 -20.4599 -20.4599
   -20.4306 -20.4306 -20.4305 -20.4305 -20.4304 -20.4304 -20.4304 -20.4304
   -20.4300 -20.4300 -20.4299 -20.4299 -20.4298 -20.4297 -20.4297 -20.4297
    -9.1437  -9.1436  -9.1412  -9.1412  -9.1380  -9.1380  -9.1372  -9.1372
    -8.6342  -8.6341  -8.6260  -8.6260  -8.6201  -8.6200  -8.6192  -8.6192
    -8.5948  -8.5948  -8.5918  -8.5918  -8.5902  -8.5902  -8.5856  -8.5855
     2.8224   2.8224   2.8226   2.8226   2.8433   2.8434   2.8460   2.8460
     2.9285   2.9285   2.9323   2.9323   2.9594   2.9594   2.9658   2.9658
     3.1864   3.1864   3.2100   3.2100   3.2493   3.2493   3.2650   3.2651
     3.9327   3.9327   3.9386   3.9386   3.9475   3.9476   3.9493   3.9493
     4.0694   4.0694   4.0734   4.0734   4.0782   4.0782   4.0848   4.0849
     4.1710   4.1710   4.1800   4.1800   4.1961   4.1961   4.1975   4.1975
     6.9705   6.9705   6.9875   6.9875   7.0245   7.0245   7.0468   7.0468
     7.1268   7.1268   7.1295   7.1295   7.1349   7.1349   7.1361   7.1361
     7.3857   7.3858   7.3893   7.3893   7.4004   7.4004   7.4067   7.4067
    11.6496  11.6496  11.6499  11.6499  11.6559  11.6559  11.6577  11.6577
    11.9295  11.9295  11.9467  11.9467  11.9850  11.9850  12.0067  12.0067
    12.1513  12.1513  12.1635  12.1635  12.1836  12.1836  12.1910  12.1910
    16.9306  16.9307  16.9390  16.9391  16.9601  16.9601  16.9721  16.9721
    17.3555  17.3555  17.3561  17.3561  17.3674

     the Fermi energy is     9.4685 ev

!    total energy              =   -6260.69542885 Ry
     Harris-Foulkes estimate   =   -6260.69542886 Ry
     estimated scf accuracy    <          3.1E-09 Ry

     The total energy is the sum of the following terms:

     one-electron contribution =   -4791.55595686 Ry
     hartree contribution      =    2630.59263909 Ry
     xc contribution           =    -966.33005294 Ry
     ewald contribution        =   -3133.40203099 Ry
     smearing contrib. (-TS)   =      -0.00002716 Ry

     convergence has been achieved in  14 iterations

     Writing output data file Landau_8.save

     General routines

     Parallel routines

   This run was terminated on:  22: 0:33  25Mar2020

   JOB DONE.