     Program PWSCF v.6.4.1 starts on  4Dec2019 at 13: 6:38

     K-points division:     npool     =      40
     Reading input from scf.in

     Current dimensions of program PWSCF are:
     Max number of different atomic species (ntypx) = 10
     Max number of k-points (npk) =  40000
     Max angular momentum in pseudopotentials (lmaxx) =  3

     Subspace diagonalization in iterative solution of the eigenvalue problem:
     a serial algorithm will be used

     Message from routine setup:
     using ibrav=0 with symmetry is DISCOURAGED, use correct ibrav instead

     bravais-lattice index     =            0
     lattice parameter (alat)  =      13.8296  a.u.
     unit-cell volume          =    2787.8206 (a.u.)^3
     number of atoms/cell      =           32
     number of atomic types    =            2
     number of electrons       =       368.90
     number of Kohn-Sham states=          221
     kinetic-energy cutoff     =     120.0000  Ry
     charge density cutoff     =     480.0000  Ry
     convergence threshold     =      1.0E-08
     mixing beta               =       0.7000
     number of iterations used =            8  plain     mixing
     Exchange-correlation      = SLA PW NOGX NOGC ( 1  4  0  0 0 0)

     celldm(1)=  13.829597  celldm(2)=   0.000000  celldm(3)=   0.000000
     celldm(4)=   0.000000  celldm(5)=   0.000000  celldm(6)=   0.000000

     crystal axes: (cart. coord. in units of alat)
               a(1) = (   1.000000   0.000000   0.000000 )
               a(2) = (   0.000000   1.050315   0.000000 )
               a(3) = (   0.000000   0.000000   1.003498 )

     reciprocal axes: (cart. coord. in units 2 pi/alat)
               b(1) = (  1.000000  0.000000  0.000000 )
               b(2) = (  0.000000  0.952095  0.000000 )
               b(3) = (  0.000000  0.000000  0.996514 )

     PseudoPot. # 1 for W  read from file:
     /cluster/scratch/mnoe/QE/pps/W_ONCV_LDA-4.0.upf
     MD5 check sum: ba0307d5d4cd419d6f1d13dc49d7c13a
     Pseudo is Norm-conserving + core correction, Zval = 28.0
     Generated using ONCVPSP code by D. R. Hamann
     Using radial grid of 1380 points,  8 beta functions with:
                l(1) =   0
                l(2) =   0
                l(3) =   1
                l(4) =   1
                l(5) =   2
                l(6) =   2
                l(7) =   3
                l(8) =   3

     PseudoPot. # 2 for O  read from file:
     /cluster/scratch/mnoe/QE/pps/O_ONCV_LDA-3.0.upf
     MD5 check sum: b55cdb4f45ae2203d24ad12cf8d61a31
     Pseudo is Norm-conserving + core correction, Zval =  6.0
     Generated using ONCVPSP code by D. R. Hamann
     Using radial grid of  926 points,  5 beta functions with:
                l(1) =   0
                l(2) =   0
                l(3) =   1
                l(4) =   1
                l(5) =   2

     atomic species   valence    mass     pseudopotential
        W             28.00   183.84000     W ( 1.00)
        O              6.00    15.99940     O ( 1.00)

      8 Sym. Ops., with inversion, found ( 6 have fractional translation)

   Cartesian axes

     site n.     atom                  positions (alat units)
         1           W   tau(   1) = (   0.2379800   0.2960418   0.0113997  )
         2           W   tau(   2) = (   0.7620200   0.7542731   0.9920987  )
         3           W   tau(   3) = (   0.2620200   0.2291157   0.5131490  )
         4           W   tau(   4) = (   0.7379800   0.8211992   0.4903495  )
         5           W   tau(   5) = (   0.7620200   0.2960418   0.4903495  )
         6           W   tau(   6) = (   0.2379800   0.7542731   0.5131490  )
         7           W   tau(   7) = (   0.7379800   0.2291157   0.9920987  )
         8           W   tau(   8) = (   0.2620200   0.8211992   0.0113997  )
         9           O   tau(   9) = (   0.2278200   0.0087386   0.0035423  )
        10           O   tau(  10) = (   0.7721800   1.0415763   0.9999561  )
        11           O   tau(  11) = (   0.2721800   0.5164188   0.5052916  )
        12           O   tau(  12) = (   0.7278200   0.5338961   0.4982069  )
        13           O   tau(  13) = (   0.7721800   0.0087386   0.4982069  )
        14           O   tau(  14) = (   0.2278200   1.0415763   0.5052916  )
        15           O   tau(  15) = (   0.7278200   0.5164188   0.9999561  )
        16           O   tau(  16) = (   0.2721800   0.5338961   0.0035423  )
        17           O   tau(  17) = (   0.5032900   0.2386735   0.4511127  )
        18           O   tau(  18) = (   0.4967100   0.8116414   0.5523857  )
        19           O   tau(  19) = (   0.9967100   0.2864839   0.9528620  )
        20           O   tau(  20) = (   0.0032899   0.7638310   0.0506365  )
        21           O   tau(  21) = (   0.4967100   0.2386735   0.0506365  )
        22           O   tau(  22) = (   0.5032900   0.8116414   0.9528620  )
        23           O   tau(  23) = (   0.0032899   0.2864839   0.5523857  )
        24           O   tau(  24) = (   0.9967100   0.7638310   0.4511127  )
        25           O   tau(  25) = (   0.6995400   0.2573587   0.7476164  )
        26           O   tau(  26) = (   0.3004600   0.7929563   0.2558821  )
        27           O   tau(  27) = (   0.8004600   0.2677988   0.2458672  )
        28           O   tau(  28) = (   0.1995400   0.7825161   0.7576313  )
        29           O   tau(  29) = (   0.3004600   0.2573587   0.7576313  )
        30           O   tau(  30) = (   0.6995400   0.7929563   0.2458672  )
        31           O   tau(  31) = (   0.1995400   0.2677988   0.2558821  )
        32           O   tau(  32) = (   0.8004600   0.7825161   0.7476164  )

     number of k points=    64  gaussian smearing, width (Ry)=  0.0007
                       cart. coord. in units 2pi/alat
        k(    1) = (   0.0000000   0.0000000   0.0000000), wk =   0.0092593
        k(    2) = (   0.0000000   0.0000000   0.1660856), wk =   0.0185185
        k(    3) = (   0.0000000   0.0000000   0.3321712), wk =   0.0185185
        k(    4) = (   0.0000000   0.0000000  -0.4982569), wk =   0.0092593
        k(    5) = (   0.0000000   0.1586826   0.0000000), wk =   0.0185185
        k(    6) = (   0.0000000   0.1586826   0.1660856), wk =   0.0370370
        k(    7) = (   0.0000000   0.1586826   0.3321712), wk =   0.0370370
        k(    8) = (   0.0000000   0.1586826  -0.4982569), wk =   0.0185185
        k(    9) = (   0.0000000   0.3173651   0.0000000), wk =   0.0185185
        k(   10) = (   0.0000000   0.3173651   0.1660856), wk =   0.0370370
        k(   11) = (   0.0000000   0.3173651   0.3321712), wk =   0.0370370
        k(   12) = (   0.0000000   0.3173651  -0.4982569), wk =   0.0185185
        k(   13) = (   0.0000000  -0.4760477   0.0000000), wk =   0.0092593
        k(   14) = (   0.0000000  -0.4760477   0.1660856), wk =   0.0185185
        k(   15) = (   0.0000000  -0.4760477   0.3321712), wk =   0.0185185
        k(   16) = (   0.0000000  -0.4760477  -0.4982569), wk =   0.0092593
        k(   17) = (   0.1666667   0.0000000   0.0000000), wk =   0.0185185
        k(   18) = (   0.1666667   0.0000000   0.1660856), wk =   0.0370370
        k(   19) = (   0.1666667   0.0000000   0.3321712), wk =   0.0370370
        k(   20) = (   0.1666667   0.0000000  -0.4982569), wk =   0.0185185
        k(   21) = (   0.1666667   0.1586826   0.0000000), wk =   0.0370370
        k(   22) = (   0.1666667   0.1586826   0.1660856), wk =   0.0740741
        k(   23) = (   0.1666667   0.1586826   0.3321712), wk =   0.0740741
        k(   24) = (   0.1666667   0.1586826  -0.4982569), wk =   0.0370370
        k(   25) = (   0.1666667   0.3173651   0.0000000), wk =   0.0370370
        k(   26) = (   0.1666667   0.3173651   0.1660856), wk =   0.0740741
        k(   27) = (   0.1666667   0.3173651   0.3321712), wk =   0.0740741
        k(   28) = (   0.1666667   0.3173651  -0.4982569), wk =   0.0370370
        k(   29) = (   0.1666667  -0.4760477   0.0000000), wk =   0.0185185
        k(   30) = (   0.1666667  -0.4760477   0.1660856), wk =   0.0370370
        k(   31) = (   0.1666667  -0.4760477   0.3321712), wk =   0.0370370
        k(   32) = (   0.1666667  -0.4760477  -0.4982569), wk =   0.0185185
        k(   33) = (   0.3333333   0.0000000   0.0000000), wk =   0.0185185
        k(   34) = (   0.3333333   0.0000000   0.1660856), wk =   0.0370370
        k(   35) = (   0.3333333   0.0000000   0.3321712), wk =   0.0370370
        k(   36) = (   0.3333333   0.0000000  -0.4982569), wk =   0.0185185
        k(   37) = (   0.3333333   0.1586826   0.0000000), wk =   0.0370370
        k(   38) = (   0.3333333   0.1586826   0.1660856), wk =   0.0740741
        k(   39) = (   0.3333333   0.1586826   0.3321712), wk =   0.0740741
        k(   40) = (   0.3333333   0.1586826  -0.4982569), wk =   0.0370370
        k(   41) = (   0.3333333   0.3173651   0.0000000), wk =   0.0370370
        k(   42) = (   0.3333333   0.3173651   0.1660856), wk =   0.0740741
        k(   43) = (   0.3333333   0.3173651   0.3321712), wk =   0.0740741
        k(   44) = (   0.3333333   0.3173651  -0.4982569), wk =   0.0370370
        k(   45) = (   0.3333333  -0.4760477   0.0000000), wk =   0.0185185
        k(   46) = (   0.3333333  -0.4760477   0.1660856), wk =   0.0370370
        k(   47) = (   0.3333333  -0.4760477   0.3321712), wk =   0.0370370
        k(   48) = (   0.3333333  -0.4760477  -0.4982569), wk =   0.0185185
        k(   49) = (  -0.5000000   0.0000000   0.0000000), wk =   0.0092593
        k(   50) = (  -0.5000000   0.0000000   0.1660856), wk =   0.0185185
        k(   51) = (  -0.5000000   0.0000000   0.3321712), wk =   0.0185185
        k(   52) = (  -0.5000000   0.0000000  -0.4982569), wk =   0.0092593
        k(   53) = (  -0.5000000   0.1586826   0.0000000), wk =   0.0185185
        k(   54) = (  -0.5000000   0.1586826   0.1660856), wk =   0.0370370
        k(   55) = (  -0.5000000   0.1586826   0.3321712), wk =   0.0370370
        k(   56) = (  -0.5000000   0.1586826  -0.4982569), wk =   0.0185185
        k(   57) = (  -0.5000000   0.3173651   0.0000000), wk =   0.0185185
        k(   58) = (  -0.5000000   0.3173651   0.1660856), wk =   0.0370370
        k(   59) = (  -0.5000000   0.3173651   0.3321712), wk =   0.0370370
        k(   60) = (  -0.5000000   0.3173651  -0.4982569), wk =   0.0185185
        k(   61) = (  -0.5000000  -0.4760477   0.0000000), wk =   0.0092593
        k(   62) = (  -0.5000000  -0.4760477   0.1660856), wk =   0.0185185
        k(   63) = (  -0.5000000  -0.4760477   0.3321712), wk =   0.0185185
        k(   64) = (  -0.5000000  -0.4760477  -0.4982569), wk =   0.0092593

     Initial potential from superposition of free atoms

     starting charge  367.99656, renormalised to  368.90000
     Starting wfcs are  232 randomized atomic wfcs

     Self-consistent Calculation

     iteration #  1     ecut=   120.00 Ry     beta= 0.70
     Davidson diagonalization with overlap
     ethr =  1.00E-02,  avg # of iterations =  5.3

     total energy              =   -6253.16940543 Ry
     Harris-Foulkes estimate   =   -6264.06667452 Ry
     estimated scf accuracy    <      13.69425312 Ry

[...]

     total energy              =   -6260.44877469 Ry
     Harris-Foulkes estimate   =   -6260.44877470 Ry
     estimated scf accuracy    <       0.00000003 Ry

     iteration # 13     ecut=   120.00 Ry     beta= 0.70
     Davidson diagonalization with overlap
     ethr =  8.23E-12,  avg # of iterations =  2.6

     End of self-consistent calculation

          k = 0.0000 0.0000 0.0000 ( 61831 PWs)   bands (ev):

   -65.8481 -65.8477 -65.8472 -65.8471 -65.8467 -65.8466 -65.8461 -65.8457
   -30.3051 -30.2993 -30.2986 -30.2931 -30.2523 -30.2434 -30.2430 -30.2321
   -30.2122 -30.2109 -30.2008 -30.1972 -30.1904 -30.1884 -30.1809 -30.1748
   -30.1112 -30.1099 -30.1092 -30.1092 -30.0960 -30.0913 -30.0898 -30.0852
   -19.9965 -19.9963 -19.9959 -19.9957 -19.9937 -19.9936 -19.9928 -19.9927
   -19.9848 -19.9846 -19.9845 -19.9840 -19.9837 -19.9836 -19.9833 -19.9832
   -19.9830 -19.9827 -19.9823 -19.9821 -19.9815 -19.9809 -19.9805 -19.9805
   -19.9777 -19.9771 -19.9771 -19.9769 -19.9758 -19.9754 -19.9752 -19.9750
   -19.9651 -19.9649 -19.9648 -19.9647 -19.9638 -19.9635 -19.9634 -19.9632
   -19.9384 -19.9383 -19.9369 -19.9369 -19.9334 -19.9334 -19.9334 -19.9333
   -19.9315 -19.9315 -19.9315 -19.9315 -19.9283 -19.9283 -19.9269 -19.9269
    -9.8031  -9.4909  -9.3583  -9.3574  -9.0600  -9.0311  -8.9500  -8.8460
    -8.8288  -8.7357  -8.6956  -8.6887  -7.7571  -7.6756  -7.6590  -7.6544
    -7.6278  -7.6116  -7.6044  -7.5991  -7.5006  -7.4804  -7.4722  -7.4587
     1.4568   1.4639   1.5115   1.5220   1.5386   1.5621   1.5783   1.7721
     1.7759   1.8183   1.8628   2.0582   2.5463   2.6353   2.6855   2.7060
     2.8345   2.8727   4.2607   4.3211   4.4982   4.6212   4.8402   4.9479
     4.9557   4.9884   4.9983   5.0033   5.2037   5.2202   5.2983   5.5174
     5.6098   5.6227   5.6863   5.6904   5.7384   5.7585   5.8547   5.9324
     5.9603   5.9914   6.0000   6.0223   6.0907   6.1052   6.1513   6.2644
     6.2827   6.3625   6.3923   6.6524   6.6743   6.9051   6.9259   6.9613
     7.0095   7.0286   7.0409   7.1056   7.1228   7.1821   7.4199   7.4638
     7.4937   7.5341   7.8837   7.9038   8.1055   8.1683   8.2131   8.2707
     9.7354   9.7507  10.2600  10.2805  10.2938  10.3183  12.3920  12.4425
    12.5536  12.6035  12.6412  12.6615  12.7637  12.7800  12.8234  12.9978
    13.4167  13.4921  13.4957  13.5643  13.8544  14.0226  14.2920  14.2944
    14.6052  14.6688  14.8926  14.9716  15.6466  15.6729  15.7337  16.1913
    16.2625  16.9364  17.1139  17.2058  17.5713

[...]

          k = 0.3333-0.4760-0.4983 ( 61848 PWs)   bands (ev):

[...]

          k =-0.5000 0.0000 0.0000 ( 61868 PWs)   bands (ev):

[...]

          k =-0.5000-0.4760-0.4983 ( 61920 PWs)   bands (ev):

   -65.8469 -65.8469 -65.8469 -65.8469 -65.8469 -65.8469 -65.8469 -65.8469
   -30.2693 -30.2693 -30.2693 -30.2693 -30.2687 -30.2687 -30.2686 -30.2686
   -30.1631 -30.1631 -30.1631 -30.1631 -30.1608 -30.1608 -30.1608 -30.1608
   -30.1366 -30.1366 -30.1366 -30.1366 -30.1342 -30.1342 -30.1342 -30.1342
   -19.9946 -19.9946 -19.9946 -19.9945 -19.9945 -19.9945 -19.9945 -19.9945
   -19.9838 -19.9838 -19.9838 -19.9838 -19.9836 -19.9836 -19.9836 -19.9836
   -19.9822 -19.9822 -19.9822 -19.9822 -19.9820 -19.9820 -19.9820 -19.9820
   -19.9765 -19.9765 -19.9765 -19.9764 -19.9763 -19.9763 -19.9763 -19.9762
   -19.9642 -19.9642 -19.9642 -19.9642 -19.9641 -19.9641 -19.9641 -19.9640
   -19.9352 -19.9352 -19.9352 -19.9352 -19.9351 -19.9351 -19.9351 -19.9350
   -19.9302 -19.9302 -19.9302 -19.9302 -19.9301 -19.9301 -19.9301 -19.9300
    -8.8015  -8.8015  -8.8015  -8.8015  -8.7786  -8.7786  -8.7786  -8.7786
    -8.2716  -8.2716  -8.2716  -8.2715  -8.2317  -8.2317  -8.2317  -8.2317
    -8.1932  -8.1932  -8.1932  -8.1932  -8.1629  -8.1629  -8.1629  -8.1629
     3.0648   3.0648   3.0648   3.0648   3.1516   3.1516   3.1516   3.1517
     3.3097   3.3097   3.3097   3.3097   3.4323   3.4323   3.4323   3.4323
     3.5056   3.5056   3.5056   3.5056   3.6838   3.6838   3.6838   3.6838
     4.2970   4.2970   4.2970   4.2970   4.3129   4.3129   4.3129   4.3129
     4.4955   4.4955   4.4955   4.4955   4.5593   4.5593   4.5593   4.5593
     4.6370   4.6370   4.6370   4.6370   4.7002   4.7002   4.7002   4.7002
     7.2088   7.2088   7.2088   7.2088   7.3912   7.3912   7.3912   7.3912
     7.4494   7.4494   7.4494   7.4494   7.5103   7.5103   7.5104   7.5104
     7.6894   7.6894   7.6895   7.6895   7.7575   7.7575   7.7575   7.7575
    12.0729  12.0729  12.0729  12.0729  12.0937  12.0937  12.0937  12.0937
    12.3845  12.3845  12.3845  12.3845  12.5581  12.5581  12.5581  12.5581
    12.7250  12.7250  12.7250  12.7250  12.8215  12.8215  12.8215  12.8215
    17.1827  17.1827  17.1827  17.1827  17.2810  17.2810  17.2810  17.2810
    17.5254  17.5255  17.5255  17.5255  17.5715

     the Fermi energy is    10.2880 ev

!    total energy              =   -6260.44877469 Ry
     Harris-Foulkes estimate   =   -6260.44877469 Ry
     estimated scf accuracy    <          9.5E-10 Ry

     The total energy is the sum of the following terms:

     one-electron contribution =   -4691.65082922 Ry
     hartree contribution      =    2586.70593509 Ry
     xc contribution           =    -966.66052838 Ry
     ewald contribution        =   -3188.84331157 Ry
     smearing contrib. (-TS)   =      -0.00004060 Ry

     convergence has been achieved in  13 iterations

     Writing output data file chempot_9.save/

     General routines

     Parallel routines

   This run was terminated on:  13:36:40   4Dec2019

   JOB DONE.