     Program PWSCF v.6.4.1 starts on 21Nov2019 at 15:36: 3

     K-points division:     npool     =      40
     Reading input from scf.in

     Current dimensions of program PWSCF are:
     Max number of different atomic species (ntypx) = 10
     Max number of k-points (npk) =  40000
     Max angular momentum in pseudopotentials (lmaxx) =  3

     Subspace diagonalization in iterative solution of the eigenvalue problem:
     a serial algorithm will be used

     Message from routine setup:
     using ibrav=0 with symmetry is DISCOURAGED, use correct ibrav instead

     bravais-lattice index     =            0
     lattice parameter (alat)  =       9.9244  a.u.
     unit-cell volume          =    1421.2478 (a.u.)^3
     number of atoms/cell      =           16
     number of atomic types    =            2
     number of electrons       =       184.26
     number of Kohn-Sham states=          111
     kinetic-energy cutoff     =     120.0000  Ry
     charge density cutoff     =     480.0000  Ry
     convergence threshold     =      1.0E-08
     mixing beta               =       0.7000
     number of iterations used =            8  plain     mixing
     Exchange-correlation      = SLA PW NOGX NOGC ( 1  4  0  0 0 0)

     celldm(1)=   9.924371  celldm(2)=   0.000000  celldm(3)=   0.000000
     celldm(4)=   0.000000  celldm(5)=   0.000000  celldm(6)=   0.000000

     crystal axes: (cart. coord. in units of alat)
               a(1) = (   1.000000   0.000000   0.000000 )
               a(2) = (   0.000000   1.000000   0.000000 )
               a(3) = (   0.000000   0.000000   1.453988 )

     reciprocal axes: (cart. coord. in units 2 pi/alat)
               b(1) = (  1.000000  0.000000  0.000000 )
               b(2) = (  0.000000  1.000000  0.000000 )
               b(3) = (  0.000000  0.000000  0.687764 )

     PseudoPot. # 1 for W  read from file:
     /cluster/scratch/mnoe/QE/pps/W_ONCV_LDA-4.0.upf
     MD5 check sum: ba0307d5d4cd419d6f1d13dc49d7c13a
     Pseudo is Norm-conserving + core correction, Zval = 28.0
     Generated using ONCVPSP code by D. R. Hamann
     Using radial grid of 1380 points,  8 beta functions with:
                l(1) =   0
                l(2) =   0
                l(3) =   1
                l(4) =   1
                l(5) =   2
                l(6) =   2
                l(7) =   3
                l(8) =   3

     PseudoPot. # 2 for O  read from file:
     /cluster/scratch/mnoe/QE/pps/O_ONCV_LDA-3.0.upf
     MD5 check sum: b55cdb4f45ae2203d24ad12cf8d61a31
     Pseudo is Norm-conserving + core correction, Zval =  6.0
     Generated using ONCVPSP code by D. R. Hamann
     Using radial grid of  926 points,  5 beta functions with:
                l(1) =   0
                l(2) =   0
                l(3) =   1
                l(4) =   1
                l(5) =   2

     atomic species   valence    mass     pseudopotential
        W             28.00   183.84000     W ( 1.00)
        O              6.00    15.99940     O ( 1.00)

     16 Sym. Ops., with inversion, found (14 have fractional translation)

   Cartesian axes

     site n.     atom                  positions (alat units)
         1           W   tau(   1) = (   0.2500000   0.2500000   0.3028288  )
         2           W   tau(   2) = (   0.7500000   0.7500000   1.1511594  )
         3           W   tau(   3) = (   0.7500000   0.7500000   0.4241653  )
         4           W   tau(   4) = (   0.2500000   0.2500000   1.0298228  )
         5           O   tau(   5) = (   0.2500000   0.2500000   0.6877923  )
         6           O   tau(   6) = (   0.7500000   0.7500000   0.7661958  )
         7           O   tau(   7) = (   0.7500000   0.7500000   0.0392017  )
         8           O   tau(   8) = (   0.2500000   0.2500000   1.4147864  )
         9           O   tau(   9) = (   0.5003170   0.4996830   0.3634970  )
        10           O   tau(  10) = (   0.4996830   0.5003170   1.0904911  )
        11           O   tau(  11) = (  -0.0003170   1.0003170   0.3634970  )
        12           O   tau(  12) = (   1.0003169  -0.0003169   1.0904911  )
        13           O   tau(  13) = (   1.0003170   0.5003170   0.3634970  )
        14           O   tau(  14) = (  -0.0003169   0.4996830   1.0904911  )
        15           O   tau(  15) = (   0.4996830  -0.0003170   0.3634970  )
        16           O   tau(  16) = (   0.5003170   1.0003169   1.0904911  )

     number of k points=    40  gaussian smearing, width (Ry)=  0.0007
                       cart. coord. in units 2pi/alat
        k(    1) = (   0.0000000   0.0000000   0.0000000), wk =   0.0092593
        k(    2) = (   0.0000000   0.0000000   0.1146273), wk =   0.0185185
        k(    3) = (   0.0000000   0.0000000   0.2292545), wk =   0.0185185
        k(    4) = (   0.0000000   0.0000000  -0.3438818), wk =   0.0092593
        k(    5) = (   0.0000000   0.1666667   0.0000000), wk =   0.0370370
        k(    6) = (   0.0000000   0.1666667   0.1146273), wk =   0.0740741
        k(    7) = (   0.0000000   0.1666667   0.2292545), wk =   0.0740741
        k(    8) = (   0.0000000   0.1666667  -0.3438818), wk =   0.0370370
        k(    9) = (   0.0000000   0.3333333   0.0000000), wk =   0.0370370
        k(   10) = (   0.0000000   0.3333333   0.1146273), wk =   0.0740741
        k(   11) = (   0.0000000   0.3333333   0.2292545), wk =   0.0740741
        k(   12) = (   0.0000000   0.3333333  -0.3438818), wk =   0.0370370
        k(   13) = (   0.0000000  -0.5000000   0.0000000), wk =   0.0185185
        k(   14) = (   0.0000000  -0.5000000   0.1146273), wk =   0.0370370
        k(   15) = (   0.0000000  -0.5000000   0.2292545), wk =   0.0370370
        k(   16) = (   0.0000000  -0.5000000  -0.3438818), wk =   0.0185185
        k(   17) = (   0.1666667   0.1666667   0.0000000), wk =   0.0370370
        k(   18) = (   0.1666667   0.1666667   0.1146273), wk =   0.0740741
        k(   19) = (   0.1666667   0.1666667   0.2292545), wk =   0.0740741
        k(   20) = (   0.1666667   0.1666667  -0.3438818), wk =   0.0370370
        k(   21) = (   0.1666667   0.3333333   0.0000000), wk =   0.0740741
        k(   22) = (   0.1666667   0.3333333   0.1146273), wk =   0.1481481
        k(   23) = (   0.1666667   0.3333333   0.2292545), wk =   0.1481481
        k(   24) = (   0.1666667   0.3333333  -0.3438818), wk =   0.0740741
        k(   25) = (   0.1666667  -0.5000000   0.0000000), wk =   0.0370370
        k(   26) = (   0.1666667  -0.5000000   0.1146273), wk =   0.0740741
        k(   27) = (   0.1666667  -0.5000000   0.2292545), wk =   0.0740741
        k(   28) = (   0.1666667  -0.5000000  -0.3438818), wk =   0.0370370
        k(   29) = (   0.3333333   0.3333333   0.0000000), wk =   0.0370370
        k(   30) = (   0.3333333   0.3333333   0.1146273), wk =   0.0740741
        k(   31) = (   0.3333333   0.3333333   0.2292545), wk =   0.0740741
        k(   32) = (   0.3333333   0.3333333  -0.3438818), wk =   0.0370370
        k(   33) = (   0.3333333  -0.5000000   0.0000000), wk =   0.0370370
        k(   34) = (   0.3333333  -0.5000000   0.1146273), wk =   0.0740741
        k(   35) = (   0.3333333  -0.5000000   0.2292545), wk =   0.0740741
        k(   36) = (   0.3333333  -0.5000000  -0.3438818), wk =   0.0370370
        k(   37) = (  -0.5000000  -0.5000000   0.0000000), wk =   0.0092593
        k(   38) = (  -0.5000000  -0.5000000   0.1146273), wk =   0.0185185
        k(   39) = (  -0.5000000  -0.5000000   0.2292545), wk =   0.0185185
        k(   40) = (  -0.5000000  -0.5000000  -0.3438818), wk =   0.0092593

     Initial potential from superposition of free atoms

     starting charge  183.99828, renormalised to  184.26000
     Starting wfcs are  116 randomized atomic wfcs

     Self-consistent Calculation

     iteration #  1     ecut=   120.00 Ry     beta= 0.70
     Davidson diagonalization with overlap
     ethr =  1.00E-02,  avg # of iterations =  4.7

     total energy              =   -3126.60983407 Ry
     Harris-Foulkes estimate   =   -3132.16292862 Ry
     estimated scf accuracy    <       6.99304568 Ry

[...]

     total energy              =   -3130.32844507 Ry
     Harris-Foulkes estimate   =   -3130.32844509 Ry
     estimated scf accuracy    <       0.00000004 Ry

     iteration # 12     ecut=   120.00 Ry     beta= 0.70
     Davidson diagonalization with overlap
     ethr =  2.36E-11,  avg # of iterations =  2.2

     End of self-consistent calculation

          k = 0.0000 0.0000 0.0000 ( 31591 PWs)   bands (ev):

   -66.2938 -66.2933 -66.2925 -66.2920 -30.6618 -30.6579 -30.6291 -30.6291
   -30.6250 -30.6250 -30.5890 -30.5863 -30.5503 -30.5503 -30.5470 -30.5470
   -20.4504 -20.4503 -20.4503 -20.4502 -20.4347 -20.4345 -20.4336 -20.4336
   -20.4335 -20.4335 -20.4321 -20.4321 -20.4321 -20.4319 -20.4310 -20.4310
   -20.4309 -20.4309 -20.4277 -20.4276 -20.4252 -20.4252 -20.4236 -20.4236
   -20.4229 -20.4229 -20.4213 -20.4213 -10.1576  -9.7499  -9.3708  -9.1051
    -9.0802  -8.9924  -7.9314  -7.8635  -7.8635  -7.8394  -7.8394  -7.8011
     1.0107   1.0122   1.0383   1.2399   1.3547   1.4379   2.3476   2.3476
     2.4019   2.5178   3.9333   3.9333   4.6808   4.6808   4.9023   5.4881
     5.4881   5.6513   5.6513   5.7977   5.7977   5.8586   5.9223   6.4983
     6.4983   6.7511   7.0440   7.0794   7.0794   7.0979   7.0979   7.1261
     8.2416   8.2416   8.2965   8.3075   8.8485   8.8518   9.4438   9.4438
    12.3782  12.3782  13.2273  13.2273  13.4300  13.7633  13.7840  13.9940
    14.0026  14.1182  14.1182  14.5697  15.5157  16.3166  17.0485

[...]

          k = 0.3333-0.5000-0.3439 ( 31564 PWs)   bands (ev):

[...]

          k =-0.5000-0.5000 0.0000 ( 31488 PWs)   bands (ev):

[...]

          k =-0.5000-0.5000-0.3439 ( 31624 PWs)   bands (ev):

   -66.2929 -66.2929 -66.2929 -66.2929 -30.6318 -30.6318 -30.6318 -30.6318
   -30.6239 -30.6239 -30.6239 -30.6239 -30.5445 -30.5445 -30.5445 -30.5445
   -20.4503 -20.4503 -20.4503 -20.4503 -20.4351 -20.4351 -20.4351 -20.4351
   -20.4321 -20.4321 -20.4321 -20.4321 -20.4312 -20.4312 -20.4312 -20.4312
   -20.4292 -20.4292 -20.4292 -20.4292 -20.4246 -20.4246 -20.4246 -20.4246
   -20.4221 -20.4221 -20.4221 -20.4221  -9.5075  -9.5075  -9.5075  -9.5075
    -8.5886  -8.5886  -8.5886  -8.5886  -7.9042  -7.9042  -7.9042  -7.9042
     1.1492   1.1492   1.1492   1.1492   2.9403   2.9403   2.9403   2.9403
     3.2022   3.2022   3.2022   3.2022   4.5588   4.5588   4.5588   4.5588
     5.2461   5.2461   5.2461   5.2461   5.8861   5.8861   5.8861   5.8861
     6.1493   6.1493   6.1493   6.1493   6.6066   6.6066   6.6066   6.6066
     7.4427   7.4427   7.4427   7.4427  11.0932  11.0932  11.0932  11.0932
    12.4117  12.4117  12.4117  12.4117  13.5273  13.5273  13.5273  13.5273
    14.9332  14.9332  14.9332  14.9332  17.8143  17.8143  17.8143

     the Fermi energy is     9.5064 ev

!    total energy              =   -3130.32844507 Ry
     Harris-Foulkes estimate   =   -3130.32844507 Ry
     estimated scf accuracy    <          1.3E-09 Ry

     The total energy is the sum of the following terms:

     one-electron contribution =   -2392.94075946 Ry
     hartree contribution      =    1314.22983243 Ry
     xc contribution           =    -483.14762006 Ry
     ewald contribution        =   -1568.46983509 Ry
     smearing contrib. (-TS)   =      -0.00006289 Ry

     convergence has been achieved in  12 iterations

     Writing output data file Landau_29.save/

     General routines

     Parallel routines

   This run was terminated on:  15:38:23  21Nov2019

   JOB DONE.