     Program PWSCF v.6.4.1 starts on 29Nov2019 at 19:35:51

     K-points division:     npool     =      40
     Reading input from scf.in

     Current dimensions of program PWSCF are:
     Max number of different atomic species (ntypx) = 10
     Max number of k-points (npk) =  40000
     Max angular momentum in pseudopotentials (lmaxx) =  3

     Subspace diagonalization in iterative solution of the eigenvalue problem:
     a serial algorithm will be used

     Message from routine setup:
     using ibrav=0 with symmetry is DISCOURAGED, use correct ibrav instead

     bravais-lattice index     =            0
     lattice parameter (alat)  =       9.7893  a.u.
     unit-cell volume          =    1403.2260 (a.u.)^3
     number of atoms/cell      =           16
     number of atomic types    =            2
     number of electrons       =       184.02
     number of Kohn-Sham states=          110
     kinetic-energy cutoff     =     120.0000  Ry
     charge density cutoff     =     480.0000  Ry
     convergence threshold     =      1.0E-08
     mixing beta               =       0.7000
     number of iterations used =            8  plain     mixing
     Exchange-correlation      = SLA PW NOGX NOGC ( 1  4  0  0 0 0)

     celldm(1)=   9.789301  celldm(2)=   0.000000  celldm(3)=   0.000000
     celldm(4)=   0.000000  celldm(5)=   0.000000  celldm(6)=   0.000000

     crystal axes: (cart. coord. in units of alat)
               a(1) = (   1.000000   0.000000   0.000000 )
               a(2) = (   0.000000   1.000000   0.000000 )
               a(3) = (   0.000000   0.000000   1.495797 )

     reciprocal axes: (cart. coord. in units 2 pi/alat)
               b(1) = (  1.000000  0.000000  0.000000 )
               b(2) = (  0.000000  1.000000  0.000000 )
               b(3) = (  0.000000  0.000000  0.668540 )

     PseudoPot. # 1 for W  read from file:
     /cluster/scratch/mnoe/QE/pps/W_ONCV_LDA-4.0.upf
     MD5 check sum: ba0307d5d4cd419d6f1d13dc49d7c13a
     Pseudo is Norm-conserving + core correction, Zval = 28.0
     Generated using ONCVPSP code by D. R. Hamann
     Using radial grid of 1380 points,  8 beta functions with:
                l(1) =   0
                l(2) =   0
                l(3) =   1
                l(4) =   1
                l(5) =   2
                l(6) =   2
                l(7) =   3
                l(8) =   3

     PseudoPot. # 2 for O  read from file:
     /cluster/scratch/mnoe/QE/pps/O_ONCV_LDA-3.0.upf
     MD5 check sum: b55cdb4f45ae2203d24ad12cf8d61a31
     Pseudo is Norm-conserving + core correction, Zval =  6.0
     Generated using ONCVPSP code by D. R. Hamann
     Using radial grid of  926 points,  5 beta functions with:
                l(1) =   0
                l(2) =   0
                l(3) =   1
                l(4) =   1
                l(5) =   2

     atomic species   valence    mass     pseudopotential
        W             28.00   183.84000     W ( 1.00)
        O              6.00    15.99940     O ( 1.00)

     16 Sym. Ops., with inversion, found (14 have fractional translation)

   Cartesian axes

     site n.     atom                  positions (alat units)
         1           W   tau(   1) = (   0.2500000   0.2500000   0.3262631  )
         2           W   tau(   2) = (   0.7500000   0.7500000   1.1695335  )
         3           W   tau(   3) = (   0.7500000   0.7500000   0.4216352  )
         4           W   tau(   4) = (   0.2500000   0.2500000   1.0741614  )
         5           O   tau(   5) = (   0.2500000   0.2500000   0.7354384  )
         6           O   tau(   6) = (   0.7500000   0.7500000   0.7603583  )
         7           O   tau(   7) = (   0.7500000   0.7500000   0.0124600  )
         8           O   tau(   8) = (   0.2500000   0.2500000   1.4833367  )
         9           O   tau(   9) = (   0.4494100   0.5505900   0.3739492  )
        10           O   tau(  10) = (   0.5505900   0.4494100   1.1218475  )
        11           O   tau(  11) = (   0.0505900   0.9494100   0.3739492  )
        12           O   tau(  12) = (   0.9494099   0.0505900   1.1218475  )
        13           O   tau(  13) = (   0.9494100   0.4494100   0.3739492  )
        14           O   tau(  14) = (   0.0505900   0.5505900   1.1218475  )
        15           O   tau(  15) = (   0.5505900   0.0505900   0.3739492  )
        16           O   tau(  16) = (   0.4494100   0.9494099   1.1218475  )

     number of k points=    40  gaussian smearing, width (Ry)=  0.0007
                       cart. coord. in units 2pi/alat
        k(    1) = (   0.0000000   0.0000000   0.0000000), wk =   0.0092593
        k(    2) = (   0.0000000   0.0000000   0.1114233), wk =   0.0185185
        k(    3) = (   0.0000000   0.0000000   0.2228467), wk =   0.0185185
        k(    4) = (   0.0000000   0.0000000  -0.3342700), wk =   0.0092593
        k(    5) = (   0.0000000   0.1666667   0.0000000), wk =   0.0370370
        k(    6) = (   0.0000000   0.1666667   0.1114233), wk =   0.0740741
        k(    7) = (   0.0000000   0.1666667   0.2228467), wk =   0.0740741
        k(    8) = (   0.0000000   0.1666667  -0.3342700), wk =   0.0370370
        k(    9) = (   0.0000000   0.3333333   0.0000000), wk =   0.0370370
        k(   10) = (   0.0000000   0.3333333   0.1114233), wk =   0.0740741
        k(   11) = (   0.0000000   0.3333333   0.2228467), wk =   0.0740741
        k(   12) = (   0.0000000   0.3333333  -0.3342700), wk =   0.0370370
        k(   13) = (   0.0000000  -0.5000000   0.0000000), wk =   0.0185185
        k(   14) = (   0.0000000  -0.5000000   0.1114233), wk =   0.0370370
        k(   15) = (   0.0000000  -0.5000000   0.2228467), wk =   0.0370370
        k(   16) = (   0.0000000  -0.5000000  -0.3342700), wk =   0.0185185
        k(   17) = (   0.1666667   0.1666667   0.0000000), wk =   0.0370370
        k(   18) = (   0.1666667   0.1666667   0.1114233), wk =   0.0740741
        k(   19) = (   0.1666667   0.1666667   0.2228467), wk =   0.0740741
        k(   20) = (   0.1666667   0.1666667  -0.3342700), wk =   0.0370370
        k(   21) = (   0.1666667   0.3333333   0.0000000), wk =   0.0740741
        k(   22) = (   0.1666667   0.3333333   0.1114233), wk =   0.1481481
        k(   23) = (   0.1666667   0.3333333   0.2228467), wk =   0.1481481
        k(   24) = (   0.1666667   0.3333333  -0.3342700), wk =   0.0740741
        k(   25) = (   0.1666667  -0.5000000   0.0000000), wk =   0.0370370
        k(   26) = (   0.1666667  -0.5000000   0.1114233), wk =   0.0740741
        k(   27) = (   0.1666667  -0.5000000   0.2228467), wk =   0.0740741
        k(   28) = (   0.1666667  -0.5000000  -0.3342700), wk =   0.0370370
        k(   29) = (   0.3333333   0.3333333   0.0000000), wk =   0.0370370
        k(   30) = (   0.3333333   0.3333333   0.1114233), wk =   0.0740741
        k(   31) = (   0.3333333   0.3333333   0.2228467), wk =   0.0740741
        k(   32) = (   0.3333333   0.3333333  -0.3342700), wk =   0.0370370
        k(   33) = (   0.3333333  -0.5000000   0.0000000), wk =   0.0370370
        k(   34) = (   0.3333333  -0.5000000   0.1114233), wk =   0.0740741
        k(   35) = (   0.3333333  -0.5000000   0.2228467), wk =   0.0740741
        k(   36) = (   0.3333333  -0.5000000  -0.3342700), wk =   0.0370370
        k(   37) = (  -0.5000000  -0.5000000   0.0000000), wk =   0.0092593
        k(   38) = (  -0.5000000  -0.5000000   0.1114233), wk =   0.0185185
        k(   39) = (  -0.5000000  -0.5000000   0.2228467), wk =   0.0185185
        k(   40) = (  -0.5000000  -0.5000000  -0.3342700), wk =   0.0092593

     Initial potential from superposition of free atoms

     starting charge  183.99828, renormalised to  184.02000
     Starting wfcs are  116 randomized atomic wfcs

     Self-consistent Calculation

     iteration #  1     ecut=   120.00 Ry     beta= 0.70
     Davidson diagonalization with overlap
     ethr =  1.00E-02,  avg # of iterations =  4.0

     total energy              =   -3126.96054894 Ry
     Harris-Foulkes estimate   =   -3132.28263168 Ry
     estimated scf accuracy    <       6.73563622 Ry

[...]

     total energy              =   -3130.54103480 Ry
     Harris-Foulkes estimate   =   -3130.54103482 Ry
     estimated scf accuracy    <       0.00000003 Ry

     iteration # 12     ecut=   120.00 Ry     beta= 0.70
     Davidson diagonalization with overlap
     ethr =  1.44E-11,  avg # of iterations =  2.0

     End of self-consistent calculation

          k = 0.0000 0.0000 0.0000 ( 31095 PWs)   bands (ev):

   -66.1773 -66.1769 -66.1753 -66.1749 -30.5749 -30.5685 -30.5156 -30.5139
   -30.5139 -30.5107 -30.5107 -30.5105 -30.4189 -30.4189 -30.4162 -30.4162
   -20.3374 -20.3373 -20.3372 -20.3372 -20.3212 -20.3208 -20.3157 -20.3152
   -20.3141 -20.3141 -20.3134 -20.3134 -20.3129 -20.3129 -20.3121 -20.3121
   -20.3047 -20.3047 -20.3047 -20.3046 -20.3043 -20.3043 -20.3039 -20.3039
   -20.2971 -20.2971 -20.2966 -20.2966  -9.9529  -9.6741  -9.0854  -9.0535
    -9.0415  -8.8852  -7.8654  -7.7552  -7.6300  -7.6300  -7.6090  -7.6090
     1.1893   1.1898   1.3616   1.6246   1.6389   1.8525   2.3905   2.4635
     2.7231   2.7231   4.1293   4.1293   5.0252   5.0252   5.0609   5.5096
     5.5096   5.5187   5.5187   5.8005   5.8005   5.9384   5.9502   6.7944
     6.7944   6.8806   7.0144   7.0176   7.3897   7.3897   7.4347   7.4347
     7.7733   7.7869   8.0682   8.0682   9.2233   9.2307  10.0207  10.0207
    12.2750  12.2750  12.8368  12.8396  13.3926  13.3926  13.7609  14.1431
    14.1431  14.9038  15.3907  15.4018  15.4495  16.7922

[...]

          k = 0.3333-0.5000-0.3343 ( 31156 PWs)   bands (ev):

[...]

          k =-0.5000-0.5000 0.0000 ( 31200 PWs)   bands (ev):

[...]

          k =-0.5000-0.5000-0.3343 ( 31088 PWs)   bands (ev):

   -66.1761 -66.1761 -66.1761 -66.1761 -30.5425 -30.5425 -30.5425 -30.5425
   -30.5176 -30.5176 -30.5176 -30.5176 -30.4132 -30.4132 -30.4132 -30.4132
   -20.3373 -20.3373 -20.3373 -20.3373 -20.3183 -20.3183 -20.3183 -20.3183
   -20.3140 -20.3140 -20.3140 -20.3140 -20.3124 -20.3124 -20.3124 -20.3124
   -20.3050 -20.3050 -20.3050 -20.3050 -20.3043 -20.3043 -20.3043 -20.3043
   -20.2963 -20.2963 -20.2962 -20.2962  -9.3204  -9.3204  -9.3204  -9.3204
    -8.4515  -8.4515  -8.4515  -8.4515  -7.7730  -7.7730  -7.7730  -7.7730
     1.2865   1.2865   1.2865   1.2865   3.1913   3.1913   3.1914   3.1914
     3.4520   3.4520   3.4520   3.4520   4.8648   4.8648   4.8648   4.8648
     5.3036   5.3036   5.3036   5.3036   5.9943   5.9943   5.9943   5.9943
     6.1613   6.1613   6.1613   6.1613   6.7490   6.7490   6.7490   6.7490
     7.4569   7.4569   7.4569   7.4569  11.3138  11.3138  11.3138  11.3138
    12.2709  12.2709  12.2709  12.2709  13.5567  13.5567  13.5567  13.5567
    15.6307  15.6307  15.6307  15.6307  18.3449  18.4301

     the Fermi energy is     9.2197 ev

!    total energy              =   -3130.54103480 Ry
     Harris-Foulkes estimate   =   -3130.54103480 Ry
     estimated scf accuracy    <          1.5E-09 Ry

     The total energy is the sum of the following terms:

     one-electron contribution =   -2361.07528856 Ry
     hartree contribution      =    1298.88253490 Ry
     xc contribution           =    -482.84495359 Ry
     ewald contribution        =   -1585.50331333 Ry
     smearing contrib. (-TS)   =      -0.00001424 Ry

     convergence has been achieved in  12 iterations

     Writing output data file chempot_1.save/

     General routines

     Parallel routines

   This run was terminated on:  19:38:40  29Nov2019

   JOB DONE.