     Program PWSCF v.6.2 (svn rev. 14038) starts on 29Apr2019 at 16:53:27

     K-points division:     npool     =      64
     Reading input from rscf.in

     Current dimensions of program PWSCF are:
     Max number of different atomic species (ntypx) = 10
     Max number of k-points (npk) =  40000
     Max angular momentum in pseudopotentials (lmaxx) =  3

     Subspace diagonalization in iterative solution of the eigenvalue problem:
     a serial algorithm will be used

     bravais-lattice index     =            0
     lattice parameter (alat)  =      13.8397  a.u.
     unit-cell volume          =    2804.9816 (a.u.)^3
     number of atoms/cell      =           32
     number of atomic types    =            2
     number of electrons       =       368.00
     number of Kohn-Sham states=          221
     kinetic-energy cutoff     =     120.0000  Ry
     charge density cutoff     =     480.0000  Ry
     convergence threshold     =      1.0E-08
     mixing beta               =       0.7000
     number of iterations used =            8  plain     mixing
     Exchange-correlation      = SLA PW NOGX NOGC ( 1  4  0  0 0 0)
     nstep                     =           50

     celldm(1)=  13.839685  celldm(2)=   0.000000  celldm(3)=   0.000000
     celldm(4)=   0.000000  celldm(5)=   0.000000  celldm(6)=   0.000000

     crystal axes: (cart. coord. in units of alat)
               a(1) = (   1.000000   0.000000   0.000000 )
               a(2) = (   0.000000   1.058160   0.000000 )
               a(3) = (   0.000000   0.000000   1.000000 )

     reciprocal axes: (cart. coord. in units 2 pi/alat)
               b(1) = (  1.000000  0.000000  0.000000 )
               b(2) = (  0.000000  0.945037  0.000000 )
               b(3) = (  0.000000  0.000000  1.000000 )

     PseudoPot. # 1 for W  read from file:
     /cluster/scratch/mnoe/QE/pps/W_ONCV_LDA-4.0.upf
     MD5 check sum: ba0307d5d4cd419d6f1d13dc49d7c13a
     Pseudo is Norm-conserving + core correction, Zval = 28.0
     Generated using ONCVPSP code by D. R. Hamann
     Using radial grid of 1380 points,  8 beta functions with:
                l(1) =   0
                l(2) =   0
                l(3) =   1
                l(4) =   1
                l(5) =   2
                l(6) =   2
                l(7) =   3
                l(8) =   3

     PseudoPot. # 2 for O  read from file:
     /cluster/scratch/mnoe/QE/pps/O_ONCV_LDA-3.0.upf
     MD5 check sum: a1bd6164e7280c17a38c229939bfbd54
     Pseudo is Norm-conserving + core correction, Zval =  6.0
     Generated using ONCVPSP code by D. R. Hamann
     Using radial grid of  926 points,  5 beta functions with:
                l(1) =   0
                l(2) =   0
                l(3) =   1
                l(4) =   1
                l(5) =   2

     atomic species   valence    mass     pseudopotential
        W             28.00   183.84000     W ( 1.00)
        O              6.00    15.99940     O ( 1.00)

      8 Sym. Ops., with inversion, found ( 6 have fractional translation)

   Cartesian axes

     site n.     atom                  positions (alat units)
         1           W   tau(   1) = (   0.2463000   0.2982530   0.0034900  )
         2           W   tau(   2) = (   0.7537000   0.7599071   0.9965100  )
         3           W   tau(   3) = (   0.2537000   0.2308271   0.5034900  )
         4           W   tau(   4) = (   0.7463000   0.8273330   0.4965100  )
         5           W   tau(   5) = (   0.7537000   0.2982530   0.4965100  )
         6           W   tau(   6) = (   0.2463000   0.7599071   0.5034900  )
         7           W   tau(   7) = (   0.7463000   0.2308271   0.9965100  )
         8           W   tau(   8) = (   0.2537000   0.8273330   0.0034900  )
         9           O   tau(   9) = (   0.2431800   0.0088039   0.0010900  )
        10           O   tau(  10) = (   0.7568200   1.0493562   0.9989100  )
        11           O   tau(  11) = (   0.2568200   0.5202761   0.5010900  )
        12           O   tau(  12) = (   0.7431800   0.5378839   0.4989100  )
        13           O   tau(  13) = (   0.7568200   0.0088039   0.4989100  )
        14           O   tau(  14) = (   0.2431800   1.0493562   0.5010900  )
        15           O   tau(  15) = (   0.7431800   0.5202761   0.9989100  )
        16           O   tau(  16) = (   0.2568200   0.5378839   0.0010900  )
        17           O   tau(  17) = (   0.5010100   0.2571329   0.4495400  )
        18           O   tau(  18) = (   0.4989900   0.8010271   0.5504600  )
        19           O   tau(  19) = (   0.9989900   0.2719471   0.9495400  )
        20           O   tau(  20) = (   0.0010099   0.7862129   0.0504600  )
        21           O   tau(  21) = (   0.4989900   0.2571329   0.0504600  )
        22           O   tau(  22) = (   0.5010100   0.8010271   0.9495400  )
        23           O   tau(  23) = (   0.0010099   0.2719471   0.5504600  )
        24           O   tau(  24) = (   0.9989900   0.7862129   0.4495400  )
        25           O   tau(  25) = (   0.6995400   0.2629210   0.7484700  )
        26           O   tau(  26) = (   0.3004600   0.7952390   0.2515300  )
        27           O   tau(  27) = (   0.8004600   0.2661590   0.2484701  )
        28           O   tau(  28) = (   0.1995400   0.7920011   0.7515300  )
        29           O   tau(  29) = (   0.3004600   0.2629210   0.7515300  )
        30           O   tau(  30) = (   0.6995400   0.7952390   0.2484701  )
        31           O   tau(  31) = (   0.1995400   0.2661590   0.2515300  )
        32           O   tau(  32) = (   0.8004600   0.7920011   0.7484700  )

     number of k points=    64  gaussian smearing, width (Ry)=  0.0007
                       cart. coord. in units 2pi/alat
        k(    1) = (   0.0000000   0.0000000   0.0000000), wk =   0.0092593
        k(    2) = (   0.0000000   0.0000000   0.1666667), wk =   0.0185185
        k(    3) = (   0.0000000   0.0000000   0.3333333), wk =   0.0185185
        k(    4) = (   0.0000000   0.0000000  -0.5000000), wk =   0.0092593
        k(    5) = (   0.0000000   0.1575061   0.0000000), wk =   0.0185185
        k(    6) = (   0.0000000   0.1575061   0.1666667), wk =   0.0370370
        k(    7) = (   0.0000000   0.1575061   0.3333333), wk =   0.0370370
        k(    8) = (   0.0000000   0.1575061  -0.5000000), wk =   0.0185185
        k(    9) = (   0.0000000   0.3150122   0.0000000), wk =   0.0185185
        k(   10) = (   0.0000000   0.3150122   0.1666667), wk =   0.0370370
        k(   11) = (   0.0000000   0.3150122   0.3333333), wk =   0.0370370
        k(   12) = (   0.0000000   0.3150122  -0.5000000), wk =   0.0185185
        k(   13) = (   0.0000000  -0.4725183   0.0000000), wk =   0.0092593
        k(   14) = (   0.0000000  -0.4725183   0.1666667), wk =   0.0185185
        k(   15) = (   0.0000000  -0.4725183   0.3333333), wk =   0.0185185
        k(   16) = (   0.0000000  -0.4725183  -0.5000000), wk =   0.0092593
        k(   17) = (   0.1666667   0.0000000   0.1666667), wk =   0.0370370
        k(   18) = (   0.1666667   0.0000000   0.3333333), wk =   0.0370370
        k(   19) = (   0.1666667   0.0000000  -0.5000000), wk =   0.0185185
        k(   20) = (   0.1666667   0.1575061   0.1666667), wk =   0.0740741
        k(   21) = (   0.1666667   0.1575061   0.3333333), wk =   0.0740741
        k(   22) = (   0.1666667   0.1575061  -0.5000000), wk =   0.0370370
        k(   23) = (   0.1666667   0.3150122   0.1666667), wk =   0.0740741
        k(   24) = (   0.1666667   0.3150122   0.3333333), wk =   0.0740741
        k(   25) = (   0.1666667   0.3150122  -0.5000000), wk =   0.0370370
        k(   26) = (   0.1666667  -0.4725183   0.1666667), wk =   0.0370370
        k(   27) = (   0.1666667  -0.4725183   0.3333333), wk =   0.0370370
        k(   28) = (   0.1666667  -0.4725183  -0.5000000), wk =   0.0185185
        k(   29) = (   0.3333333   0.0000000   0.3333333), wk =   0.0370370
        k(   30) = (   0.3333333   0.0000000  -0.5000000), wk =   0.0185185
        k(   31) = (   0.3333333   0.1575061   0.3333333), wk =   0.0740741
        k(   32) = (   0.3333333   0.1575061  -0.5000000), wk =   0.0370370
        k(   33) = (   0.3333333   0.3150122   0.3333333), wk =   0.0740741
        k(   34) = (   0.3333333   0.3150122  -0.5000000), wk =   0.0370370
        k(   35) = (   0.3333333  -0.4725183   0.3333333), wk =   0.0370370
        k(   36) = (   0.3333333  -0.4725183  -0.5000000), wk =   0.0185185
        k(   37) = (  -0.5000000   0.0000000  -0.5000000), wk =   0.0092593
        k(   38) = (  -0.5000000   0.1575061  -0.5000000), wk =   0.0185185
        k(   39) = (  -0.5000000   0.3150122  -0.5000000), wk =   0.0185185
        k(   40) = (  -0.5000000  -0.4725183  -0.5000000), wk =   0.0092593
        k(   41) = (   0.1666667   0.0000000   0.0000000), wk =   0.0185185
        k(   42) = (   0.3333333   0.0000000   0.0000000), wk =   0.0185185
        k(   43) = (  -0.5000000   0.0000000   0.0000000), wk =   0.0092593
        k(   44) = (   0.1666667  -0.1575061   0.0000000), wk =   0.0370370
        k(   45) = (   0.3333333  -0.1575061   0.0000000), wk =   0.0370370
        k(   46) = (  -0.5000000  -0.1575061   0.0000000), wk =   0.0185185
        k(   47) = (   0.1666667  -0.3150122   0.0000000), wk =   0.0370370
        k(   48) = (   0.3333333  -0.3150122   0.0000000), wk =   0.0370370
        k(   49) = (  -0.5000000  -0.3150122   0.0000000), wk =   0.0185185
        k(   50) = (   0.1666667   0.4725183   0.0000000), wk =   0.0185185
        k(   51) = (   0.3333333   0.4725183   0.0000000), wk =   0.0185185
        k(   52) = (  -0.5000000   0.4725183   0.0000000), wk =   0.0092593
        k(   53) = (   0.3333333   0.0000000   0.1666667), wk =   0.0370370
        k(   54) = (  -0.5000000   0.0000000   0.1666667), wk =   0.0185185
        k(   55) = (   0.3333333  -0.1575061   0.1666667), wk =   0.0740741
        k(   56) = (  -0.5000000  -0.1575061   0.1666667), wk =   0.0370370
        k(   57) = (   0.3333333  -0.3150122   0.1666667), wk =   0.0740741
        k(   58) = (  -0.5000000  -0.3150122   0.1666667), wk =   0.0370370
        k(   59) = (   0.3333333   0.4725183   0.1666667), wk =   0.0370370
        k(   60) = (  -0.5000000   0.4725183   0.1666667), wk =   0.0185185
        k(   61) = (  -0.5000000   0.0000000   0.3333333), wk =   0.0185185
        k(   62) = (  -0.5000000  -0.1575061   0.3333333), wk =   0.0370370
        k(   63) = (  -0.5000000  -0.3150122   0.3333333), wk =   0.0370370
        k(   64) = (  -0.5000000   0.4725183   0.3333333), wk =   0.0185185

     Initial potential from superposition of free atoms

     starting charge  367.99656, renormalised to  368.00000
     Starting wfc are  232 randomized atomic wfcs

     Self-consistent Calculation

     iteration #  1     ecut=   120.00 Ry     beta= 0.70
     Davidson diagonalization with overlap
     ethr =  1.00E-02,  avg # of iterations =  5.0

     total energy              =   -6253.97631897 Ry
     Harris-Foulkes estimate   =   -6264.58530350 Ry
     estimated scf accuracy    <      13.43241350 Ry

[...]

     End of self-consistent calculation

[...]
End final coordinates

     A final scf calculation at the relaxed structure.
     The G-vectors are recalculated for the final unit cell
     Results may differ from those at the preceding step.

     bravais-lattice index     =            0
     lattice parameter (alat)  =      13.8397  a.u.
     unit-cell volume          =    2803.1666 (a.u.)^3
     number of atoms/cell      =           32
     number of atomic types    =            2
     number of electrons       =       368.00
     number of Kohn-Sham states=          221
     kinetic-energy cutoff     =     120.0000  Ry
     charge density cutoff     =     480.0000  Ry
     convergence threshold     =      1.0E-10
     mixing beta               =       0.7000
     number of iterations used =            8  plain     mixing
     Exchange-correlation      = SLA PW NOGX NOGC ( 1  4  0  0 0 0)

     celldm(1)=  13.839685  celldm(2)=   0.000000  celldm(3)=   0.000000
     celldm(4)=   0.000000  celldm(5)=   0.000000  celldm(6)=   0.000000

     crystal axes: (cart. coord. in units of alat)
               a(1) = (   0.999916   0.000000   0.000000 )
               a(2) = (   0.000000   1.057314   0.000000 )
               a(3) = (   0.000000   0.000000   1.000236 )

     reciprocal axes: (cart. coord. in units 2 pi/alat)
               b(1) = (  1.000084  0.000000  0.000000 )
               b(2) = (  0.000000  0.945793  0.000000 )
               b(3) = (  0.000000  0.000000  0.999764 )

     PseudoPot. # 1 for W  read from file:
     /cluster/scratch/mnoe/QE/pps/W_ONCV_LDA-4.0.upf
     MD5 check sum: ba0307d5d4cd419d6f1d13dc49d7c13a
     Pseudo is Norm-conserving + core correction, Zval = 28.0
     Generated using ONCVPSP code by D. R. Hamann
     Using radial grid of 1380 points,  8 beta functions with:
                l(1) =   0
                l(2) =   0
                l(3) =   1
                l(4) =   1
                l(5) =   2
                l(6) =   2
                l(7) =   3
                l(8) =   3

     PseudoPot. # 2 for O  read from file:
     /cluster/scratch/mnoe/QE/pps/O_ONCV_LDA-3.0.upf
     MD5 check sum: a1bd6164e7280c17a38c229939bfbd54
     Pseudo is Norm-conserving + core correction, Zval =  6.0
     Generated using ONCVPSP code by D. R. Hamann
     Using radial grid of  926 points,  5 beta functions with:
                l(1) =   0
                l(2) =   0
                l(3) =   1
                l(4) =   1
                l(5) =   2

     atomic species   valence    mass     pseudopotential
        W             28.00   183.84000     W ( 1.00)
        O              6.00    15.99940     O ( 1.00)

      8 Sym. Ops., with inversion, found ( 6 have fractional translation)

   Cartesian axes

     site n.     atom                  positions (alat units)
         1           W   tau(   1) = (   0.2462794   0.2980146   0.0034908  )
         2           W   tau(   2) = (   0.7536369   0.7592996   0.9967454  )
         3           W   tau(   3) = (   0.2536788   0.2306425   0.5036089  )
         4           W   tau(   4) = (   0.7462375   0.8266717   0.4966273  )
         5           W   tau(   5) = (   0.7536369   0.2980146   0.4966273  )
         6           W   tau(   6) = (   0.2462794   0.7592996   0.5036089  )
         7           W   tau(   7) = (   0.7462375   0.2306425   0.9967454  )
         8           W   tau(   8) = (   0.2536788   0.8266717   0.0034908  )
         9           O   tau(   9) = (   0.2431596   0.0087969   0.0010903  )
        10           O   tau(  10) = (   0.7567566   1.0485174   0.9991460  )
        11           O   tau(  11) = (   0.2567985   0.5198602   0.5012084  )
        12           O   tau(  12) = (   0.7431178   0.5374539   0.4990278  )
        13           O   tau(  13) = (   0.7567566   0.0087969   0.4990278  )
        14           O   tau(  14) = (   0.2431596   1.0485174   0.5012084  )
        15           O   tau(  15) = (   0.7431178   0.5198602   0.9991460  )
        16           O   tau(  16) = (   0.2567985   0.5374539   0.0010903  )
        17           O   tau(  17) = (   0.5009681   0.2569274   0.4496462  )
        18           O   tau(  18) = (   0.4989482   0.8003868   0.5505900  )
        19           O   tau(  19) = (   0.9989063   0.2717298   0.9497643  )
        20           O   tau(  20) = (   0.0010099   0.7855845   0.0504719  )
        21           O   tau(  21) = (   0.4989482   0.2569274   0.0504719  )
        22           O   tau(  22) = (   0.5009681   0.8003868   0.9497643  )
        23           O   tau(  23) = (   0.0010099   0.2717298   0.5505900  )
        24           O   tau(  24) = (   0.9989063   0.7855845   0.4496462  )
        25           O   tau(  25) = (   0.6994815   0.2627109   0.7486468  )
        26           O   tau(  26) = (   0.3004348   0.7946033   0.2515894  )
        27           O   tau(  27) = (   0.8003929   0.2659462   0.2485288  )
        28           O   tau(  28) = (   0.1995233   0.7913680   0.7517075  )
        29           O   tau(  29) = (   0.3004348   0.2627109   0.7517075  )
        30           O   tau(  30) = (   0.6994815   0.7946033   0.2485288  )
        31           O   tau(  31) = (   0.1995233   0.2659462   0.2515894  )
        32           O   tau(  32) = (   0.8003929   0.7913680   0.7486468  )

     number of k points=    64  gaussian smearing, width (Ry)=  0.0007
                       cart. coord. in units 2pi/alat
        k(    1) = (   0.0000000   0.0000000   0.0000000), wk =   0.0092593
        k(    2) = (   0.0000000   0.0000000   0.1666273), wk =   0.0185185
        k(    3) = (   0.0000000   0.0000000   0.3332546), wk =   0.0185185
        k(    4) = (   0.0000000   0.0000000  -0.4998819), wk =   0.0092593
        k(    5) = (   0.0000000   0.1576321   0.0000000), wk =   0.0185185
        k(    6) = (   0.0000000   0.1576321   0.1666273), wk =   0.0370370
        k(    7) = (   0.0000000   0.1576321   0.3332546), wk =   0.0370370
        k(    8) = (   0.0000000   0.1576321  -0.4998819), wk =   0.0185185
        k(    9) = (   0.0000000   0.3152642   0.0000000), wk =   0.0185185
        k(   10) = (   0.0000000   0.3152642   0.1666273), wk =   0.0370370
        k(   11) = (   0.0000000   0.3152642   0.3332546), wk =   0.0370370
        k(   12) = (   0.0000000   0.3152642  -0.4998819), wk =   0.0185185
        k(   13) = (   0.0000000  -0.4728963   0.0000000), wk =   0.0092593
        k(   14) = (   0.0000000  -0.4728963   0.1666273), wk =   0.0185185
        k(   15) = (   0.0000000  -0.4728963   0.3332546), wk =   0.0185185
        k(   16) = (   0.0000000  -0.4728963  -0.4998819), wk =   0.0092593
        k(   17) = (   0.1666806   0.0000000   0.1666273), wk =   0.0370370
        k(   18) = (   0.1666806   0.0000000   0.3332546), wk =   0.0370370
        k(   19) = (   0.1666806   0.0000000  -0.4998819), wk =   0.0185185
        k(   20) = (   0.1666806   0.1576321   0.1666273), wk =   0.0740741
        k(   21) = (   0.1666806   0.1576321   0.3332546), wk =   0.0740741
        k(   22) = (   0.1666806   0.1576321  -0.4998819), wk =   0.0370370
        k(   23) = (   0.1666806   0.3152642   0.1666273), wk =   0.0740741
        k(   24) = (   0.1666806   0.3152642   0.3332546), wk =   0.0740741
        k(   25) = (   0.1666806   0.3152642  -0.4998819), wk =   0.0370370
        k(   26) = (   0.1666806  -0.4728963   0.1666273), wk =   0.0370370
        k(   27) = (   0.1666806  -0.4728963   0.3332546), wk =   0.0370370
        k(   28) = (   0.1666806  -0.4728963  -0.4998819), wk =   0.0185185
        k(   29) = (   0.3333613   0.0000000   0.3332546), wk =   0.0370370
        k(   30) = (   0.3333613   0.0000000  -0.4998819), wk =   0.0185185
        k(   31) = (   0.3333613   0.1576321   0.3332546), wk =   0.0740741
        k(   32) = (   0.3333613   0.1576321  -0.4998819), wk =   0.0370370
        k(   33) = (   0.3333613   0.3152642   0.3332546), wk =   0.0740741
        k(   34) = (   0.3333613   0.3152642  -0.4998819), wk =   0.0370370
        k(   35) = (   0.3333613  -0.4728963   0.3332546), wk =   0.0370370
        k(   36) = (   0.3333613  -0.4728963  -0.4998819), wk =   0.0185185
        k(   37) = (  -0.5000419   0.0000000  -0.4998819), wk =   0.0092593
        k(   38) = (  -0.5000419   0.1576321  -0.4998819), wk =   0.0185185
        k(   39) = (  -0.5000419   0.3152642  -0.4998819), wk =   0.0185185
        k(   40) = (  -0.5000419  -0.4728963  -0.4998819), wk =   0.0092593
        k(   41) = (   0.1666806   0.0000000   0.0000000), wk =   0.0185185
        k(   42) = (   0.3333613   0.0000000   0.0000000), wk =   0.0185185
        k(   43) = (  -0.5000419   0.0000000   0.0000000), wk =   0.0092593
        k(   44) = (   0.1666806  -0.1576321   0.0000000), wk =   0.0370370
        k(   45) = (   0.3333613  -0.1576321   0.0000000), wk =   0.0370370
        k(   46) = (  -0.5000419  -0.1576321   0.0000000), wk =   0.0185185
        k(   47) = (   0.1666806  -0.3152642   0.0000000), wk =   0.0370370
        k(   48) = (   0.3333613  -0.3152642   0.0000000), wk =   0.0370370
        k(   49) = (  -0.5000419  -0.3152642   0.0000000), wk =   0.0185185
        k(   50) = (   0.1666806   0.4728963   0.0000000), wk =   0.0185185
        k(   51) = (   0.3333613   0.4728963   0.0000000), wk =   0.0185185
        k(   52) = (  -0.5000419   0.4728963   0.0000000), wk =   0.0092593
        k(   53) = (   0.3333613   0.0000000   0.1666273), wk =   0.0370370
        k(   54) = (  -0.5000419   0.0000000   0.1666273), wk =   0.0185185
        k(   55) = (   0.3333613  -0.1576321   0.1666273), wk =   0.0740741
        k(   56) = (  -0.5000419  -0.1576321   0.1666273), wk =   0.0370370
        k(   57) = (   0.3333613  -0.3152642   0.1666273), wk =   0.0740741
        k(   58) = (  -0.5000419  -0.3152642   0.1666273), wk =   0.0370370
        k(   59) = (   0.3333613   0.4728963   0.1666273), wk =   0.0370370
        k(   60) = (  -0.5000419   0.4728963   0.1666273), wk =   0.0185185
        k(   61) = (  -0.5000419   0.0000000   0.3332546), wk =   0.0185185
        k(   62) = (  -0.5000419  -0.1576321   0.3332546), wk =   0.0370370
        k(   63) = (  -0.5000419  -0.3152642   0.3332546), wk =   0.0370370
        k(   64) = (  -0.5000419   0.4728963   0.3332546), wk =   0.0185185

     Initial potential from superposition of free atoms

     starting charge  367.99656, renormalised to  368.00000
     Starting wfc are  232 randomized atomic wfcs

     Writing output data file Landau_8.save

     Self-consistent Calculation

[...]

     total energy              =   -6261.10991098 Ry
     Harris-Foulkes estimate   =   -6261.10991098 Ry
     estimated scf accuracy    <          1.1E-10 Ry

     iteration # 15     ecut=   120.00 Ry     beta= 0.70
     Davidson diagonalization with overlap
     ethr =  1.00E-13,  avg # of iterations =  2.0

     End of self-consistent calculation

[...]

          k = 0.3334 0.4729 0.1666 ( 62214 PWs)   bands (ev):

[...]

          k =-0.5000 0.4729 0.3333 ( 62164 PWs)   bands (ev):

   -66.1616 -66.1616 -66.1616 -66.1616 -66.1611 -66.1611 -66.1611 -66.1611
   -30.5266 -30.5266 -30.5264 -30.5264 -30.5246 -30.5246 -30.5243 -30.5243
   -30.4790 -30.4790 -30.4789 -30.4789 -30.4546 -30.4546 -30.4542 -30.4542
   -30.4523 -30.4523 -30.4519 -30.4519 -30.4295 -30.4295 -30.4294 -30.4294
   -20.3226 -20.3226 -20.3226 -20.3226 -20.3225 -20.3225 -20.3225 -20.3225
   -20.3019 -20.3019 -20.3019 -20.3019 -20.3018 -20.3017 -20.3017 -20.3017
   -20.2995 -20.2995 -20.2994 -20.2994 -20.2989 -20.2989 -20.2989 -20.2989
   -20.2986 -20.2986 -20.2985 -20.2985 -20.2983 -20.2983 -20.2983 -20.2983
   -20.2894 -20.2894 -20.2894 -20.2894 -20.2884 -20.2884 -20.2884 -20.2884
   -20.2869 -20.2869 -20.2869 -20.2869 -20.2853 -20.2853 -20.2853 -20.2853
   -20.2846 -20.2846 -20.2846 -20.2846 -20.2831 -20.2831 -20.2831 -20.2831
    -9.1765  -9.1765  -9.1729  -9.1729  -8.7765  -8.7765  -8.7672  -8.7672
    -8.5409  -8.5409  -8.5318  -8.5318  -8.3794  -8.3794  -8.3662  -8.3662
    -8.3291  -8.3291  -8.3181  -8.3180  -8.0991  -8.0991  -8.0980  -8.0979
     2.2711   2.2711   2.2767   2.2767   2.9912   2.9912   3.0176   3.0176
     3.1315   3.1315   3.1399   3.1399   3.2668   3.2668   3.2876   3.2876
     3.3923   3.3924   3.4303   3.4303   3.6388   3.6388   3.6688   3.6688
     3.7737   3.7737   3.8515   3.8515   4.2598   4.2598   4.2899   4.2899
     4.3455   4.3455   4.4076   4.4077   4.4767   4.4767   4.5852   4.5852
     4.6674   4.6675   4.8224   4.8225   5.0742   5.0742   5.0923   5.0923
     7.0305   7.0305   7.0803   7.0803   7.1929   7.1929   7.2009   7.2009
     7.2804   7.2804   7.3225   7.3225   7.3570   7.3570   7.4106   7.4106
     7.4909   7.4909   7.5577   7.5577   7.6124   7.6124   7.6379   7.6379
    11.4280  11.4280  11.4566  11.4566  11.7574  11.7574  11.8261  11.8261
    12.1854  12.1854  12.2262  12.2262  12.3339  12.3339  12.3634  12.3634
    12.5094  12.5094  12.6072  12.6072  12.9859  12.9859  13.0611  13.0611
    16.4682  16.4682  16.5145  16.5145  17.0841  17.0841  17.1135  17.1136
    17.3150  17.3151  17.3704  17.3704  17.3946

     the Fermi energy is     9.1507 ev

!    total energy              =   -6261.10991098 Ry
     Harris-Foulkes estimate   =   -6261.10991098 Ry
     estimated scf accuracy    <          7.5E-12 Ry

     The total energy is the sum of the following terms:

     one-electron contribution =   -4718.53058453 Ry
     hartree contribution      =    2596.12014699 Ry
     xc contribution           =    -965.66903346 Ry
     ewald contribution        =   -3173.03043998 Ry
     smearing contrib. (-TS)   =      -0.00000000 Ry

     convergence has been achieved in  15 iterations

     Forces acting on atoms (cartesian axes, Ry/au):

     atom    1 type  1   force =    -0.00136166   -0.00043035    0.00086881
     atom    2 type  1   force =     0.00136166    0.00043035   -0.00086881
     atom    3 type  1   force =     0.00136166    0.00043035    0.00086881
     atom    4 type  1   force =    -0.00136166   -0.00043035   -0.00086881
     atom    5 type  1   force =     0.00136166   -0.00043035   -0.00086881
     atom    6 type  1   force =    -0.00136166    0.00043035    0.00086881
     atom    7 type  1   force =    -0.00136166    0.00043035   -0.00086881
     atom    8 type  1   force =     0.00136166   -0.00043035    0.00086881
     atom    9 type  2   force =    -0.00026187    0.00028185    0.00015557
     atom   10 type  2   force =     0.00026187   -0.00028185   -0.00015557
     atom   11 type  2   force =     0.00026187   -0.00028185    0.00015557
     atom   12 type  2   force =    -0.00026187    0.00028185   -0.00015557
     atom   13 type  2   force =     0.00026187    0.00028185   -0.00015557
     atom   14 type  2   force =    -0.00026187   -0.00028185    0.00015557
     atom   15 type  2   force =    -0.00026187   -0.00028185   -0.00015557
     atom   16 type  2   force =     0.00026187    0.00028185    0.00015557
     atom   17 type  2   force =    -0.00066582    0.00007983    0.00019064
     atom   18 type  2   force =     0.00066582   -0.00007983   -0.00019064
     atom   19 type  2   force =     0.00066582   -0.00007983    0.00019064
     atom   20 type  2   force =    -0.00066582    0.00007983   -0.00019064
     atom   21 type  2   force =     0.00066582    0.00007983   -0.00019064
     atom   22 type  2   force =    -0.00066582   -0.00007983    0.00019064
     atom   23 type  2   force =    -0.00066582   -0.00007983   -0.00019064
     atom   24 type  2   force =     0.00066582    0.00007983    0.00019064
     atom   25 type  2   force =     0.00000064   -0.00065561    0.00041771
     atom   26 type  2   force =    -0.00000064    0.00065561   -0.00041771
     atom   27 type  2   force =    -0.00000064    0.00065561    0.00041771
     atom   28 type  2   force =     0.00000064   -0.00065561   -0.00041771
     atom   29 type  2   force =    -0.00000064   -0.00065561   -0.00041771
     atom   30 type  2   force =     0.00000064    0.00065561    0.00041771
     atom   31 type  2   force =     0.00000064    0.00065561   -0.00041771
     atom   32 type  2   force =    -0.00000064   -0.00065561    0.00041771

     Total force =     0.000000     Total SCF correction =     0.000000

     Computing stress (Cartesian axis) and pressure

          total   stress  (Ry/bohr**3)                   (kbar)     P=   -0.01
  -0.00000005   0.00000000   0.00000000         -0.01      0.00      0.00
   0.00000000  -0.00000021   0.00000000          0.00     -0.03      0.00
   0.00000000   0.00000000   0.00000002          0.00      0.00      0.00

     Writing output data file Landau_8.save

     General routines

     Parallel routines

   This run was terminated on:  17:58:52  29Apr2019

   JOB DONE.