     Program PWSCF v.6.2 (svn rev. 14038) starts on 23Mar2020 at  4: 1: 5

     K-points division:     npool     =      40
     Reading input from rscf.in

     Current dimensions of program PWSCF are:
     Max number of different atomic species (ntypx) = 10
     Max number of k-points (npk) =  40000
     Max angular momentum in pseudopotentials (lmaxx) =  3

     Subspace diagonalization in iterative solution of the eigenvalue problem:
     a serial algorithm will be used

     bravais-lattice index     =            0
     lattice parameter (alat)  =      13.8397  a.u.
     unit-cell volume          =    2804.9816 (a.u.)^3
     number of atoms/cell      =           32
     number of atomic types    =            2
     number of electrons       =       368.00
     number of Kohn-Sham states=          221
     kinetic-energy cutoff     =     120.0000  Ry
     charge density cutoff     =     480.0000  Ry
     convergence threshold     =      1.0E-08
     mixing beta               =       0.7000
     number of iterations used =            8  plain     mixing
     Exchange-correlation      = SLA PW NOGX NOGC ( 1  4  0  0 0 0)
     nstep                     =           50

     celldm(1)=  13.839685  celldm(2)=   0.000000  celldm(3)=   0.000000
     celldm(4)=   0.000000  celldm(5)=   0.000000  celldm(6)=   0.000000

     crystal axes: (cart. coord. in units of alat)
               a(1) = (   1.000000   0.000000   0.000000 )
               a(2) = (   0.000000   1.058160   0.000000 )
               a(3) = (   0.000000   0.000000   1.000000 )

     reciprocal axes: (cart. coord. in units 2 pi/alat)
               b(1) = (  1.000000  0.000000  0.000000 )
               b(2) = (  0.000000  0.945037  0.000000 )
               b(3) = (  0.000000  0.000000  1.000000 )

     PseudoPot. # 1 for W  read from file:
     /cluster/scratch/mnoe/QE/pps/W_ONCV_LDA-4.0.upf
     MD5 check sum: ba0307d5d4cd419d6f1d13dc49d7c13a
     Pseudo is Norm-conserving + core correction, Zval = 28.0
     Generated using ONCVPSP code by D. R. Hamann
     Using radial grid of 1380 points,  8 beta functions with:
                l(1) =   0
                l(2) =   0
                l(3) =   1
                l(4) =   1
                l(5) =   2
                l(6) =   2
                l(7) =   3
                l(8) =   3

     PseudoPot. # 2 for O  read from file:
     /cluster/scratch/mnoe/QE/pps/O_ONCV_LDA-3.0.upf
     MD5 check sum: a1bd6164e7280c17a38c229939bfbd54
     Pseudo is Norm-conserving + core correction, Zval =  6.0
     Generated using ONCVPSP code by D. R. Hamann
     Using radial grid of  926 points,  5 beta functions with:
                l(1) =   0
                l(2) =   0
                l(3) =   1
                l(4) =   1
                l(5) =   2

     atomic species   valence    mass     pseudopotential
        W             28.00   183.84000     W ( 1.00)
        O              6.00    15.99940     O ( 1.00)

      8 Sym. Ops. (no inversion) found ( 7 have fractional translation)

   Cartesian axes

     site n.     atom                  positions (alat units)
         1           W   tau(   1) = (   0.2212240   0.2965629  -0.0008240  )
         2           W   tau(   2) = (   0.7508240   0.7615972  -0.0287760  )
         3           W   tau(   3) = (   0.2787760   0.2325172   0.4991760  )
         4           W   tau(   4) = (   0.7491760   0.8256429   0.4712240  )
         5           W   tau(   5) = (   0.7787760   0.2965629   0.5008240  )
         6           W   tau(   6) = (   0.2491760   0.7615972   0.5287760  )
         7           W   tau(   7) = (   0.7212240   0.2325172   0.0008240  )
         8           W   tau(   8) = (   0.2508240   0.8256429   0.0287760  )
         9           O   tau(   9) = (   0.2183520   0.0083435  -0.0229600  )
        10           O   tau(  10) = (   0.7729600  -0.0083434  -0.0316480  )
        11           O   tau(  11) = (   0.2816480   0.5207366   0.4770400  )
        12           O   tau(  12) = (   0.7270400   0.5374235   0.4683520  )
        13           O   tau(  13) = (   0.7816480   0.0083435   0.5229600  )
        14           O   tau(  14) = (   0.2270400  -0.0083434   0.5316480  )
        15           O   tau(  15) = (   0.7183520   0.5207366   0.0229600  )
        16           O   tau(  16) = (   0.2729600   0.5374235   0.0316480  )
        17           O   tau(  17) = (   0.5101840   0.2284356   0.4534455  )
        18           O   tau(  18) = (   0.5020880   0.8167896   0.5465545  )
        19           O   tau(  19) = (  -0.0101840   0.3006444   0.9534456  )
        20           O   tau(  20) = (  -0.0020880   0.7704507   0.0465545  )
        21           O   tau(  21) = (   0.4898160   0.2284356   0.0465545  )
        22           O   tau(  22) = (   0.4979120   0.8167896   0.9534456  )
        23           O   tau(  23) = (   0.0101840   0.3006444   0.5465545  )
        24           O   tau(  24) = (   0.0020880   0.7704507   0.4534455  )
        25           O   tau(  25) = (   0.7034456   0.2877095   0.7479120  )
        26           O   tau(  26) = (   0.2965545   0.8297245   0.2601840  )
        27           O   tau(  27) = (   0.7965545   0.2413705   0.2479121  )
        28           O   tau(  28) = (   0.2034455   0.7575157   0.7601840  )
        29           O   tau(  29) = (   0.2965545   0.2877095   0.7520880  )
        30           O   tau(  30) = (   0.7034456   0.8297245   0.2398161  )
        31           O   tau(  31) = (   0.2034455   0.2413705   0.2520880  )
        32           O   tau(  32) = (   0.7965545   0.7575157   0.7398160  )

     number of k points=    40  gaussian smearing, width (Ry)=  0.0007
                       cart. coord. in units 2pi/alat
        k(    1) = (   0.0000000   0.0000000   0.0000000), wk =   0.0092593
        k(    2) = (   0.0000000   0.0000000   0.1666667), wk =   0.0370370
        k(    3) = (   0.0000000   0.0000000   0.3333333), wk =   0.0370370
        k(    4) = (   0.0000000   0.0000000  -0.5000000), wk =   0.0185185
        k(    5) = (   0.0000000   0.1575061   0.0000000), wk =   0.0185185
        k(    6) = (   0.0000000   0.1575061   0.1666667), wk =   0.0740741
        k(    7) = (   0.0000000   0.1575061   0.3333333), wk =   0.0740741
        k(    8) = (   0.0000000   0.1575061  -0.5000000), wk =   0.0370370
        k(    9) = (   0.0000000   0.3150122   0.0000000), wk =   0.0185185
        k(   10) = (   0.0000000   0.3150122   0.1666667), wk =   0.0740741
        k(   11) = (   0.0000000   0.3150122   0.3333333), wk =   0.0740741
        k(   12) = (   0.0000000   0.3150122  -0.5000000), wk =   0.0370370
        k(   13) = (   0.0000000  -0.4725183   0.0000000), wk =   0.0092593
        k(   14) = (   0.0000000  -0.4725183   0.1666667), wk =   0.0370370
        k(   15) = (   0.0000000  -0.4725183   0.3333333), wk =   0.0370370
        k(   16) = (   0.0000000  -0.4725183  -0.5000000), wk =   0.0185185
        k(   17) = (   0.1666667   0.0000000   0.1666667), wk =   0.0370370
        k(   18) = (   0.1666667   0.0000000   0.3333333), wk =   0.0740741
        k(   19) = (   0.1666667   0.0000000  -0.5000000), wk =   0.0370370
        k(   20) = (   0.1666667   0.1575061   0.1666667), wk =   0.0740741
        k(   21) = (   0.1666667   0.1575061   0.3333333), wk =   0.1481481
        k(   22) = (   0.1666667   0.1575061  -0.5000000), wk =   0.0740741
        k(   23) = (   0.1666667   0.3150122   0.1666667), wk =   0.0740741
        k(   24) = (   0.1666667   0.3150122   0.3333333), wk =   0.1481481
        k(   25) = (   0.1666667   0.3150122  -0.5000000), wk =   0.0740741
        k(   26) = (   0.1666667  -0.4725183   0.1666667), wk =   0.0370370
        k(   27) = (   0.1666667  -0.4725183   0.3333333), wk =   0.0740741
        k(   28) = (   0.1666667  -0.4725183  -0.5000000), wk =   0.0370370
        k(   29) = (   0.3333333   0.0000000   0.3333333), wk =   0.0370370
        k(   30) = (   0.3333333   0.0000000  -0.5000000), wk =   0.0370370
        k(   31) = (   0.3333333   0.1575061   0.3333333), wk =   0.0740741
        k(   32) = (   0.3333333   0.1575061  -0.5000000), wk =   0.0740741
        k(   33) = (   0.3333333   0.3150122   0.3333333), wk =   0.0740741
        k(   34) = (   0.3333333   0.3150122  -0.5000000), wk =   0.0740741
        k(   35) = (   0.3333333  -0.4725183   0.3333333), wk =   0.0370370
        k(   36) = (   0.3333333  -0.4725183  -0.5000000), wk =   0.0370370
        k(   37) = (  -0.5000000   0.0000000  -0.5000000), wk =   0.0092593
        k(   38) = (  -0.5000000   0.1575061  -0.5000000), wk =   0.0185185
        k(   39) = (  -0.5000000   0.3150122  -0.5000000), wk =   0.0185185
        k(   40) = (  -0.5000000  -0.4725183  -0.5000000), wk =   0.0092593

     Initial potential from superposition of free atoms

     starting charge  367.99656, renormalised to  368.00000
     Starting wfc are  232 randomized atomic wfcs

     Self-consistent Calculation

     iteration #  1     ecut=   120.00 Ry     beta= 0.70
     Davidson diagonalization with overlap
     ethr =  1.00E-02,  avg # of iterations =  4.7

     total energy              =   -6253.83404570 Ry
     Harris-Foulkes estimate   =   -6264.48743504 Ry
     estimated scf accuracy    <      13.47591932 Ry

[...]

     End of self-consistent calculation

          k = 0.0000 0.0000 0.0000 ( 62239 PWs)   bands (ev):

   -66.1767 -66.1762 -66.1757 -66.1757 -66.1752 -66.1752 -66.1747 -66.1743
   -30.6869 -30.6862 -30.6819 -30.6819 -30.5905 -30.5905 -30.5857 -30.5850
   -30.4844 -30.4837 -30.4760 -30.4760 -30.4299 -30.4268 -30.4268 -30.4246
   -30.3926 -30.3926 -30.3897 -30.3851 -30.3768 -30.3731 -30.3731 -30.3689
   -20.3416 -20.3415 -20.3412 -20.3411 -20.3411 -20.3410 -20.3407 -20.3406
   -20.3278 -20.3278 -20.3278 -20.3277 -20.3267 -20.3265 -20.3264 -20.3264
   -20.3236 -20.3235 -20.3233 -20.3233 -20.3185 -20.3185 -20.3185 -20.3181
   -20.3094 -20.3093 -20.3091 -20.3091 -20.3079 -20.3079 -20.3079 -20.3075
   -20.3068 -20.3068 -20.3067 -20.3062 -20.3035 -20.3031 -20.3031 -20.3027
   -20.3004 -20.3003 -20.2994 -20.2994 -20.2957 -20.2957 -20.2951 -20.2949
   -20.2925 -20.2924 -20.2920 -20.2920 -20.2894 -20.2894 -20.2889 -20.2887
    -9.9923  -9.7977  -9.5836  -9.5836  -9.1909  -9.1909  -9.0216  -9.0215
    -8.6264  -8.5457  -8.5336  -8.5336  -8.1168  -8.0742  -7.9575  -7.9575
    -7.7594  -7.7484  -7.6295  -7.6295  -7.6080  -7.5368  -7.5368  -7.4742
     1.1449   1.1596   1.2211   1.2211   1.4656   1.4656   1.6230   1.6611
     2.0637   2.0923   2.0923   2.1650   2.2186   2.3188   2.6346   2.8302
     2.8784   2.8784   4.1983   4.1983   4.3466   4.3952   4.4942   4.4942
     4.6669   4.6669   4.7942   4.9872   5.2077   5.3067   5.3067   5.3460
     5.4118   5.4610   5.4610   5.5901   5.6180   5.6180   5.7481   5.7482
     5.7875   5.8238   5.8721   5.8930   5.9362   5.9362   6.0188   6.0577
     6.2307   6.4329   6.5138   6.5638   6.5638   6.5697   6.8281   6.8281
     6.8315   7.0143   7.0143   7.1017   7.1161   7.1161   7.1568   7.1846
     7.3682   7.3682   7.6541   7.6918   7.9640   8.0256   8.0256   8.1702
     9.7955   9.8839  10.1186  10.1186  10.1400  10.1796  12.1565  12.1565
[...]
W        0.278776009   0.219737235   0.499176009    0   0   0
W        0.749176006   0.780262766   0.471223991    0   0   0
W        0.778775979   0.280262780   0.500823991    0   0   0
W        0.249176009   0.719737220   0.528776009    0   0   0
W        0.721224023   0.219737235   0.000824004    0   0   0
W        0.250823991   0.780262766   0.028775987    0   0   0
O        0.218351984   0.007884869  -0.022959971    0   0   0
O        0.772959957  -0.007884857  -0.031647977    0   0   0
O        0.281647977   0.492115128   0.477039982    0   0   0
O        0.727040020   0.507884857   0.468351997    0   0   0
O        0.781647963   0.007884869   0.522960005    0   0   0
O        0.227039969  -0.007884857   0.531647990    0   0   0
O        0.718352015   0.492115128   0.022959966    0   0   0
O        0.272959992   0.507884857   0.031647971    0   0   0
O        0.510183995   0.215880002   0.453445527    0   0   0
O        0.502087982   0.771896018   0.546554457    0   0   0
O       -0.010183970   0.284119974   0.953445560    0   0   0
O       -0.002087970   0.728104065   0.046554474    0   0   0
O        0.489816005   0.215880002   0.046554474    0   0   0
O        0.497912018   0.771896018   0.953445560    0   0   0
O        0.010183955   0.284119974   0.546554457    0   0   0
O        0.002087956   0.728104065   0.453445527    0   0   0
O        0.703445551   0.271895977   0.747912036    0   0   0
O        0.296554464   0.784120039   0.260183995    0   0   0
O        0.796554466   0.228103999   0.247912070    0   0   0
O        0.203445543   0.715880043   0.760184013    0   0   0
O        0.296554464   0.271895977   0.752088014    0   0   0
O        0.703445551   0.784120039   0.239816057    0   0   0
O        0.203445543   0.228103999   0.252087982    0   0   0
O        0.796554466   0.715880043   0.739816036    0   0   0
End final coordinates

     A final scf calculation at the relaxed structure.
     The G-vectors are recalculated for the final unit cell
     Results may differ from those at the preceding step.

     bravais-lattice index     =            0
     lattice parameter (alat)  =      13.8397  a.u.
     unit-cell volume          =    2767.4847 (a.u.)^3
     number of atoms/cell      =           32
     number of atomic types    =            2
     number of electrons       =       368.00
     number of Kohn-Sham states=          221
     kinetic-energy cutoff     =     120.0000  Ry
     charge density cutoff     =     480.0000  Ry
     convergence threshold     =      1.0E-10
     mixing beta               =       0.7000
     number of iterations used =            8  plain     mixing
     Exchange-correlation      = SLA PW NOGX NOGC ( 1  4  0  0 0 0)

     celldm(1)=  13.839685  celldm(2)=   0.000000  celldm(3)=   0.000000
     celldm(4)=   0.000000  celldm(5)=   0.000000  celldm(6)=   0.000000

     crystal axes: (cart. coord. in units of alat)
               a(1) = (   1.006766   0.000000   0.000000 )
               a(2) = (   0.000000   1.030029   0.000000 )
               a(3) = (   0.000000   0.000000   1.006766 )

     reciprocal axes: (cart. coord. in units 2 pi/alat)
               b(1) = (  0.993279  0.000000  0.000000 )
               b(2) = (  0.000000  0.970847  0.000000 )
               b(3) = (  0.000000  0.000000  0.993279 )

     PseudoPot. # 1 for W  read from file:
     /cluster/scratch/mnoe/QE/pps/W_ONCV_LDA-4.0.upf
     MD5 check sum: ba0307d5d4cd419d6f1d13dc49d7c13a
     Pseudo is Norm-conserving + core correction, Zval = 28.0
     Generated using ONCVPSP code by D. R. Hamann
     Using radial grid of 1380 points,  8 beta functions with:
                l(1) =   0
                l(2) =   0
                l(3) =   1
                l(4) =   1
                l(5) =   2
                l(6) =   2
                l(7) =   3
                l(8) =   3

     PseudoPot. # 2 for O  read from file:
     /cluster/scratch/mnoe/QE/pps/O_ONCV_LDA-3.0.upf
     MD5 check sum: a1bd6164e7280c17a38c229939bfbd54
     Pseudo is Norm-conserving + core correction, Zval =  6.0
     Generated using ONCVPSP code by D. R. Hamann
     Using radial grid of  926 points,  5 beta functions with:
                l(1) =   0
                l(2) =   0
                l(3) =   1
                l(4) =   1
                l(5) =   2

     atomic species   valence    mass     pseudopotential
        W             28.00   183.84000     W ( 1.00)
        O              6.00    15.99940     O ( 1.00)

      8 Sym. Ops. (no inversion) found ( 7 have fractional translation)

   Cartesian axes

     site n.     atom                  positions (alat units)
         1           W   tau(   1) = (   0.2227208   0.2886787  -0.0008296  )
         2           W   tau(   2) = (   0.7559042   0.7413500  -0.0289707  )
         3           W   tau(   3) = (   0.2806623   0.2263357   0.5025535  )
         4           W   tau(   4) = (   0.7542451   0.8036931   0.4744124  )
         5           W   tau(   5) = (   0.7840453   0.2886787   0.5042127  )
         6           W   tau(   6) = (   0.2508620   0.7413500   0.5323538  )
         7           W   tau(   7) = (   0.7261039   0.2263357   0.0008296  )
         8           W   tau(   8) = (   0.2525211   0.8036931   0.0289707  )
         9           O   tau(   9) = (   0.2198294   0.0081216  -0.0231153  )
        10           O   tau(  10) = (   0.7781899  -0.0081216  -0.0318621  )
        11           O   tau(  11) = (   0.2835537   0.5068927   0.4802677  )
        12           O   tau(  12) = (   0.7319593   0.5231360   0.4715209  )
        13           O   tau(  13) = (   0.7869367   0.0081216   0.5264984  )
        14           O   tau(  14) = (   0.2285762  -0.0081216   0.5352452  )
        15           O   tau(  15) = (   0.7232125   0.5068927   0.0231153  )
        16           O   tau(  16) = (   0.2748069   0.5231360   0.0318621  )
        17           O   tau(  17) = (   0.5136360   0.2223626   0.4565136  )
        18           O   tau(  18) = (   0.5054852   0.7950751   0.5502525  )
        19           O   tau(  19) = (  -0.0102529   0.2926517   0.9598967  )
        20           O   tau(  20) = (  -0.0021021   0.7499681   0.0468695  )
        21           O   tau(  21) = (   0.4931302   0.2223626   0.0468695  )
        22           O   tau(  22) = (   0.5012810   0.7950751   0.9598967  )
        23           O   tau(  23) = (   0.0102529   0.2926517   0.5502525  )
        24           O   tau(  24) = (   0.0021021   0.7499681   0.4565136  )
        25           O   tau(  25) = (   0.7082052   0.2800607   0.7529725  )
        26           O   tau(  26) = (   0.2985610   0.8076662   0.2619444  )
        27           O   tau(  27) = (   0.8019441   0.2349537   0.2495895  )
        28           O   tau(  28) = (   0.2048221   0.7373770   0.7653275  )
        29           O   tau(  29) = (   0.2985610   0.2800607   0.7571768  )
        30           O   tau(  30) = (   0.7082052   0.8076662   0.2414387  )
        31           O   tau(  31) = (   0.2048221   0.2349537   0.2537937  )
        32           O   tau(  32) = (   0.8019441   0.7373770   0.7448218  )

     number of k points=    40  gaussian smearing, width (Ry)=  0.0007
                       cart. coord. in units 2pi/alat
        k(    1) = (   0.0000000   0.0000000   0.0000000), wk =   0.0092593
        k(    2) = (   0.0000000   0.0000000   0.1655466), wk =   0.0370370
        k(    3) = (   0.0000000   0.0000000   0.3310931), wk =   0.0370370
        k(    4) = (   0.0000000   0.0000000  -0.4966397), wk =   0.0185185
        k(    5) = (   0.0000000   0.1618078   0.0000000), wk =   0.0185185
        k(    6) = (   0.0000000   0.1618078   0.1655466), wk =   0.0740741
        k(    7) = (   0.0000000   0.1618078   0.3310931), wk =   0.0740741
        k(    8) = (   0.0000000   0.1618078  -0.4966397), wk =   0.0370370
        k(    9) = (   0.0000000   0.3236156   0.0000000), wk =   0.0185185
        k(   10) = (   0.0000000   0.3236156   0.1655466), wk =   0.0740741
        k(   11) = (   0.0000000   0.3236156   0.3310931), wk =   0.0740741
        k(   12) = (   0.0000000   0.3236156  -0.4966397), wk =   0.0370370
        k(   13) = (   0.0000000  -0.4854233   0.0000000), wk =   0.0092593
        k(   14) = (   0.0000000  -0.4854233   0.1655466), wk =   0.0370370
        k(   15) = (   0.0000000  -0.4854233   0.3310931), wk =   0.0370370
        k(   16) = (   0.0000000  -0.4854233  -0.4966397), wk =   0.0185185
        k(   17) = (   0.1655466   0.0000000   0.1655466), wk =   0.0370370
        k(   18) = (   0.1655466   0.0000000   0.3310931), wk =   0.0740741
        k(   19) = (   0.1655466   0.0000000  -0.4966397), wk =   0.0370370
        k(   20) = (   0.1655466   0.1618078   0.1655466), wk =   0.0740741
        k(   21) = (   0.1655466   0.1618078   0.3310931), wk =   0.1481481
        k(   22) = (   0.1655466   0.1618078  -0.4966397), wk =   0.0740741
        k(   23) = (   0.1655466   0.3236156   0.1655466), wk =   0.0740741
        k(   24) = (   0.1655466   0.3236156   0.3310931), wk =   0.1481481
        k(   25) = (   0.1655466   0.3236156  -0.4966397), wk =   0.0740741
        k(   26) = (   0.1655466  -0.4854233   0.1655466), wk =   0.0370370
        k(   27) = (   0.1655466  -0.4854233   0.3310931), wk =   0.0740741
        k(   28) = (   0.1655466  -0.4854233  -0.4966397), wk =   0.0370370
        k(   29) = (   0.3310931   0.0000000   0.3310931), wk =   0.0370370
        k(   30) = (   0.3310931   0.0000000  -0.4966397), wk =   0.0370370
        k(   31) = (   0.3310931   0.1618078   0.3310931), wk =   0.0740741
        k(   32) = (   0.3310931   0.1618078  -0.4966397), wk =   0.0740741
        k(   33) = (   0.3310931   0.3236156   0.3310931), wk =   0.0740741
        k(   34) = (   0.3310931   0.3236156  -0.4966397), wk =   0.0740741
        k(   35) = (   0.3310931  -0.4854233   0.3310931), wk =   0.0370370
        k(   36) = (   0.3310931  -0.4854233  -0.4966397), wk =   0.0370370
        k(   37) = (  -0.4966397   0.0000000  -0.4966397), wk =   0.0092593
        k(   38) = (  -0.4966397   0.1618078  -0.4966397), wk =   0.0185185
        k(   39) = (  -0.4966397   0.3236156  -0.4966397), wk =   0.0185185
        k(   40) = (  -0.4966397  -0.4854233  -0.4966397), wk =   0.0092593

     Initial potential from superposition of free atoms

     starting charge  367.99656, renormalised to  368.00000
     Starting wfc are  232 randomized atomic wfcs

     Writing output data file Landau_16.save

     Self-consistent Calculation

[...]

     total energy              =   -6261.07920352 Ry
     Harris-Foulkes estimate   =   -6261.07920352 Ry
     estimated scf accuracy    <          6.4E-10 Ry

     iteration # 14     ecut=   120.00 Ry     beta= 0.70
     Davidson diagonalization with overlap
     ethr =  1.73E-13,  avg # of iterations =  2.0

     End of self-consistent calculation

[...]

          k = 0.3311-0.4854-0.4966 ( 61452 PWs)   bands (ev):

[...]

          k =-0.4966-0.4854-0.4966 ( 61424 PWs)   bands (ev):

   -65.9176 -65.9176 -65.9176 -65.9176 -65.9176 -65.9176 -65.9176 -65.9176
   -30.3567 -30.3567 -30.3556 -30.3556 -30.3556 -30.3556 -30.3556 -30.3556
   -30.2358 -30.2358 -30.2358 -30.2358 -30.2357 -30.2357 -30.2349 -30.2349
   -30.1595 -30.1595 -30.1594 -30.1594 -30.1594 -30.1594 -30.1592 -30.1592
   -20.0765 -20.0765 -20.0765 -20.0765 -20.0765 -20.0765 -20.0764 -20.0764
   -20.0632 -20.0632 -20.0632 -20.0631 -20.0631 -20.0631 -20.0631 -20.0631
   -20.0510 -20.0510 -20.0510 -20.0510 -20.0509 -20.0509 -20.0508 -20.0508
   -20.0404 -20.0404 -20.0404 -20.0404 -20.0401 -20.0401 -20.0401 -20.0401
   -20.0393 -20.0393 -20.0392 -20.0392 -20.0389 -20.0389 -20.0389 -20.0389
   -20.0292 -20.0292 -20.0292 -20.0292 -20.0291 -20.0291 -20.0291 -20.0291
   -20.0219 -20.0219 -20.0219 -20.0219 -20.0219 -20.0219 -20.0218 -20.0218
    -8.8159  -8.8158  -8.7544  -8.7544  -8.7398  -8.7398  -8.7398  -8.7398
    -8.2732  -8.2732  -8.1908  -8.1908  -8.1908  -8.1908  -8.1495  -8.1495
    -8.0501  -8.0501  -8.0501  -8.0501  -7.9905  -7.9905  -7.9703  -7.9703
     3.0699   3.0699   3.0699   3.0699   3.0864   3.0864   3.1186   3.1186
     3.2777   3.2777   3.4164   3.4164   3.4164   3.4164   3.5144   3.5144
     3.5986   3.5986   3.7148   3.7148   3.7148   3.7148   3.7376   3.7376
     4.3148   4.3148   4.3152   4.3152   4.4038   4.4038   4.4038   4.4038
     4.5908   4.5908   4.5930   4.5930   4.5930   4.5930   4.7035   4.7035
     4.7386   4.7386   4.8244   4.8244   4.8270   4.8270   4.8270   4.8270
     7.1808   7.1808   7.3135   7.3135   7.3135   7.3135   7.4745   7.4745
     7.5541   7.5541   7.5541   7.5541   7.5871   7.5872   7.6847   7.6848
     7.8137   7.8137   7.8187   7.8187   7.8187   7.8187   7.8912   7.8912
    12.0751  12.0751  12.1195  12.1195  12.1195  12.1195  12.1653  12.1653
    12.4612  12.4612  12.4612  12.4612  12.4653  12.4653  12.6786  12.6786
    12.7125  12.7125  12.8563  12.8563  12.8563  12.8563  12.8932  12.8932
    17.0785  17.0785  17.0785  17.0785  17.1785  17.1785  17.2425  17.2425
    17.5909  17.5909  17.5909  17.5909  17.6589

     the Fermi energy is     9.2215 ev

!    total energy              =   -6261.07920352 Ry
     Harris-Foulkes estimate   =   -6261.07920352 Ry
     estimated scf accuracy    <          7.5E-11 Ry

     The total energy is the sum of the following terms:

     one-electron contribution =   -4647.11465078 Ry
     hartree contribution      =    2563.45862725 Ry
     xc contribution           =    -965.63373498 Ry
     ewald contribution        =   -3211.78944501 Ry
     smearing contrib. (-TS)   =      -0.00000000 Ry

     convergence has been achieved in  14 iterations

     Forces acting on atoms (cartesian axes, Ry/au):

     atom    1 type  1   force =     0.05524686   -0.01500190    0.00763710
     atom    2 type  1   force =    -0.00763710    0.01500190    0.05524686
     atom    3 type  1   force =    -0.05524686    0.01500190    0.00763710
     atom    4 type  1   force =     0.00763710   -0.01500190    0.05524686
     atom    5 type  1   force =    -0.05524686   -0.01500190   -0.00763710
     atom    6 type  1   force =     0.00763710    0.01500190   -0.05524686
     atom    7 type  1   force =     0.05524686    0.01500190   -0.00763710
     atom    8 type  1   force =    -0.00763710   -0.01500190   -0.05524686
     atom    9 type  2   force =    -0.00187474    0.00368908    0.00401429
     atom   10 type  2   force =    -0.00401429   -0.00368908   -0.00187474
     atom   11 type  2   force =     0.00187474   -0.00368908    0.00401429
     atom   12 type  2   force =     0.00401429    0.00368908   -0.00187474
     atom   13 type  2   force =     0.00187474    0.00368908   -0.00401429
     atom   14 type  2   force =     0.00401429   -0.00368908    0.00187474
     atom   15 type  2   force =    -0.00187474   -0.00368908   -0.00401429
     atom   16 type  2   force =    -0.00401429    0.00368908    0.00187474
     atom   17 type  2   force =     0.03600843   -0.00365969   -0.00225319
     atom   18 type  2   force =     0.00055414   -0.00518285   -0.00381449
     atom   19 type  2   force =    -0.03600843    0.00365969   -0.00225319
     atom   20 type  2   force =    -0.00055414    0.00518285   -0.00381449
     atom   21 type  2   force =    -0.03600843   -0.00365969    0.00225319
     atom   22 type  2   force =    -0.00055414   -0.00518285    0.00381449
     atom   23 type  2   force =     0.03600843    0.00365969    0.00225319
     atom   24 type  2   force =     0.00055414    0.00518285    0.00381449
     atom   25 type  2   force =     0.00381449   -0.00518285   -0.00055414
     atom   26 type  2   force =     0.00225319    0.00365969    0.03600843
     atom   27 type  2   force =    -0.00381449    0.00518285   -0.00055414
     atom   28 type  2   force =    -0.00225319   -0.00365969    0.03600843
     atom   29 type  2   force =    -0.00381449   -0.00518285    0.00055414
     atom   30 type  2   force =    -0.00225319    0.00365969   -0.03600843
     atom   31 type  2   force =     0.00381449    0.00518285    0.00055414
     atom   32 type  2   force =     0.00225319   -0.00365969   -0.03600843

     Total force =     0.000000     Total SCF correction =     0.000000

     Computing stress (Cartesian axis) and pressure

          total   stress  (Ry/bohr**3)                   (kbar)     P=   -0.04
   0.00000101   0.00000000   0.00000000          0.15      0.00      0.00
   0.00000000  -0.00000278   0.00000000          0.00     -0.41      0.00
   0.00000000   0.00000000   0.00000101          0.00      0.00      0.15

     Writing output data file Landau_16.save

     General routines

     Parallel routines

   This run was terminated on:   6:14:11  23Mar2020

   JOB DONE.