     Program PWSCF v.6.2 (svn rev. 14038) starts on 17Sep2019 at 12:36: 9

     K-points division:     npool     =      40
     Reading input from scf.in

     Current dimensions of program PWSCF are:
     Max number of different atomic species (ntypx) = 10
     Max number of k-points (npk) =  40000
     Max angular momentum in pseudopotentials (lmaxx) =  3

     Subspace diagonalization in iterative solution of the eigenvalue problem:
     a serial algorithm will be used

     bravais-lattice index     =            0
     lattice parameter (alat)  =      13.8398  a.u.
     unit-cell volume          =    2804.3330 (a.u.)^3
     number of atoms/cell      =           32
     number of atomic types    =            2
     number of electrons       =       368.52
     number of Kohn-Sham states=          221
     kinetic-energy cutoff     =     120.0000  Ry
     charge density cutoff     =     480.0000  Ry
     convergence threshold     =      1.0E-08
     mixing beta               =       0.7000
     number of iterations used =            8  plain     mixing
     Exchange-correlation      = SLA PW NOGX NOGC ( 1  4  0  0 0 0)

     celldm(1)=  13.839786  celldm(2)=   0.000000  celldm(3)=   0.000000
     celldm(4)=   0.000000  celldm(5)=   0.000000  celldm(6)=   0.000000

     crystal axes: (cart. coord. in units of alat)
               a(1) = (   1.000000   0.000000   0.000000 )
               a(2) = (   0.000000   1.057892   0.000000 )
               a(3) = (   0.000000   0.000000   1.000000 )

     reciprocal axes: (cart. coord. in units 2 pi/alat)
               b(1) = (  1.000000  0.000000  0.000000 )
               b(2) = (  0.000000  0.945276  0.000000 )
               b(3) = (  0.000000  0.000000  1.000000 )

     PseudoPot. # 1 for W  read from file:
     /cluster/scratch/mnoe/QE/pps/W_ONCV_LDA-4.0.upf
     MD5 check sum: ba0307d5d4cd419d6f1d13dc49d7c13a
     Pseudo is Norm-conserving + core correction, Zval = 28.0
     Generated using ONCVPSP code by D. R. Hamann
     Using radial grid of 1380 points,  8 beta functions with:
                l(1) =   0
                l(2) =   0
                l(3) =   1
                l(4) =   1
                l(5) =   2
                l(6) =   2
                l(7) =   3
                l(8) =   3

     PseudoPot. # 2 for O  read from file:
     /cluster/scratch/mnoe/QE/pps/O_ONCV_LDA-3.0.upf
     MD5 check sum: ca1549d10c4e927e51167f6fca52ae32
     Pseudo is Norm-conserving + core correction, Zval =  6.0
     Generated using ONCVPSP code by D. R. Hamann
     Using radial grid of  926 points,  5 beta functions with:
                l(1) =   0
                l(2) =   0
                l(3) =   1
                l(4) =   1
                l(5) =   2

     atomic species   valence    mass     pseudopotential
        W             28.00   183.84000     W ( 1.00)
        O              6.00    15.99940     O ( 1.00)

      8 Sym. Ops. (no inversion) found ( 4 have fractional translation)

   Cartesian axes

     site n.     atom                  positions (alat units)
         1           W   tau(   1) = (   0.2527000   0.2981775   0.2500800  )
         2           W   tau(   2) = (  -0.2500800   0.7597147  -0.7473000  )
         3           W   tau(   3) = (   0.2473000   0.2307686   0.7500800  )
         4           W   tau(   4) = (   0.7500800   0.8271236   0.7527000  )
         5           W   tau(   5) = (   0.7473000   0.2981775   0.7499200  )
         6           W   tau(   6) = (   0.2500800   0.7597147   0.7473000  )
         7           W   tau(   7) = (  -0.2473000   0.2307686  -0.7500800  )
         8           W   tau(   8) = (   0.2499200   0.8271236   0.2473000  )
         9           O   tau(   9) = (   0.2529700   0.0088017   0.2521500  )
        10           O   tau(  10) = (  -0.2521500   1.0490906  -0.7470300  )
        11           O   tau(  11) = (   0.2470300   0.5201445   0.7521500  )
        12           O   tau(  12) = (   0.7521500   0.5377478   0.7529700  )
        13           O   tau(  13) = (   0.7470300   0.0088017   0.7478500  )
        14           O   tau(  14) = (   0.2521500   1.0490906   0.7470300  )
        15           O   tau(  15) = (  -0.2470300   0.5201445  -0.7521500  )
        16           O   tau(  16) = (   0.2478500   0.5377478   0.2470300  )
        17           O   tau(  17) = (   0.4990400   0.2678583   0.6995400  )
        18           O   tau(  18) = (   0.4998000   0.7912399   0.8004600  )
        19           O   tau(  19) = (  -0.9990399   0.2610878   1.1995400  )
        20           O   tau(  20) = (   0.0002000   0.7955983   0.3004600  )
        21           O   tau(  21) = (   0.5009600   0.2678583   0.3004600  )
        22           O   tau(  22) = (   0.5002000   0.7912399   1.1995400  )
        23           O   tau(  23) = (  -0.0009601   0.2610878   0.8004600  )
        24           O   tau(  24) = (  -1.0002000   0.7955983   0.6995400  )
        25           O   tau(  25) = (   0.6995400   0.2622938   2.0002000  )
        26           O   tau(  26) = (   0.3004600   0.7900339   0.4990400  )
        27           O   tau(  27) = (   0.8004600   0.2666523   0.5002001  )
        28           O   tau(  28) = (   0.1995400   0.7968044   1.9990400  )
        29           O   tau(  29) = (   0.3004600   0.2622938   0.9998000  )
        30           O   tau(  30) = (   0.6995400   0.7900339   0.5009601  )
        31           O   tau(  31) = (   0.1995400   0.2666523   0.4998000  )
        32           O   tau(  32) = (   0.8004600   0.7968044   1.0009601  )

     number of k points=    40  gaussian smearing, width (Ry)=  0.0007
                       cart. coord. in units 2pi/alat
        k(    1) = (   0.0000000   0.0000000   0.0000000), wk =   0.0092593
        k(    2) = (   0.0000000   0.0000000   0.1666667), wk =   0.0370370
        k(    3) = (   0.0000000   0.0000000   0.3333333), wk =   0.0370370
        k(    4) = (   0.0000000   0.0000000  -0.5000000), wk =   0.0185185
        k(    5) = (   0.0000000   0.1575460   0.0000000), wk =   0.0185185
        k(    6) = (   0.0000000   0.1575460   0.1666667), wk =   0.0740741
        k(    7) = (   0.0000000   0.1575460   0.3333333), wk =   0.0740741
        k(    8) = (   0.0000000   0.1575460  -0.5000000), wk =   0.0370370
        k(    9) = (   0.0000000   0.3150920   0.0000000), wk =   0.0185185
        k(   10) = (   0.0000000   0.3150920   0.1666667), wk =   0.0740741
        k(   11) = (   0.0000000   0.3150920   0.3333333), wk =   0.0740741
        k(   12) = (   0.0000000   0.3150920  -0.5000000), wk =   0.0370370
        k(   13) = (   0.0000000  -0.4726379   0.0000000), wk =   0.0092593
        k(   14) = (   0.0000000  -0.4726379   0.1666667), wk =   0.0370370
        k(   15) = (   0.0000000  -0.4726379   0.3333333), wk =   0.0370370
        k(   16) = (   0.0000000  -0.4726379  -0.5000000), wk =   0.0185185
        k(   17) = (   0.1666667   0.0000000   0.1666667), wk =   0.0370370
        k(   18) = (   0.1666667   0.0000000   0.3333333), wk =   0.0740741
        k(   19) = (   0.1666667   0.0000000  -0.5000000), wk =   0.0370370
        k(   20) = (   0.1666667   0.1575460   0.1666667), wk =   0.0740741
        k(   21) = (   0.1666667   0.1575460   0.3333333), wk =   0.1481481
        k(   22) = (   0.1666667   0.1575460  -0.5000000), wk =   0.0740741
        k(   23) = (   0.1666667   0.3150920   0.1666667), wk =   0.0740741
        k(   24) = (   0.1666667   0.3150920   0.3333333), wk =   0.1481481
        k(   25) = (   0.1666667   0.3150920  -0.5000000), wk =   0.0740741
        k(   26) = (   0.1666667  -0.4726379   0.1666667), wk =   0.0370370
        k(   27) = (   0.1666667  -0.4726379   0.3333333), wk =   0.0740741
        k(   28) = (   0.1666667  -0.4726379  -0.5000000), wk =   0.0370370
        k(   29) = (   0.3333333   0.0000000   0.3333333), wk =   0.0370370
        k(   30) = (   0.3333333   0.0000000  -0.5000000), wk =   0.0370370
        k(   31) = (   0.3333333   0.1575460   0.3333333), wk =   0.0740741
        k(   32) = (   0.3333333   0.1575460  -0.5000000), wk =   0.0740741
        k(   33) = (   0.3333333   0.3150920   0.3333333), wk =   0.0740741
        k(   34) = (   0.3333333   0.3150920  -0.5000000), wk =   0.0740741
        k(   35) = (   0.3333333  -0.4726379   0.3333333), wk =   0.0370370
        k(   36) = (   0.3333333  -0.4726379  -0.5000000), wk =   0.0370370
        k(   37) = (  -0.5000000   0.0000000  -0.5000000), wk =   0.0092593
        k(   38) = (  -0.5000000   0.1575460  -0.5000000), wk =   0.0185185
        k(   39) = (  -0.5000000   0.3150920  -0.5000000), wk =   0.0185185
        k(   40) = (  -0.5000000  -0.4726379  -0.5000000), wk =   0.0092593

     Initial potential from superposition of free atoms

     starting charge  367.99656, renormalised to  368.52000
     Starting wfc are  232 randomized atomic wfcs

     Self-consistent Calculation

     iteration #  1     ecut=   120.00 Ry     beta= 0.70
     Davidson diagonalization with overlap
     ethr =  1.00E-02,  avg # of iterations =  5.2

     total energy              =   -6253.51730458 Ry
     Harris-Foulkes estimate   =   -6264.30910299 Ry
     estimated scf accuracy    <      13.60388687 Ry

[...]

     total energy              =   -6260.74356749 Ry
     Harris-Foulkes estimate   =   -6260.74356752 Ry
     estimated scf accuracy    <       0.00000006 Ry

     iteration # 13     ecut=   120.00 Ry     beta= 0.70
     Davidson diagonalization with overlap
     ethr =  1.75E-11,  avg # of iterations =  2.9

     End of self-consistent calculation

          k = 0.0000 0.0000 0.0000 ( 62231 PWs)   bands (ev):

   -66.0491 -66.0486 -66.0480 -66.0480 -66.0476 -66.0476 -66.0470 -66.0466
   -30.4871 -30.4837 -30.4837 -30.4805 -30.4275 -30.4246 -30.4246 -30.4218
   -30.3899 -30.3890 -30.3860 -30.3856 -30.3841 -30.3841 -30.3805 -30.3805
   -30.2880 -30.2880 -30.2849 -30.2849 -30.2839 -30.2832 -30.2808 -30.2802
   -20.2000 -20.1998 -20.1998 -20.1995 -20.1989 -20.1988 -20.1987 -20.1987
   -20.1987 -20.1987 -20.1986 -20.1986 -20.1946 -20.1943 -20.1943 -20.1940
   -20.1878 -20.1878 -20.1876 -20.1876 -20.1866 -20.1866 -20.1866 -20.1866
   -20.1850 -20.1850 -20.1849 -20.1849 -20.1840 -20.1840 -20.1837 -20.1837
   -20.1743 -20.1742 -20.1739 -20.1739 -20.1738 -20.1738 -20.1735 -20.1734
   -20.1505 -20.1505 -20.1504 -20.1504 -20.1490 -20.1490 -20.1490 -20.1490
   -20.1442 -20.1442 -20.1441 -20.1441 -20.1428 -20.1428 -20.1427 -20.1427
    -9.9181  -9.6295  -9.4794  -9.4794  -9.1941  -9.1941  -9.0669  -9.0040
    -8.9919  -8.8580  -8.8249  -8.8249  -7.8487  -7.7884  -7.7884  -7.7363
    -7.7357  -7.7347  -7.7100  -7.7083  -7.5789  -7.5789  -7.5574  -7.5574
     1.2589   1.2593   1.3309   1.3309   1.3527   1.3527   1.4045   1.6528
     1.6528   1.6554   1.6987   1.8992   2.4350   2.5098   2.5949   2.5968
     2.7472   2.7472   4.1681   4.1681   4.3930   4.3932   4.8477   4.8531
     4.9024   4.9024   4.9290   4.9290   5.0563   5.0563   5.0858   5.4464
     5.4465   5.5458   5.5458   5.5576   5.5576   5.5998   5.5998   5.8317
     5.8317   5.9094   5.9096   5.9559   5.9741   6.0713   6.0728   6.1618
     6.1618   6.2767   6.2768   6.5976   6.5976   6.8195   6.8195   6.8530
     6.8534   6.9061   7.0403   7.0440   7.1117   7.1117   7.4367   7.4367
     7.4814   7.4814   7.8211   7.8353   8.0935   8.0935   8.1583   8.1612
     9.3356   9.3426  10.0440  10.0448  10.0812  10.0812  12.3109  12.3109
    12.3381  12.3381  12.3867  12.3867  12.5474  12.5510  12.9366  12.9482
    13.2827  13.2922  13.4593  13.4593  13.8239  14.2027  14.2027  14.2089
    14.2182  14.4175  14.4175  14.8788  15.5066  15.5150  15.5180  16.1255
    16.1255  16.8603  17.0973  17.0973  17.4483

[...]

          k = 0.3333-0.4726-0.5000 ( 62196 PWs)   bands (ev):

[...]

          k =-0.5000 0.0000-0.5000 ( 62308 PWs)   bands (ev):

[...]

          k =-0.5000-0.4726-0.5000 ( 62240 PWs)   bands (ev):

   -66.0479 -66.0479 -66.0478 -66.0478 -66.0478 -66.0478 -66.0478 -66.0478
   -30.4552 -30.4552 -30.4551 -30.4551 -30.4551 -30.4551 -30.4550 -30.4550
   -30.3358 -30.3358 -30.3358 -30.3358 -30.3358 -30.3358 -30.3357 -30.3357
   -30.3334 -30.3333 -30.3333 -30.3333 -30.3333 -30.3333 -30.3333 -30.3333
   -20.1987 -20.1987 -20.1987 -20.1987 -20.1987 -20.1987 -20.1987 -20.1987
   -20.1972 -20.1972 -20.1972 -20.1972 -20.1972 -20.1972 -20.1972 -20.1972
   -20.1860 -20.1860 -20.1859 -20.1859 -20.1859 -20.1859 -20.1859 -20.1859
   -20.1856 -20.1855 -20.1855 -20.1855 -20.1855 -20.1855 -20.1855 -20.1855
   -20.1738 -20.1738 -20.1738 -20.1738 -20.1738 -20.1738 -20.1738 -20.1738
   -20.1469 -20.1469 -20.1468 -20.1468 -20.1468 -20.1468 -20.1468 -20.1468
   -20.1466 -20.1466 -20.1466 -20.1466 -20.1466 -20.1466 -20.1466 -20.1466
    -8.9041  -8.9040  -8.9009  -8.9009  -8.9009  -8.9009  -8.8991  -8.8991
    -8.3822  -8.3822  -8.3766  -8.3766  -8.3766  -8.3766  -8.3739  -8.3738
    -8.3099  -8.3099  -8.3098  -8.3098  -8.3098  -8.3098  -8.3056  -8.3056
     3.0396   3.0397   3.0436   3.0437   3.0437   3.0437   3.0486   3.0487
     3.1833   3.1833   3.1884   3.1884   3.1884   3.1884   3.1947   3.1947
     3.4605   3.4606   3.4839   3.4839   3.4839   3.4839   3.5034   3.5035
     4.1887   4.1887   4.1928   4.1928   4.1928   4.1928   4.1946   4.1946
     4.4056   4.4056   4.4056   4.4056   4.4080   4.4080   4.4092   4.4092
     4.4889   4.4890   4.4965   4.4965   4.4966   4.4966   4.4997   4.4998
     7.1941   7.1941   7.2210   7.2210   7.2210   7.2210   7.2504   7.2505
     7.3541   7.3542   7.3582   7.3582   7.3582   7.3582   7.3610   7.3610
     7.6351   7.6352   7.6413   7.6413   7.6413   7.6413   7.6485   7.6486
    11.8757  11.8757  11.8774  11.8774  11.8774  11.8774  11.8798  11.8798
    12.3148  12.3148  12.3385  12.3385  12.3385  12.3385  12.3651  12.3651
    12.5853  12.5854  12.5969  12.5969  12.5969  12.5969  12.6064  12.6064
    17.1615  17.1615  17.1742  17.1743  17.1743  17.1744  17.1866  17.1866
    17.4015  17.4015  17.4017  17.4018  17.4018

     the Fermi energy is     9.7201 ev

!    total energy              =   -6260.74356750 Ry
     Harris-Foulkes estimate   =   -6260.74356750 Ry
     estimated scf accuracy    <          5.3E-10 Ry

     The total energy is the sum of the following terms:

     one-electron contribution =   -4722.00629252 Ry
     hartree contribution      =    2599.33539260 Ry
     xc contribution           =    -966.24492668 Ry
     ewald contribution        =   -3171.82771478 Ry
     smearing contrib. (-TS)   =      -0.00002611 Ry

     convergence has been achieved in  13 iterations

     Writing output data file Landau_3.save

     General routines

     Parallel routines

   This run was terminated on:  12:53:12  17Sep2019

   JOB DONE.