     Program PWSCF v.6.2 (svn rev. 14038) starts on  1May2019 at  2:40:35

     K-points division:     npool     =      32
     Reading input from rscf.in

     Current dimensions of program PWSCF are:
     Max number of different atomic species (ntypx) = 10
     Max number of k-points (npk) =  40000
     Max angular momentum in pseudopotentials (lmaxx) =  3

     Subspace diagonalization in iterative solution of the eigenvalue problem:
     a serial algorithm will be used

     bravais-lattice index     =            0
     lattice parameter (alat)  =      13.8397  a.u.
     unit-cell volume          =    2804.9816 (a.u.)^3
     number of atoms/cell      =           32
     number of atomic types    =            2
     number of electrons       =       368.00
     number of Kohn-Sham states=          221
     kinetic-energy cutoff     =     120.0000  Ry
     charge density cutoff     =     480.0000  Ry
     convergence threshold     =      1.0E-08
     mixing beta               =       0.7000
     number of iterations used =            8  plain     mixing
     Exchange-correlation      = SLA PW NOGX NOGC ( 1  4  0  0 0 0)
     nstep                     =           50

     celldm(1)=  13.839685  celldm(2)=   0.000000  celldm(3)=   0.000000
     celldm(4)=   0.000000  celldm(5)=   0.000000  celldm(6)=   0.000000

     crystal axes: (cart. coord. in units of alat)
               a(1) = (   1.000000   0.000000   0.000000 )
               a(2) = (   0.000000   1.058160   0.000000 )
               a(3) = (   0.000000   0.000000   1.000000 )

     reciprocal axes: (cart. coord. in units 2 pi/alat)
               b(1) = (  1.000000  0.000000  0.000000 )
               b(2) = (  0.000000  0.945037  0.000000 )
               b(3) = (  0.000000  0.000000  1.000000 )

     PseudoPot. # 1 for W  read from file:
     /cluster/scratch/mnoe/QE/pps/W_ONCV_LDA-4.0.upf
     MD5 check sum: ba0307d5d4cd419d6f1d13dc49d7c13a
     Pseudo is Norm-conserving + core correction, Zval = 28.0
     Generated using ONCVPSP code by D. R. Hamann
     Using radial grid of 1380 points,  8 beta functions with:
                l(1) =   0
                l(2) =   0
                l(3) =   1
                l(4) =   1
                l(5) =   2
                l(6) =   2
                l(7) =   3
                l(8) =   3

     PseudoPot. # 2 for O  read from file:
     /cluster/scratch/mnoe/QE/pps/O_ONCV_LDA-3.0.upf
     MD5 check sum: a1bd6164e7280c17a38c229939bfbd54
     Pseudo is Norm-conserving + core correction, Zval =  6.0
     Generated using ONCVPSP code by D. R. Hamann
     Using radial grid of  926 points,  5 beta functions with:
                l(1) =   0
                l(2) =   0
                l(3) =   1
                l(4) =   1
                l(5) =   2

     atomic species   valence    mass     pseudopotential
        W             28.00   183.84000     W ( 1.00)
        O              6.00    15.99940     O ( 1.00)

      8 Sym. Ops. (no inversion) found ( 4 have fractional translation)

   Cartesian axes

     site n.     atom                  positions (alat units)
         1           W   tau(   1) = (   0.2742800   0.2982530   0.2507000  )
         2           W   tau(   2) = (  -0.2507000   0.7599071  -0.7257200  )
         3           W   tau(   3) = (   0.2257200   0.2308271   0.7507000  )
         4           W   tau(   4) = (   0.7507000   0.8273330   0.7742800  )
         5           W   tau(   5) = (   0.7257200   0.2982530   0.7493000  )
         6           W   tau(   6) = (   0.2507000   0.7599071   0.7257200  )
         7           W   tau(   7) = (  -0.2257200   0.2308271  -0.7507000  )
         8           W   tau(   8) = (   0.2493000   0.8273330   0.2257200  )
         9           O   tau(   9) = (   0.2767000   0.0088039   0.2693600  )
        10           O   tau(  10) = (  -0.2693600   1.0493562  -0.7233000  )
        11           O   tau(  11) = (   0.2233001   0.5202761   0.7693600  )
        12           O   tau(  12) = (   0.7693600   0.5378839   0.7767000  )
        13           O   tau(  13) = (   0.7233000   0.0088039   0.7306400  )
        14           O   tau(  14) = (   0.2693600   1.0493562   0.7233000  )
        15           O   tau(  15) = (  -0.2233000   0.5202761  -0.7693600  )
        16           O   tau(  16) = (   0.2306400   0.5378839   0.2233000  )
        17           O   tau(  17) = (   0.4914100   0.2950044   0.6995400  )
        18           O   tau(  18) = (   0.4982300   0.7740758   0.8004600  )
        19           O   tau(  19) = (  -0.9914100   0.2340756   1.1995400  )
        20           O   tau(  20) = (   0.0017700   0.8131643   0.3004600  )
        21           O   tau(  21) = (   0.5085900   0.2950044   0.3004600  )
        22           O   tau(  22) = (   0.5017700   0.7740758   1.1995400  )
        23           O   tau(  23) = (  -0.0085900   0.2340756   0.8004600  )
        24           O   tau(  24) = (  -1.0017700   0.8131643   0.6995400  )
        25           O   tau(  25) = (   0.6995400   0.2449958   2.0017700  )
        26           O   tau(  26) = (   0.3004600   0.7631556   0.4914100  )
        27           O   tau(  27) = (   0.8004600   0.2840842   0.5017700  )
        28           O   tau(  28) = (   0.1995400   0.8240845   1.9914100  )
        29           O   tau(  29) = (   0.3004600   0.2449958   0.9982300  )
        30           O   tau(  30) = (   0.6995400   0.7631556   0.5085900  )
        31           O   tau(  31) = (   0.1995400   0.2840842   0.4982300  )
        32           O   tau(  32) = (   0.8004600   0.8240845   1.0085900  )

     number of k points=    40  gaussian smearing, width (Ry)=  0.0007
                       cart. coord. in units 2pi/alat
        k(    1) = (   0.0000000   0.0000000   0.0000000), wk =   0.0092593
        k(    2) = (   0.0000000   0.0000000   0.1666667), wk =   0.0370370
        k(    3) = (   0.0000000   0.0000000   0.3333333), wk =   0.0370370
        k(    4) = (   0.0000000   0.0000000  -0.5000000), wk =   0.0185185
        k(    5) = (   0.0000000   0.1575061   0.0000000), wk =   0.0185185
        k(    6) = (   0.0000000   0.1575061   0.1666667), wk =   0.0740741
        k(    7) = (   0.0000000   0.1575061   0.3333333), wk =   0.0740741
        k(    8) = (   0.0000000   0.1575061  -0.5000000), wk =   0.0370370
        k(    9) = (   0.0000000   0.3150122   0.0000000), wk =   0.0185185
        k(   10) = (   0.0000000   0.3150122   0.1666667), wk =   0.0740741
        k(   11) = (   0.0000000   0.3150122   0.3333333), wk =   0.0740741
        k(   12) = (   0.0000000   0.3150122  -0.5000000), wk =   0.0370370
        k(   13) = (   0.0000000  -0.4725183   0.0000000), wk =   0.0092593
        k(   14) = (   0.0000000  -0.4725183   0.1666667), wk =   0.0370370
        k(   15) = (   0.0000000  -0.4725183   0.3333333), wk =   0.0370370
        k(   16) = (   0.0000000  -0.4725183  -0.5000000), wk =   0.0185185
        k(   17) = (   0.1666667   0.0000000   0.1666667), wk =   0.0370370
        k(   18) = (   0.1666667   0.0000000   0.3333333), wk =   0.0740741
        k(   19) = (   0.1666667   0.0000000  -0.5000000), wk =   0.0370370
        k(   20) = (   0.1666667   0.1575061   0.1666667), wk =   0.0740741
        k(   21) = (   0.1666667   0.1575061   0.3333333), wk =   0.1481481
        k(   22) = (   0.1666667   0.1575061  -0.5000000), wk =   0.0740741
        k(   23) = (   0.1666667   0.3150122   0.1666667), wk =   0.0740741
        k(   24) = (   0.1666667   0.3150122   0.3333333), wk =   0.1481481
        k(   25) = (   0.1666667   0.3150122  -0.5000000), wk =   0.0740741
        k(   26) = (   0.1666667  -0.4725183   0.1666667), wk =   0.0370370
        k(   27) = (   0.1666667  -0.4725183   0.3333333), wk =   0.0740741
        k(   28) = (   0.1666667  -0.4725183  -0.5000000), wk =   0.0370370
        k(   29) = (   0.3333333   0.0000000   0.3333333), wk =   0.0370370
        k(   30) = (   0.3333333   0.0000000  -0.5000000), wk =   0.0370370
        k(   31) = (   0.3333333   0.1575061   0.3333333), wk =   0.0740741
        k(   32) = (   0.3333333   0.1575061  -0.5000000), wk =   0.0740741
        k(   33) = (   0.3333333   0.3150122   0.3333333), wk =   0.0740741
        k(   34) = (   0.3333333   0.3150122  -0.5000000), wk =   0.0740741
        k(   35) = (   0.3333333  -0.4725183   0.3333333), wk =   0.0370370
        k(   36) = (   0.3333333  -0.4725183  -0.5000000), wk =   0.0370370
        k(   37) = (  -0.5000000   0.0000000  -0.5000000), wk =   0.0092593
        k(   38) = (  -0.5000000   0.1575061  -0.5000000), wk =   0.0185185
        k(   39) = (  -0.5000000   0.3150122  -0.5000000), wk =   0.0185185
        k(   40) = (  -0.5000000  -0.4725183  -0.5000000), wk =   0.0092593

     Initial potential from superposition of free atoms

     starting charge  367.99656, renormalised to  368.00000
     Starting wfc are  232 randomized atomic wfcs

     Self-consistent Calculation

     iteration #  1     ecut=   120.00 Ry     beta= 0.70
     Davidson diagonalization with overlap
     ethr =  1.00E-02,  avg # of iterations =  4.9

     total energy              =   -6253.87345081 Ry
     Harris-Foulkes estimate   =   -6264.52715845 Ry
     estimated scf accuracy    <      13.47473372 Ry

[...]

     End of self-consistent calculation

          k = 0.0000 0.0000 0.0000 ( 62239 PWs)   bands (ev):

   -66.1755 -66.1751 -66.1746 -66.1745 -66.1741 -66.1741 -66.1736 -66.1732
   -30.6292 -30.6277 -30.6232 -30.6232 -30.5377 -30.5377 -30.5323 -30.5287
   -30.4831 -30.4829 -30.4760 -30.4760 -30.4690 -30.4619 -30.4619 -30.4600
   -30.4154 -30.4119 -30.4118 -30.4095 -30.3904 -30.3903 -30.3850 -30.3843
   -20.3436 -20.3435 -20.3433 -20.3433 -20.3431 -20.3430 -20.3428 -20.3427
   -20.3289 -20.3288 -20.3288 -20.3287 -20.3281 -20.3279 -20.3279 -20.3279
   -20.3219 -20.3214 -20.3214 -20.3214 -20.3179 -20.3176 -20.3176 -20.3171
   -20.3128 -20.3123 -20.3123 -20.3120 -20.3113 -20.3110 -20.3110 -20.3108
   -20.3080 -20.3079 -20.3077 -20.3077 -20.3072 -20.3072 -20.3065 -20.3064
   -20.3024 -20.3023 -20.3014 -20.3014 -20.2973 -20.2973 -20.2968 -20.2966
   -20.2941 -20.2939 -20.2936 -20.2936 -20.2913 -20.2913 -20.2910 -20.2907
    -9.9470  -9.7240  -9.5042  -9.5042  -9.1810  -9.1810  -9.0015  -9.0012
    -8.7717  -8.6495  -8.6360  -8.6360  -8.0399  -7.9980  -7.8661  -7.8661
    -7.7575  -7.7472  -7.6917  -7.6311  -7.6311  -7.6041  -7.6041  -7.5770
     1.2264   1.2398   1.2874   1.2874   1.4718   1.4718   1.6179   1.7059
     1.9430   1.9499   1.9499   2.0477   2.3037   2.3956   2.6356   2.7827
     2.8610   2.8610   4.1834   4.1834   4.3765   4.4097   4.6471   4.6471
     4.7575   4.7575   4.7799   5.0084   5.2755   5.2755   5.2837   5.3895
     5.4887   5.4887   5.5161   5.6005   5.6367   5.6367   5.7610   5.7610
     5.8286   5.8341   5.8816   5.9021   5.9037   5.9037   5.9923   6.0424
     6.1674   6.3713   6.4333   6.5154   6.5154   6.5918   6.8500   6.9654
     6.9654   6.9828   6.9828   7.0226   7.0310   7.0694   7.0694   7.0710
     7.3997   7.3997   7.6401   7.6677   7.9818   8.0201   8.0201   8.1575
     9.6900   9.7402  10.1445  10.1534  10.1534  10.1686  12.1639  12.1639
[...]
W        0.225720017   0.218140012   0.750700035    0   0   0
W        0.750700025   0.781859972   0.774280016    0   0   0
W        0.725719975   0.281860003   0.749299998    0   0   0
W        0.250700035   0.718139997   0.725720017    0   0   0
W       -0.225719968   0.218140012  -0.750700018    0   0   0
W        0.249299998   0.781859972   0.225719975    0   0   0
O        0.276699997   0.008320000   0.269360013    0   0   0
O       -0.269360046   0.991680023  -0.723300020    0   0   0
O        0.223300052   0.491679992   0.769360014    0   0   0
O        0.769360013   0.508319977   0.776699981    0   0   0
O        0.723299987   0.008320000   0.730640003    0   0   0
O        0.269360030   0.991680023   0.723300036    0   0   0
O       -0.223300020   0.491679992  -0.769360046    0   0   0
O        0.230640019   0.508319977   0.223299987    0   0   0
O        0.491410048   0.278789983   0.699540004    0   0   0
O        0.498229998   0.731529935   0.800459963    0   0   0
O       -0.991410032   0.221210017   1.199540037    0   0   0
O        0.001770011   0.768470036   0.300460012    0   0   0
O        0.508589952   0.278789983   0.300460012    0   0   0
O        0.501770002   0.731529935   1.199540037    0   0   0
O       -0.008589975   0.221210017   0.800459963    0   0   0
O       -1.001770018   0.768470036   0.699540004    0   0   0
O        0.699540037   0.231530011   2.001770002    0   0   0
O        0.300459996   0.721209971   0.491410032    0   0   0
O        0.800459963   0.268469989   0.501770018    0   0   0
O        0.199540020   0.778790000   1.991410048    0   0   0
O        0.300459996   0.231530011   0.998230005    0   0   0
O        0.699540037   0.721209971   0.508589968    0   0   0
O        0.199540020   0.268469989   0.498229982    0   0   0
O        0.800459963   0.778790000   1.008589959    0   0   0
End final coordinates

     A final scf calculation at the relaxed structure.
     The G-vectors are recalculated for the final unit cell
     Results may differ from those at the preceding step.

     bravais-lattice index     =            0
     lattice parameter (alat)  =      13.8397  a.u.
     unit-cell volume          =    2769.0512 (a.u.)^3
     number of atoms/cell      =           32
     number of atomic types    =            2
     number of electrons       =       368.00
     number of Kohn-Sham states=          221
     kinetic-energy cutoff     =     120.0000  Ry
     charge density cutoff     =     480.0000  Ry
     convergence threshold     =      1.0E-10
     mixing beta               =       0.7000
     number of iterations used =            8  plain     mixing
     Exchange-correlation      = SLA PW NOGX NOGC ( 1  4  0  0 0 0)

     celldm(1)=  13.839685  celldm(2)=   0.000000  celldm(3)=   0.000000
     celldm(4)=   0.000000  celldm(5)=   0.000000  celldm(6)=   0.000000

     crystal axes: (cart. coord. in units of alat)
               a(1) = (   1.002365   0.000000   0.000000 )
               a(2) = (   0.000000   1.039681   0.000000 )
               a(3) = (   0.000000   0.000000   1.002365 )

     reciprocal axes: (cart. coord. in units 2 pi/alat)
               b(1) = (  0.997640  0.000000  0.000000 )
               b(2) = (  0.000000  0.961833  0.000000 )
               b(3) = (  0.000000  0.000000  0.997640 )

     PseudoPot. # 1 for W  read from file:
     /cluster/scratch/mnoe/QE/pps/W_ONCV_LDA-4.0.upf
     MD5 check sum: ba0307d5d4cd419d6f1d13dc49d7c13a
     Pseudo is Norm-conserving + core correction, Zval = 28.0
     Generated using ONCVPSP code by D. R. Hamann
     Using radial grid of 1380 points,  8 beta functions with:
                l(1) =   0
                l(2) =   0
                l(3) =   1
                l(4) =   1
                l(5) =   2
                l(6) =   2
                l(7) =   3
                l(8) =   3

     PseudoPot. # 2 for O  read from file:
     /cluster/scratch/mnoe/QE/pps/O_ONCV_LDA-3.0.upf
     MD5 check sum: a1bd6164e7280c17a38c229939bfbd54
     Pseudo is Norm-conserving + core correction, Zval =  6.0
     Generated using ONCVPSP code by D. R. Hamann
     Using radial grid of  926 points,  5 beta functions with:
                l(1) =   0
                l(2) =   0
                l(3) =   1
                l(4) =   1
                l(5) =   2

     atomic species   valence    mass     pseudopotential
        W             28.00   183.84000     W ( 1.00)
        O              6.00    15.99940     O ( 1.00)

      8 Sym. Ops. (no inversion) found ( 4 have fractional translation)

   Cartesian axes

     site n.     atom                  positions (alat units)
         1           W   tau(   1) = (   0.2749288   0.2930445   0.2512930  )
         2           W   tau(   2) = (  -0.2512930   0.7466366  -0.7274366  )
         3           W   tau(   3) = (   0.2262539   0.2267961   0.7524758  )
         4           W   tau(   4) = (   0.7524758   0.8128850   0.7761115  )
         5           W   tau(   5) = (   0.7274366   0.2930445   0.7510724  )
         6           W   tau(   6) = (   0.2512931   0.7466366   0.7274367  )
         7           W   tau(   7) = (  -0.2262539   0.2267961  -0.7524758  )
         8           W   tau(   8) = (   0.2498897   0.8128850   0.2262539  )
         9           O   tau(   9) = (   0.2773545   0.0086501   0.2699972  )
        10           O   tau(  10) = (  -0.2699972   1.0310310  -0.7250110  )
        11           O   tau(  11) = (   0.2238283   0.5111904   0.7711799  )
        12           O   tau(  12) = (   0.7711799   0.5284907   0.7785372  )
        13           O   tau(  13) = (   0.7250109   0.0086501   0.7323683  )
        14           O   tau(  14) = (   0.2699972   1.0310310   0.7250110  )
        15           O   tau(  15) = (  -0.2238282   0.5111904  -0.7711799  )
        16           O   tau(  16) = (   0.2311856   0.5284907   0.2238282  )
        17           O   tau(  17) = (   0.4925725   0.2898527   0.7011947  )
        18           O   tau(  18) = (   0.4994085   0.7605579   0.8023534  )
        19           O   tau(  19) = (  -0.9937552   0.2299879   1.2023775  )
        20           O   tau(  20) = (   0.0017742   0.7989638   0.3011707  )
        21           O   tau(  21) = (   0.5097930   0.2898527   0.3011707  )
        22           O   tau(  22) = (   0.5029569   0.7605579   1.2023775  )
        23           O   tau(  23) = (  -0.0086103   0.2299879   0.8023534  )
        24           O   tau(  24) = (  -1.0041397   0.7989638   0.7011947  )
        25           O   tau(  25) = (   0.7011948   0.2407174   2.0065051  )
        26           O   tau(  26) = (   0.3011707   0.7498284   0.4925724  )
        27           O   tau(  27) = (   0.8023534   0.2791232   0.5029569  )
        28           O   tau(  28) = (   0.2000120   0.8096933   1.9961206  )
        29           O   tau(  29) = (   0.3011707   0.2407174   1.0005913  )
        30           O   tau(  30) = (   0.7011948   0.7498284   0.5097930  )
        31           O   tau(  31) = (   0.2000120   0.2791232   0.4994085  )
        32           O   tau(  32) = (   0.8023534   0.8096933   1.0109757  )

     number of k points=    40  gaussian smearing, width (Ry)=  0.0007
                       cart. coord. in units 2pi/alat
        k(    1) = (   0.0000000   0.0000000   0.0000000), wk =   0.0092593
        k(    2) = (   0.0000000   0.0000000   0.1662734), wk =   0.0370370
        k(    3) = (   0.0000000   0.0000000   0.3325467), wk =   0.0370370
        k(    4) = (   0.0000000   0.0000000  -0.4988201), wk =   0.0185185
        k(    5) = (   0.0000000   0.1603056   0.0000000), wk =   0.0185185
        k(    6) = (   0.0000000   0.1603056   0.1662734), wk =   0.0740741
        k(    7) = (   0.0000000   0.1603056   0.3325467), wk =   0.0740741
        k(    8) = (   0.0000000   0.1603056  -0.4988201), wk =   0.0370370
        k(    9) = (   0.0000000   0.3206111   0.0000000), wk =   0.0185185
        k(   10) = (   0.0000000   0.3206111   0.1662734), wk =   0.0740741
        k(   11) = (   0.0000000   0.3206111   0.3325467), wk =   0.0740741
        k(   12) = (   0.0000000   0.3206111  -0.4988201), wk =   0.0370370
        k(   13) = (   0.0000000  -0.4809167   0.0000000), wk =   0.0092593
        k(   14) = (   0.0000000  -0.4809167   0.1662734), wk =   0.0370370
        k(   15) = (   0.0000000  -0.4809167   0.3325467), wk =   0.0370370
        k(   16) = (   0.0000000  -0.4809167  -0.4988201), wk =   0.0185185
        k(   17) = (   0.1662734   0.0000000   0.1662734), wk =   0.0370370
        k(   18) = (   0.1662734   0.0000000   0.3325467), wk =   0.0740741
        k(   19) = (   0.1662734   0.0000000  -0.4988201), wk =   0.0370370
        k(   20) = (   0.1662734   0.1603056   0.1662734), wk =   0.0740741
        k(   21) = (   0.1662734   0.1603056   0.3325467), wk =   0.1481481
        k(   22) = (   0.1662734   0.1603056  -0.4988201), wk =   0.0740741
        k(   23) = (   0.1662734   0.3206111   0.1662734), wk =   0.0740741
        k(   24) = (   0.1662734   0.3206111   0.3325467), wk =   0.1481481
        k(   25) = (   0.1662734   0.3206111  -0.4988201), wk =   0.0740741
        k(   26) = (   0.1662734  -0.4809167   0.1662734), wk =   0.0370370
        k(   27) = (   0.1662734  -0.4809167   0.3325467), wk =   0.0740741
        k(   28) = (   0.1662734  -0.4809167  -0.4988201), wk =   0.0370370
        k(   29) = (   0.3325467   0.0000000   0.3325467), wk =   0.0370370
        k(   30) = (   0.3325467   0.0000000  -0.4988201), wk =   0.0370370
        k(   31) = (   0.3325467   0.1603056   0.3325467), wk =   0.0740741
        k(   32) = (   0.3325467   0.1603056  -0.4988201), wk =   0.0740741
        k(   33) = (   0.3325467   0.3206111   0.3325467), wk =   0.0740741
        k(   34) = (   0.3325467   0.3206111  -0.4988201), wk =   0.0740741
        k(   35) = (   0.3325467  -0.4809167   0.3325467), wk =   0.0370370
        k(   36) = (   0.3325467  -0.4809167  -0.4988201), wk =   0.0370370
        k(   37) = (  -0.4988201   0.0000000  -0.4988201), wk =   0.0092593
        k(   38) = (  -0.4988201   0.1603056  -0.4988201), wk =   0.0185185
        k(   39) = (  -0.4988201   0.3206111  -0.4988201), wk =   0.0185185
        k(   40) = (  -0.4988201  -0.4809167  -0.4988201), wk =   0.0092593

     Initial potential from superposition of free atoms

     starting charge  367.99656, renormalised to  368.00000
     Starting wfc are  232 randomized atomic wfcs

     Writing output data file Landau_27.save

     Self-consistent Calculation

[...]

     total energy              =   -6261.09370501 Ry
     Harris-Foulkes estimate   =   -6261.09370501 Ry
     estimated scf accuracy    <          1.0E-10 Ry

     iteration # 15     ecut=   120.00 Ry     beta= 0.70
     Davidson diagonalization with overlap
     ethr =  1.00E-13,  avg # of iterations =  2.0

     End of self-consistent calculation

[...]

          k = 0.3325-0.4809-0.4988 ( 61440 PWs)   bands (ev):

[...]

          k =-0.4988-0.4809-0.4988 ( 61448 PWs)   bands (ev):

   -65.9253 -65.9253 -65.9253 -65.9253 -65.9253 -65.9253 -65.9253 -65.9253
   -30.3355 -30.3355 -30.3341 -30.3341 -30.3341 -30.3341 -30.3341 -30.3341
   -30.2521 -30.2521 -30.2521 -30.2521 -30.2521 -30.2521 -30.2509 -30.2508
   -30.1805 -30.1805 -30.1803 -30.1803 -30.1803 -30.1803 -30.1802 -30.1802
   -20.0843 -20.0843 -20.0843 -20.0843 -20.0843 -20.0843 -20.0842 -20.0842
   -20.0697 -20.0697 -20.0697 -20.0697 -20.0696 -20.0696 -20.0696 -20.0696
   -20.0589 -20.0589 -20.0588 -20.0588 -20.0588 -20.0588 -20.0587 -20.0587
   -20.0511 -20.0511 -20.0511 -20.0511 -20.0510 -20.0509 -20.0509 -20.0509
   -20.0485 -20.0485 -20.0484 -20.0484 -20.0483 -20.0483 -20.0483 -20.0483
   -20.0386 -20.0386 -20.0386 -20.0386 -20.0386 -20.0386 -20.0386 -20.0386
   -20.0317 -20.0317 -20.0316 -20.0316 -20.0316 -20.0316 -20.0316 -20.0316
    -8.8054  -8.8054  -8.7521  -8.7521  -8.7349  -8.7349  -8.7349  -8.7349
    -8.2678  -8.2678  -8.1933  -8.1933  -8.1933  -8.1933  -8.1664  -8.1663
    -8.0938  -8.0938  -8.0938  -8.0938  -8.0341  -8.0341  -8.0118  -8.0118
     3.0766   3.0766   3.0767   3.0767   3.0880   3.0881   3.1179   3.1179
     3.3281   3.3282   3.4204   3.4204   3.4204   3.4204   3.4789   3.4789
     3.5575   3.5575   3.6969   3.6969   3.6969   3.6969   3.7437   3.7437
     4.3125   4.3125   4.3139   4.3139   4.3844   4.3844   4.3844   4.3844
     4.5842   4.5843   4.5843   4.5843   4.5912   4.5912   4.6897   4.6897
     4.7310   4.7310   4.7885   4.7885   4.8011   4.8011   4.8011   4.8011
     7.1753   7.1753   7.3171   7.3171   7.3171   7.3171   7.4780   7.4780
     7.5551   7.5552   7.5552   7.5552   7.5799   7.5799   7.6711   7.6711
     7.7533   7.7533   7.7865   7.7865   7.7865   7.7866   7.8658   7.8658
    12.0846  12.0846  12.1062  12.1062  12.1063  12.1063  12.1265  12.1265
    12.4252  12.4252  12.4546  12.4546  12.4546  12.4546  12.6839  12.6839
    12.7190  12.7190  12.8471  12.8472  12.8472  12.8472  12.8752  12.8752
    17.1509  17.1509  17.1509  17.1509  17.2091  17.2091  17.2675  17.2675
    17.5406  17.5406  17.5406  17.5406  17.5688

     the Fermi energy is     9.2294 ev

!    total energy              =   -6261.09370501 Ry
     Harris-Foulkes estimate   =   -6261.09370501 Ry
     estimated scf accuracy    <          4.0E-12 Ry

     The total energy is the sum of the following terms:

     one-electron contribution =   -4653.55117760 Ry
     hartree contribution      =    2566.56124136 Ry
     xc contribution           =    -965.64502913 Ry
     ewald contribution        =   -3208.45873964 Ry
     smearing contrib. (-TS)   =      -0.00000000 Ry

     convergence has been achieved in  15 iterations

     Forces acting on atoms (cartesian axes, Ry/au):

     atom    1 type  1   force =    -0.03625176   -0.01301089   -0.00566070
     atom    2 type  1   force =     0.00566070    0.01301089   -0.03625176
     atom    3 type  1   force =     0.03625176    0.01301089   -0.00566070
     atom    4 type  1   force =    -0.00566070   -0.01301089   -0.03625176
     atom    5 type  1   force =     0.03625176   -0.01301089    0.00566070
     atom    6 type  1   force =    -0.00566070    0.01301089    0.03625176
     atom    7 type  1   force =    -0.03625176    0.01301089    0.00566070
     atom    8 type  1   force =     0.00566070   -0.01301089    0.03625176
     atom    9 type  2   force =     0.00182437    0.00472787   -0.00248862
     atom   10 type  2   force =     0.00248862   -0.00472787    0.00182437
     atom   11 type  2   force =    -0.00182437   -0.00472787   -0.00248862
     atom   12 type  2   force =    -0.00248862    0.00472787    0.00182437
     atom   13 type  2   force =    -0.00182437    0.00472787    0.00248862
     atom   14 type  2   force =    -0.00248862   -0.00472787   -0.00182437
     atom   15 type  2   force =     0.00182437   -0.00472787    0.00248862
     atom   16 type  2   force =     0.00248862    0.00472787   -0.00182437
     atom   17 type  2   force =    -0.02412872    0.00229530   -0.00081018
     atom   18 type  2   force =    -0.00047367    0.00475246   -0.00398405
     atom   19 type  2   force =     0.02412872   -0.00229530   -0.00081018
     atom   20 type  2   force =     0.00047367   -0.00475246   -0.00398405
     atom   21 type  2   force =     0.02412872    0.00229530    0.00081018
     atom   22 type  2   force =     0.00047367    0.00475246    0.00398405
     atom   23 type  2   force =    -0.02412872   -0.00229530    0.00081018
     atom   24 type  2   force =    -0.00047367   -0.00475246    0.00398405
     atom   25 type  2   force =     0.00398405    0.00475246    0.00047367
     atom   26 type  2   force =     0.00081018   -0.00229530   -0.02412872
     atom   27 type  2   force =    -0.00398405   -0.00475246    0.00047367
     atom   28 type  2   force =    -0.00081018    0.00229530   -0.02412872
     atom   29 type  2   force =    -0.00398405    0.00475246   -0.00047367
     atom   30 type  2   force =    -0.00081018   -0.00229530    0.02412872
     atom   31 type  2   force =     0.00398405   -0.00475246   -0.00047367
     atom   32 type  2   force =     0.00081018    0.00229530    0.02412872

     Total force =     0.000000     Total SCF correction =     0.000000

     Computing stress (Cartesian axis) and pressure

          total   stress  (Ry/bohr**3)                   (kbar)     P=   -0.17
  -0.00000046   0.00000000   0.00000000         -0.07      0.00      0.00
   0.00000000  -0.00000254   0.00000000          0.00     -0.37      0.00
   0.00000000   0.00000000  -0.00000046          0.00      0.00     -0.07

     Writing output data file Landau_27.save

     General routines

     Parallel routines

   This run was terminated on:   5:30:30   1May2019

   JOB DONE.