     Program PWSCF v.6.2 (svn rev. 14038) starts on  6Mar2020 at 22:11:33

     K-points division:     npool     =      40
     Reading input from rscf.in

     Current dimensions of program PWSCF are:
     Max number of different atomic species (ntypx) = 10
     Max number of k-points (npk) =  40000
     Max angular momentum in pseudopotentials (lmaxx) =  3

     Subspace diagonalization in iterative solution of the eigenvalue problem:
     a serial algorithm will be used

     bravais-lattice index     =            0
     lattice parameter (alat)  =      13.8397  a.u.
     unit-cell volume          =    2804.9816 (a.u.)^3
     number of atoms/cell      =           32
     number of atomic types    =            2
     number of electrons       =       368.00
     number of Kohn-Sham states=          221
     kinetic-energy cutoff     =     120.0000  Ry
     charge density cutoff     =     480.0000  Ry
     convergence threshold     =      1.0E-08
     mixing beta               =       0.7000
     number of iterations used =            8  plain     mixing
     Exchange-correlation      = SLA PW NOGX NOGC ( 1  4  0  0 0 0)
     nstep                     =           50

     celldm(1)=  13.839685  celldm(2)=   0.000000  celldm(3)=   0.000000
     celldm(4)=   0.000000  celldm(5)=   0.000000  celldm(6)=   0.000000

     crystal axes: (cart. coord. in units of alat)
               a(1) = (   1.000000   0.000000   0.000000 )
               a(2) = (   0.000000   1.058160   0.000000 )
               a(3) = (   0.000000   0.000000   1.000000 )

     reciprocal axes: (cart. coord. in units 2 pi/alat)
               b(1) = (  1.000000  0.000000  0.000000 )
               b(2) = (  0.000000  0.945037  0.000000 )
               b(3) = (  0.000000  0.000000  1.000000 )

     PseudoPot. # 1 for W  read from file:
     /cluster/scratch/mnoe/QE/pps/W_ONCV_LDA-4.0.upf
     MD5 check sum: ba0307d5d4cd419d6f1d13dc49d7c13a
     Pseudo is Norm-conserving + core correction, Zval = 28.0
     Generated using ONCVPSP code by D. R. Hamann
     Using radial grid of 1380 points,  8 beta functions with:
                l(1) =   0
                l(2) =   0
                l(3) =   1
                l(4) =   1
                l(5) =   2
                l(6) =   2
                l(7) =   3
                l(8) =   3

     PseudoPot. # 2 for O  read from file:
     /cluster/scratch/mnoe/QE/pps/O_ONCV_LDA-3.0.upf
     MD5 check sum: a1bd6164e7280c17a38c229939bfbd54
     Pseudo is Norm-conserving + core correction, Zval =  6.0
     Generated using ONCVPSP code by D. R. Hamann
     Using radial grid of  926 points,  5 beta functions with:
                l(1) =   0
                l(2) =   0
                l(3) =   1
                l(4) =   1
                l(5) =   2

     atomic species   valence    mass     pseudopotential
        W             28.00   183.84000     W ( 1.00)
        O              6.00    15.99940     O ( 1.00)

      8 Sym. Ops. (no inversion) found ( 7 have fractional translation)

   Cartesian axes

     site n.     atom                  positions (alat units)
         1           W   tau(   1) = (   0.2669100   0.2938451  -0.9822100  )
         2           W   tau(   2) = (   0.7322099   0.7643150  -0.9830900  )
         3           W   tau(   3) = (   0.2330900   0.2352350  -0.4822100  )
         4           W   tau(   4) = (   0.7677900   0.8229252  -0.4830900  )
         5           W   tau(   5) = (   0.7330899   0.2938451  -0.5177900  )
         6           W   tau(   6) = (   0.2677900   0.7643150  -0.5169100  )
         7           W   tau(   7) = (   0.7669100   0.2352350  -1.0177900  )
         8           W   tau(   8) = (   0.2322100   0.8229252  -1.0169100  )
         9           O   tau(   9) = (   0.2860400   0.0076078  -0.9641400  )
        10           O   tau(  10) = (   0.7141400   1.0505522  -0.9639600  )
        11           O   tau(  11) = (   0.2139600   0.5214722  -0.4641400  )
        12           O   tau(  12) = (   0.7858600   0.5366879  -0.4639600  )
        13           O   tau(  13) = (   0.7139600   0.0076078  -0.5358600  )
        14           O   tau(  14) = (   0.2858600   1.0505522  -0.5360400  )
        15           O   tau(  15) = (   0.7860400   0.5214722  -1.0358600  )
        16           O   tau(  16) = (   0.2141400   0.5366879  -1.0360400  )
        17           O   tau(  17) = (   0.4924901   0.3100832  -0.5403552  )
        18           O   tau(  18) = (   0.5049200   0.7613779  -0.4596447  )
        19           O   tau(  19) = (   0.0075100   0.2189968  -1.0403552  )
        20           O   tau(  20) = (   0.9950800   0.8258622  -0.9596448  )
        21           O   tau(  21) = (   0.5075100   0.3100832  -0.9596448  )
        22           O   tau(  22) = (   0.4950800   0.7613779  -1.0403552  )
        23           O   tau(  23) = (   0.9924900   0.2189968  -0.4596447  )
        24           O   tau(  24) = (   0.0049200   0.8258622  -0.5403552  )
        25           O   tau(  25) = (   0.7096448   0.2322979  -0.2549200  )
        26           O   tau(  26) = (   0.2903552   0.7480768  -0.7575100  )
        27           O   tau(  27) = (   0.7903553   0.2967822  -0.7549200  )
        28           O   tau(  28) = (   0.2096448   0.8391633  -0.2575100  )
        29           O   tau(  29) = (   0.2903552   0.2322979  -1.2450800  )
        30           O   tau(  30) = (   0.7096448   0.7480768  -0.7424901  )
        31           O   tau(  31) = (   0.2096448   0.2967822  -0.7450800  )
        32           O   tau(  32) = (   0.7903553   0.8391633  -1.2424900  )

     number of k points=    40  gaussian smearing, width (Ry)=  0.0007
                       cart. coord. in units 2pi/alat
        k(    1) = (   0.0000000   0.0000000   0.0000000), wk =   0.0092593
        k(    2) = (   0.0000000   0.0000000   0.1666667), wk =   0.0370370
        k(    3) = (   0.0000000   0.0000000   0.3333333), wk =   0.0370370
        k(    4) = (   0.0000000   0.0000000  -0.5000000), wk =   0.0185185
        k(    5) = (   0.0000000   0.1575061   0.0000000), wk =   0.0185185
        k(    6) = (   0.0000000   0.1575061   0.1666667), wk =   0.0740741
        k(    7) = (   0.0000000   0.1575061   0.3333333), wk =   0.0740741
        k(    8) = (   0.0000000   0.1575061  -0.5000000), wk =   0.0370370
        k(    9) = (   0.0000000   0.3150122   0.0000000), wk =   0.0185185
        k(   10) = (   0.0000000   0.3150122   0.1666667), wk =   0.0740741
        k(   11) = (   0.0000000   0.3150122   0.3333333), wk =   0.0740741
        k(   12) = (   0.0000000   0.3150122  -0.5000000), wk =   0.0370370
        k(   13) = (   0.0000000  -0.4725183   0.0000000), wk =   0.0092593
        k(   14) = (   0.0000000  -0.4725183   0.1666667), wk =   0.0370370
        k(   15) = (   0.0000000  -0.4725183   0.3333333), wk =   0.0370370
        k(   16) = (   0.0000000  -0.4725183  -0.5000000), wk =   0.0185185
        k(   17) = (   0.1666667   0.0000000   0.1666667), wk =   0.0370370
        k(   18) = (   0.1666667   0.0000000   0.3333333), wk =   0.0740741
        k(   19) = (   0.1666667   0.0000000  -0.5000000), wk =   0.0370370
        k(   20) = (   0.1666667   0.1575061   0.1666667), wk =   0.0740741
        k(   21) = (   0.1666667   0.1575061   0.3333333), wk =   0.1481481
        k(   22) = (   0.1666667   0.1575061  -0.5000000), wk =   0.0740741
        k(   23) = (   0.1666667   0.3150122   0.1666667), wk =   0.0740741
        k(   24) = (   0.1666667   0.3150122   0.3333333), wk =   0.1481481
        k(   25) = (   0.1666667   0.3150122  -0.5000000), wk =   0.0740741
        k(   26) = (   0.1666667  -0.4725183   0.1666667), wk =   0.0370370
        k(   27) = (   0.1666667  -0.4725183   0.3333333), wk =   0.0740741
        k(   28) = (   0.1666667  -0.4725183  -0.5000000), wk =   0.0370370
        k(   29) = (   0.3333333   0.0000000   0.3333333), wk =   0.0370370
        k(   30) = (   0.3333333   0.0000000  -0.5000000), wk =   0.0370370
        k(   31) = (   0.3333333   0.1575061   0.3333333), wk =   0.0740741
        k(   32) = (   0.3333333   0.1575061  -0.5000000), wk =   0.0740741
        k(   33) = (   0.3333333   0.3150122   0.3333333), wk =   0.0740741
        k(   34) = (   0.3333333   0.3150122  -0.5000000), wk =   0.0740741
        k(   35) = (   0.3333333  -0.4725183   0.3333333), wk =   0.0370370
        k(   36) = (   0.3333333  -0.4725183  -0.5000000), wk =   0.0370370
        k(   37) = (  -0.5000000   0.0000000  -0.5000000), wk =   0.0092593
        k(   38) = (  -0.5000000   0.1575061  -0.5000000), wk =   0.0185185
        k(   39) = (  -0.5000000   0.3150122  -0.5000000), wk =   0.0185185
        k(   40) = (  -0.5000000  -0.4725183  -0.5000000), wk =   0.0092593

     Initial potential from superposition of free atoms

     starting charge  367.99656, renormalised to  368.00000
     Starting wfc are  232 randomized atomic wfcs

     Self-consistent Calculation

     iteration #  1     ecut=   120.00 Ry     beta= 0.70
     Davidson diagonalization with overlap
     ethr =  1.00E-02,  avg # of iterations =  4.6

     total energy              =   -6253.66120433 Ry
     Harris-Foulkes estimate   =   -6264.49034636 Ry
     estimated scf accuracy    <      13.67648138 Ry

[...]

     End of self-consistent calculation

          k = 0.0000 0.0000 0.0000 ( 62239 PWs)   bands (ev):

   -66.2392 -66.2388 -66.2382 -66.2382 -66.2377 -66.2377 -66.2371 -66.2367
   -30.6603 -30.6585 -30.6516 -30.6516 -30.6285 -30.6285 -30.6276 -30.6265
   -30.5593 -30.5581 -30.5561 -30.5560 -30.5304 -30.5304 -30.5238 -30.5232
   -30.4336 -30.4297 -30.4297 -30.4259 -30.3827 -30.3795 -30.3795 -30.3763
   -20.4195 -20.4193 -20.4192 -20.4192 -20.4185 -20.4185 -20.4185 -20.4183
   -20.4002 -20.3999 -20.3998 -20.3998 -20.3987 -20.3987 -20.3986 -20.3984
   -20.3940 -20.3940 -20.3936 -20.3936 -20.3936 -20.3936 -20.3932 -20.3932
   -20.3855 -20.3850 -20.3844 -20.3844 -20.3836 -20.3833 -20.3833 -20.3832
   -20.3802 -20.3799 -20.3799 -20.3785 -20.3764 -20.3763 -20.3761 -20.3759
   -20.3756 -20.3746 -20.3745 -20.3736 -20.3722 -20.3716 -20.3715 -20.3710
   -20.3648 -20.3645 -20.3636 -20.3635 -20.3631 -20.3631 -20.3620 -20.3619
    -9.9977  -9.8106  -9.5298  -9.5298  -9.3978  -9.3978  -9.1703  -9.1403
    -8.4302  -8.4221  -8.3945  -8.3945  -8.0714  -7.9819  -7.9028  -7.8883
    -7.8883  -7.8565  -7.8055  -7.8055  -7.5061  -7.4110  -7.4110  -7.3253
     1.1089   1.1118   1.2171   1.2171   1.2873   1.2873   1.4879   1.4957
     2.1657   2.2002   2.2861   2.2861   2.3529   2.3778   2.7557   2.8006
     2.9312   2.9312   4.2954   4.2954   4.3320   4.4741   4.4970   4.4970
     4.6181   4.6181   4.8544   5.1901   5.3742   5.3742   5.3933   5.4128
     5.4406   5.4406   5.5624   5.6161   5.6161   5.6719   5.7452   5.7453
     5.7524   5.7802   5.8138   5.8782   5.8782   5.9024   6.0287   6.0836
     6.1500   6.2381   6.5722   6.7152   6.7152   6.8082   6.8604   6.8604
     6.8855   6.9975   6.9975   6.9981   7.0527   7.0527   7.4410   7.4410
     7.4557   7.4886   7.7131   7.7297   7.9043   7.9985   7.9985   8.1006
     9.6895   9.7281   9.8559   9.8572   9.8572  10.1059  12.0072  12.0072
[...]
W        0.233089996   0.222305661  -0.482210001    0   0   0
W        0.767789977   0.777694399  -0.483089996    0   0   0
W        0.733089942   0.277694355  -0.517790015    0   0   0
W        0.267790015   0.722305645  -0.516910020    0   0   0
W        0.766909982   0.222305661  -1.017789999    0   0   0
W        0.232210001   0.777694399  -1.016910004    0   0   0
O        0.286040002   0.007189687  -0.964139982    0   0   0
O        0.714139960   0.992810297  -0.963959998    0   0   0
O        0.213960014   0.492810340  -0.464139998    0   0   0
O        0.785859964   0.507189703  -0.463960014    0   0   0
O        0.713959976   0.007189687  -0.535860018    0   0   0
O        0.285860018   0.992810297  -0.536040002    0   0   0
O        0.786040013   0.492810340  -1.035859986    0   0   0
O        0.214139998   0.507189703  -1.036040035    0   0   0
O        0.492490054   0.293039992  -0.540355193    0   0   0
O        0.504920003   0.719530025  -0.459644745    0   0   0
O        0.007510006   0.206959992  -1.040355193    0   0   0
O        0.995079997   0.780470017  -0.959644814    0   0   0
O        0.507510011   0.293039992  -0.959644814    0   0   0
O        0.495079997   0.719530025  -1.040355193    0   0   0
O        0.992490021   0.206959992  -0.459644745    0   0   0
O        0.004920006   0.780470017  -0.540355193    0   0   0
O        0.709644751   0.219529989  -0.254920028    0   0   0
O        0.290355171   0.706959998  -0.757510011    0   0   0
O        0.790355261   0.280470026  -0.754920003    0   0   0
O        0.209644791   0.793040044  -0.257510028    0   0   0
O        0.290355171   0.219529989  -1.245080019    0   0   0
O        0.709644751   0.706959998  -0.742490054    0   0   0
O        0.209644791   0.280470026  -0.745079997    0   0   0
O        0.790355261   0.793040044  -1.242490043    0   0   0
End final coordinates

     A final scf calculation at the relaxed structure.
     The G-vectors are recalculated for the final unit cell
     Results may differ from those at the preceding step.

     bravais-lattice index     =            0
     lattice parameter (alat)  =      13.8397  a.u.
     unit-cell volume          =    2734.0640 (a.u.)^3
     number of atoms/cell      =           32
     number of atomic types    =            2
     number of electrons       =       368.00
     number of Kohn-Sham states=          221
     kinetic-energy cutoff     =     120.0000  Ry
     charge density cutoff     =     480.0000  Ry
     convergence threshold     =      1.0E-10
     mixing beta               =       0.7000
     number of iterations used =            8  plain     mixing
     Exchange-correlation      = SLA PW NOGX NOGC ( 1  4  0  0 0 0)

     celldm(1)=  13.839685  celldm(2)=   0.000000  celldm(3)=   0.000000
     celldm(4)=   0.000000  celldm(5)=   0.000000  celldm(6)=   0.000000

     crystal axes: (cart. coord. in units of alat)
               a(1) = (   1.008120   0.000000   0.000000 )
               a(2) = (   0.000000   1.014859   0.000000 )
               a(3) = (   0.000000   0.000000   1.008120 )

     reciprocal axes: (cart. coord. in units 2 pi/alat)
               b(1) = (  0.991946  0.000000  0.000000 )
               b(2) = (  0.000000  0.985359  0.000000 )
               b(3) = (  0.000000  0.000000  0.991946 )

     PseudoPot. # 1 for W  read from file:
     /cluster/scratch/mnoe/QE/pps/W_ONCV_LDA-4.0.upf
     MD5 check sum: ba0307d5d4cd419d6f1d13dc49d7c13a
     Pseudo is Norm-conserving + core correction, Zval = 28.0
     Generated using ONCVPSP code by D. R. Hamann
     Using radial grid of 1380 points,  8 beta functions with:
                l(1) =   0
                l(2) =   0
                l(3) =   1
                l(4) =   1
                l(5) =   2
                l(6) =   2
                l(7) =   3
                l(8) =   3

     PseudoPot. # 2 for O  read from file:
     /cluster/scratch/mnoe/QE/pps/O_ONCV_LDA-3.0.upf
     MD5 check sum: a1bd6164e7280c17a38c229939bfbd54
     Pseudo is Norm-conserving + core correction, Zval =  6.0
     Generated using ONCVPSP code by D. R. Hamann
     Using radial grid of  926 points,  5 beta functions with:
                l(1) =   0
                l(2) =   0
                l(3) =   1
                l(4) =   1
                l(5) =   2

     atomic species   valence    mass     pseudopotential
        W             28.00   183.84000     W ( 1.00)
        O              6.00    15.99940     O ( 1.00)

      8 Sym. Ops. (no inversion) found ( 7 have fractional translation)

   Cartesian axes

     site n.     atom                  positions (alat units)
         1           W   tau(   1) = (   0.2690773   0.2818206  -0.9901853  )
         2           W   tau(   2) = (   0.7381554   0.7330384  -0.9910725  )
         3           W   tau(   3) = (   0.2349826   0.2256089  -0.4861255  )
         4           W   tau(   4) = (   0.7740243   0.7892502  -0.4870126  )
         5           W   tau(   5) = (   0.7390425   0.2818206  -0.5219944  )
         6           W   tau(   6) = (   0.2699644   0.7330384  -0.5211072  )
         7           W   tau(   7) = (   0.7731372   0.2256089  -1.0260543  )
         8           W   tau(   8) = (   0.2340955   0.7892502  -1.0251671  )
         9           O   tau(   9) = (   0.2883626   0.0072965  -0.9719686  )
        10           O   tau(  10) = (   0.7199386   1.0075625  -0.9717872  )
        11           O   tau(  11) = (   0.2156973   0.5001330  -0.4679087  )
        12           O   tau(  12) = (   0.7922410   0.5147261  -0.4677273  )
        13           O   tau(  13) = (   0.7197572   0.0072965  -0.5402111  )
        14           O   tau(  14) = (   0.2881812   1.0075625  -0.5403926  )
        15           O   tau(  15) = (   0.7924225   0.5001330  -1.0442710  )
        16           O   tau(  16) = (   0.2158788   0.5147261  -1.0444525  )
        17           O   tau(  17) = (   0.4964890   0.2973943  -0.5447428  )
        18           O   tau(  18) = (   0.5090199   0.7302215  -0.4633770  )
        19           O   tau(  19) = (   0.0075710   0.2100352  -1.0488027  )
        20           O   tau(  20) = (   1.0031599   0.7920670  -0.9674370  )
        21           O   tau(  21) = (   0.5116309   0.2973943  -0.9674370  )
        22           O   tau(  22) = (   0.4991000   0.7302215  -1.0488027  )
        23           O   tau(  23) = (   1.0005489   0.2100352  -0.4633770  )
        24           O   tau(  24) = (   0.0049600   0.7920670  -0.5447428  )
        25           O   tau(  25) = (   0.7154069   0.2227920  -0.2569899  )
        26           O   tau(  26) = (   0.2927128   0.7174647  -0.7636609  )
        27           O   tau(  27) = (   0.7967728   0.2846375  -0.7610498  )
        28           O   tau(  28) = (   0.2113471   0.8048239  -0.2596010  )
        29           O   tau(  29) = (   0.2927128   0.2227920  -1.2551898  )
        30           O   tau(  30) = (   0.7154069   0.7174647  -0.7485189  )
        31           O   tau(  31) = (   0.2113471   0.2846375  -0.7511299  )
        32           O   tau(  32) = (   0.7967728   0.8048239  -1.2525788  )

     number of k points=    40  gaussian smearing, width (Ry)=  0.0007
                       cart. coord. in units 2pi/alat
        k(    1) = (   0.0000000   0.0000000   0.0000000), wk =   0.0092593
        k(    2) = (   0.0000000   0.0000000   0.1653243), wk =   0.0370370
        k(    3) = (   0.0000000   0.0000000   0.3306485), wk =   0.0370370
        k(    4) = (   0.0000000   0.0000000  -0.4959728), wk =   0.0185185
        k(    5) = (   0.0000000   0.1642264   0.0000000), wk =   0.0185185
        k(    6) = (   0.0000000   0.1642264   0.1653243), wk =   0.0740741
        k(    7) = (   0.0000000   0.1642264   0.3306485), wk =   0.0740741
        k(    8) = (   0.0000000   0.1642264  -0.4959728), wk =   0.0370370
        k(    9) = (   0.0000000   0.3284528   0.0000000), wk =   0.0185185
        k(   10) = (   0.0000000   0.3284528   0.1653243), wk =   0.0740741
        k(   11) = (   0.0000000   0.3284528   0.3306485), wk =   0.0740741
        k(   12) = (   0.0000000   0.3284528  -0.4959728), wk =   0.0370370
        k(   13) = (   0.0000000  -0.4926793   0.0000000), wk =   0.0092593
        k(   14) = (   0.0000000  -0.4926793   0.1653243), wk =   0.0370370
        k(   15) = (   0.0000000  -0.4926793   0.3306485), wk =   0.0370370
        k(   16) = (   0.0000000  -0.4926793  -0.4959728), wk =   0.0185185
        k(   17) = (   0.1653243   0.0000000   0.1653243), wk =   0.0370370
        k(   18) = (   0.1653243   0.0000000   0.3306485), wk =   0.0740741
        k(   19) = (   0.1653243   0.0000000  -0.4959728), wk =   0.0370370
        k(   20) = (   0.1653243   0.1642264   0.1653243), wk =   0.0740741
        k(   21) = (   0.1653243   0.1642264   0.3306485), wk =   0.1481481
        k(   22) = (   0.1653243   0.1642264  -0.4959728), wk =   0.0740741
        k(   23) = (   0.1653243   0.3284528   0.1653243), wk =   0.0740741
        k(   24) = (   0.1653243   0.3284528   0.3306485), wk =   0.1481481
        k(   25) = (   0.1653243   0.3284528  -0.4959728), wk =   0.0740741
        k(   26) = (   0.1653243  -0.4926793   0.1653243), wk =   0.0370370
        k(   27) = (   0.1653243  -0.4926793   0.3306485), wk =   0.0740741
        k(   28) = (   0.1653243  -0.4926793  -0.4959728), wk =   0.0370370
        k(   29) = (   0.3306485   0.0000000   0.3306485), wk =   0.0370370
        k(   30) = (   0.3306485   0.0000000  -0.4959728), wk =   0.0370370
        k(   31) = (   0.3306485   0.1642264   0.3306485), wk =   0.0740741
        k(   32) = (   0.3306485   0.1642264  -0.4959728), wk =   0.0740741
        k(   33) = (   0.3306485   0.3284528   0.3306485), wk =   0.0740741
        k(   34) = (   0.3306485   0.3284528  -0.4959728), wk =   0.0740741
        k(   35) = (   0.3306485  -0.4926793   0.3306485), wk =   0.0370370
        k(   36) = (   0.3306485  -0.4926793  -0.4959728), wk =   0.0370370
        k(   37) = (  -0.4959728   0.0000000  -0.4959728), wk =   0.0092593
        k(   38) = (  -0.4959728   0.1642264  -0.4959728), wk =   0.0185185
        k(   39) = (  -0.4959728   0.3284528  -0.4959728), wk =   0.0185185
        k(   40) = (  -0.4959728  -0.4926793  -0.4959728), wk =   0.0092593

     Initial potential from superposition of free atoms

     starting charge  367.99656, renormalised to  368.00000
     Starting wfc are  232 randomized atomic wfcs

     Writing output data file Landau_39.save

     Self-consistent Calculation

[...]

     total energy              =   -6261.10561778 Ry
     Harris-Foulkes estimate   =   -6261.10561778 Ry
     estimated scf accuracy    <          1.1E-10 Ry

     iteration # 15     ecut=   120.00 Ry     beta= 0.70
     Davidson diagonalization with overlap
     ethr =  1.00E-13,  avg # of iterations =  1.1

     End of self-consistent calculation

[...]

          k = 0.3306-0.4927-0.4960 ( 60668 PWs)   bands (ev):

[...]

          k =-0.4960-0.4927-0.4960 ( 60664 PWs)   bands (ev):

   -65.7479 -65.7478 -65.7478 -65.7478 -65.7478 -65.7478 -65.7478 -65.7478
   -30.0983 -30.0983 -30.0978 -30.0978 -30.0978 -30.0978 -30.0964 -30.0964
   -30.0757 -30.0757 -30.0752 -30.0752 -30.0752 -30.0752 -30.0735 -30.0735
   -30.0414 -30.0414 -30.0380 -30.0380 -30.0380 -30.0380 -30.0373 -30.0373
   -19.9163 -19.9163 -19.9163 -19.9163 -19.9163 -19.9163 -19.9163 -19.9163
   -19.8951 -19.8951 -19.8950 -19.8950 -19.8950 -19.8950 -19.8950 -19.8950
   -19.8893 -19.8893 -19.8893 -19.8893 -19.8893 -19.8893 -19.8893 -19.8892
   -19.8742 -19.8742 -19.8741 -19.8740 -19.8740 -19.8740 -19.8739 -19.8739
   -19.8711 -19.8711 -19.8711 -19.8711 -19.8710 -19.8710 -19.8707 -19.8707
   -19.8662 -19.8662 -19.8658 -19.8658 -19.8658 -19.8658 -19.8657 -19.8657
   -19.8524 -19.8523 -19.8523 -19.8523 -19.8523 -19.8523 -19.8523 -19.8523
    -8.5889  -8.5888  -8.5332  -8.5332  -8.5308  -8.5308  -8.5308  -8.5308
    -8.0278  -8.0278  -8.0143  -8.0143  -8.0143  -8.0143  -7.9674  -7.9673
    -7.9477  -7.9476  -7.9306  -7.9305  -7.9305  -7.9305  -7.8792  -7.8792
     3.2891   3.2891   3.2891   3.2891   3.3156   3.3156   3.4076   3.4076
     3.4430   3.4430   3.6551   3.6552   3.6757   3.6757   3.6758   3.6758
     3.7183   3.7183   3.9157   3.9157   3.9157   3.9157   3.9501   3.9501
     4.5281   4.5281   4.5788   4.5788   4.5788   4.5789   4.6292   4.6292
     4.6819   4.6820   4.7518   4.7518   4.7717   4.7718   4.7718   4.7718
     4.8794   4.8795   4.8923   4.8923   4.8923   4.8923   4.9547   4.9548
     7.5030   7.5031   7.5916   7.5916   7.5916   7.5916   7.6445   7.6445
     7.6446   7.6446   7.7114   7.7115   7.7585   7.7585   7.8927   7.8927
     7.9746   7.9746   7.9830   7.9830   7.9830   7.9830   8.0807   8.0808
    12.3252  12.3252  12.3864  12.3864  12.3919  12.3919  12.3919  12.3919
    12.5766  12.5766  12.6547  12.6547  12.6547  12.6547  12.6806  12.6806
    12.8370  12.8370  12.8906  12.8906  12.8906  12.8907  12.9021  12.9021
    17.3327  17.3327  17.4979  17.4979  17.5068  17.5068  17.5068  17.5068
    17.8696  17.8710  17.8710  17.8710  17.8710

     the Fermi energy is     9.5500 ev

!    total energy              =   -6261.10561778 Ry
     Harris-Foulkes estimate   =   -6261.10561778 Ry
     estimated scf accuracy    <          2.8E-12 Ry

     The total energy is the sum of the following terms:

     one-electron contribution =   -4607.38348988 Ry
     hartree contribution      =    2545.99862554 Ry
     xc contribution           =    -965.67206152 Ry
     ewald contribution        =   -3234.04869192 Ry
     smearing contrib. (-TS)   =      -0.00000000 Ry

     convergence has been achieved in  15 iterations

     Forces acting on atoms (cartesian axes, Ry/au):

     atom    1 type  1   force =    -0.00405615   -0.00226426   -0.00596013
     atom    2 type  1   force =     0.00596013    0.00226426   -0.00405615
     atom    3 type  1   force =     0.00405615    0.00226426   -0.00596013
     atom    4 type  1   force =    -0.00596013   -0.00226426   -0.00405615
     atom    5 type  1   force =     0.00405615   -0.00226426    0.00596013
     atom    6 type  1   force =    -0.00596013    0.00226426    0.00405615
     atom    7 type  1   force =    -0.00405615    0.00226426    0.00596013
     atom    8 type  1   force =     0.00596013   -0.00226426    0.00405615
     atom    9 type  2   force =    -0.00137439   -0.00429606   -0.00313619
     atom   10 type  2   force =     0.00313619    0.00429606   -0.00137439
     atom   11 type  2   force =     0.00137439    0.00429606   -0.00313619
     atom   12 type  2   force =    -0.00313619   -0.00429606   -0.00137439
     atom   13 type  2   force =     0.00137439   -0.00429606    0.00313619
     atom   14 type  2   force =    -0.00313619    0.00429606    0.00137439
     atom   15 type  2   force =    -0.00137439    0.00429606    0.00313619
     atom   16 type  2   force =     0.00313619   -0.00429606    0.00137439
     atom   17 type  2   force =     0.00050204   -0.00151875    0.00567947
     atom   18 type  2   force =     0.00383124   -0.00086954    0.00470566
     atom   19 type  2   force =    -0.00050204    0.00151875    0.00567947
     atom   20 type  2   force =    -0.00383124    0.00086954    0.00470566
     atom   21 type  2   force =    -0.00050204   -0.00151875   -0.00567947
     atom   22 type  2   force =    -0.00383124   -0.00086954   -0.00470566
     atom   23 type  2   force =     0.00050204    0.00151875   -0.00567947
     atom   24 type  2   force =     0.00383124    0.00086954   -0.00470566
     atom   25 type  2   force =    -0.00470566   -0.00086954   -0.00383124
     atom   26 type  2   force =    -0.00567947    0.00151875    0.00050204
     atom   27 type  2   force =     0.00470566    0.00086954   -0.00383124
     atom   28 type  2   force =     0.00567947   -0.00151875    0.00050204
     atom   29 type  2   force =     0.00470566   -0.00086954    0.00383124
     atom   30 type  2   force =     0.00567947    0.00151875   -0.00050204
     atom   31 type  2   force =    -0.00470566    0.00086954    0.00383124
     atom   32 type  2   force =    -0.00567947   -0.00151875   -0.00050204

     Total force =     0.000000     Total SCF correction =     0.000000

     Computing stress (Cartesian axis) and pressure

          total   stress  (Ry/bohr**3)                   (kbar)     P=   -0.06
   0.00000086   0.00000000   0.00000000          0.13      0.00      0.00
   0.00000000  -0.00000299   0.00000000          0.00     -0.44      0.00
   0.00000000   0.00000000   0.00000086          0.00      0.00      0.13

     Writing output data file Landau_39.save

     General routines

     Parallel routines

   This run was terminated on:  23:53:35   6Mar2020

   JOB DONE.