     Program PWSCF v.6.2 (svn rev. 14038) starts on 24Mar2020 at 15:48:16

     K-points division:     npool     =      40
     Reading input from rscf.in

     Current dimensions of program PWSCF are:
     Max number of different atomic species (ntypx) = 10
     Max number of k-points (npk) =  40000
     Max angular momentum in pseudopotentials (lmaxx) =  3

     Subspace diagonalization in iterative solution of the eigenvalue problem:
     a serial algorithm will be used

     bravais-lattice index     =            0
     lattice parameter (alat)  =      13.8397  a.u.
     unit-cell volume          =    2804.9816 (a.u.)^3
     number of atoms/cell      =           32
     number of atomic types    =            2
     number of electrons       =       368.00
     number of Kohn-Sham states=          221
     kinetic-energy cutoff     =     120.0000  Ry
     charge density cutoff     =     480.0000  Ry
     convergence threshold     =      1.0E-08
     mixing beta               =       0.7000
     number of iterations used =            8  plain     mixing
     Exchange-correlation      = SLA PW NOGX NOGC ( 1  4  0  0 0 0)
     nstep                     =           50

     celldm(1)=  13.839685  celldm(2)=   0.000000  celldm(3)=   0.000000
     celldm(4)=   0.000000  celldm(5)=   0.000000  celldm(6)=   0.000000

     crystal axes: (cart. coord. in units of alat)
               a(1) = (   1.000000   0.000000   0.000000 )
               a(2) = (   0.000000   1.058160   0.000000 )
               a(3) = (   0.000000   0.000000   1.000000 )

     reciprocal axes: (cart. coord. in units 2 pi/alat)
               b(1) = (  1.000000  0.000000  0.000000 )
               b(2) = (  0.000000  0.945037  0.000000 )
               b(3) = (  0.000000  0.000000  1.000000 )

     PseudoPot. # 1 for W  read from file:
     /cluster/scratch/mnoe/QE/pps/W_ONCV_LDA-4.0.upf
     MD5 check sum: ba0307d5d4cd419d6f1d13dc49d7c13a
     Pseudo is Norm-conserving + core correction, Zval = 28.0
     Generated using ONCVPSP code by D. R. Hamann
     Using radial grid of 1380 points,  8 beta functions with:
                l(1) =   0
                l(2) =   0
                l(3) =   1
                l(4) =   1
                l(5) =   2
                l(6) =   2
                l(7) =   3
                l(8) =   3

     PseudoPot. # 2 for O  read from file:
     /cluster/scratch/mnoe/QE/pps/O_ONCV_LDA-3.0.upf
     MD5 check sum: a1bd6164e7280c17a38c229939bfbd54
     Pseudo is Norm-conserving + core correction, Zval =  6.0
     Generated using ONCVPSP code by D. R. Hamann
     Using radial grid of  926 points,  5 beta functions with:
                l(1) =   0
                l(2) =   0
                l(3) =   1
                l(4) =   1
                l(5) =   2

     atomic species   valence    mass     pseudopotential
        W             28.00   183.84000     W ( 1.00)
        O              6.00    15.99940     O ( 1.00)

      4 Sym. Ops. (no inversion) found ( 3 have fractional translation)

   Cartesian axes

     site n.     atom                  positions (alat units)
         1           W   tau(   1) = (   0.2371766   0.2843117  -0.0057148  )
         2           W   tau(   2) = (   0.7450283   0.7738484  -0.0131294  )
         3           W   tau(   3) = (   0.2628234   0.2447684   0.4942852  )
         4           W   tau(   4) = (   0.7549716   0.8133918   0.4868706  )
         5           W   tau(   5) = (   0.7628233   0.2843117   0.5057148  )
         6           W   tau(   6) = (   0.2549717   0.7738484   0.5131294  )
         7           W   tau(   7) = (   0.7371765   0.2447684   0.0057148  )
         8           W   tau(   8) = (   0.2450283   0.8133918   0.0131294  )
         9           O   tau(   9) = (   0.2399917   0.0050059  -0.0162302  )
        10           O   tau(  10) = (   0.7544771  -0.0050059  -0.0185348  )
        11           O   tau(  11) = (   0.2600082   0.5240742   0.4837698  )
        12           O   tau(  12) = (   0.7455227   0.5340860   0.4814652  )
        13           O   tau(  13) = (   0.7600082   0.0050059   0.5162302  )
        14           O   tau(  14) = (   0.2455228  -0.0050059   0.5185348  )
        15           O   tau(  15) = (   0.7399917   0.5240742   0.0162302  )
        16           O   tau(  16) = (   0.2544772   0.5340860   0.0185348  )
        17           O   tau(  17) = (   0.5049801   0.2525611   0.4817556  )
        18           O   tau(  18) = (   0.5028326   0.7973643   0.5182445  )
        19           O   tau(  19) = (  -0.0049801   0.2765190   0.9817556  )
        20           O   tau(  20) = (  -0.0028325   0.7898760   0.0182443  )
        21           O   tau(  21) = (   0.4950199   0.2525611   0.0182443  )
        22           O   tau(  22) = (   0.4971674   0.7973643   0.9817556  )
        23           O   tau(  23) = (   0.0049801   0.2765190   0.5182445  )
        24           O   tau(  24) = (   0.0028326   0.7898760   0.4817556  )
        25           O   tau(  25) = (   0.7317556   0.2816922   0.7509494  )
        26           O   tau(  26) = (   0.2682443   0.8142035   0.2542047  )
        27           O   tau(  27) = (   0.7682446   0.2473878   0.2509494  )
        28           O   tau(  28) = (   0.2317556   0.7730368   0.7542047  )
        29           O   tau(  29) = (   0.2682443   0.2816922   0.7490505  )
        30           O   tau(  30) = (   0.7317556   0.8142035   0.2457953  )
        31           O   tau(  31) = (   0.2317556   0.2473878   0.2490506  )
        32           O   tau(  32) = (   0.7682446   0.7730368   0.7457952  )

     number of k points=    64  gaussian smearing, width (Ry)=  0.0007
                       cart. coord. in units 2pi/alat
        k(    1) = (   0.0000000   0.0000000   0.0000000), wk =   0.0092593
        k(    2) = (   0.0000000   0.0000000   0.1666667), wk =   0.0185185
        k(    3) = (   0.0000000   0.0000000   0.3333333), wk =   0.0185185
        k(    4) = (   0.0000000   0.0000000  -0.5000000), wk =   0.0092593
        k(    5) = (   0.0000000   0.1575061   0.0000000), wk =   0.0185185
        k(    6) = (   0.0000000   0.1575061   0.1666667), wk =   0.0370370
        k(    7) = (   0.0000000   0.1575061   0.3333333), wk =   0.0370370
        k(    8) = (   0.0000000   0.1575061  -0.5000000), wk =   0.0185185
        k(    9) = (   0.0000000   0.3150122   0.0000000), wk =   0.0185185
        k(   10) = (   0.0000000   0.3150122   0.1666667), wk =   0.0370370
        k(   11) = (   0.0000000   0.3150122   0.3333333), wk =   0.0370370
        k(   12) = (   0.0000000   0.3150122  -0.5000000), wk =   0.0185185
        k(   13) = (   0.0000000  -0.4725183   0.0000000), wk =   0.0092593
        k(   14) = (   0.0000000  -0.4725183   0.1666667), wk =   0.0185185
        k(   15) = (   0.0000000  -0.4725183   0.3333333), wk =   0.0185185
        k(   16) = (   0.0000000  -0.4725183  -0.5000000), wk =   0.0092593
        k(   17) = (   0.1666667   0.0000000   0.1666667), wk =   0.0370370
        k(   18) = (   0.1666667   0.0000000   0.3333333), wk =   0.0370370
        k(   19) = (   0.1666667   0.0000000  -0.5000000), wk =   0.0185185
        k(   20) = (   0.1666667   0.1575061   0.1666667), wk =   0.0740741
        k(   21) = (   0.1666667   0.1575061   0.3333333), wk =   0.0740741
        k(   22) = (   0.1666667   0.1575061  -0.5000000), wk =   0.0370370
        k(   23) = (   0.1666667   0.3150122   0.1666667), wk =   0.0740741
        k(   24) = (   0.1666667   0.3150122   0.3333333), wk =   0.0740741
        k(   25) = (   0.1666667   0.3150122  -0.5000000), wk =   0.0370370
        k(   26) = (   0.1666667  -0.4725183   0.1666667), wk =   0.0370370
        k(   27) = (   0.1666667  -0.4725183   0.3333333), wk =   0.0370370
        k(   28) = (   0.1666667  -0.4725183  -0.5000000), wk =   0.0185185
        k(   29) = (   0.3333333   0.0000000   0.3333333), wk =   0.0370370
        k(   30) = (   0.3333333   0.0000000  -0.5000000), wk =   0.0185185
        k(   31) = (   0.3333333   0.1575061   0.3333333), wk =   0.0740741
        k(   32) = (   0.3333333   0.1575061  -0.5000000), wk =   0.0370370
        k(   33) = (   0.3333333   0.3150122   0.3333333), wk =   0.0740741
        k(   34) = (   0.3333333   0.3150122  -0.5000000), wk =   0.0370370
        k(   35) = (   0.3333333  -0.4725183   0.3333333), wk =   0.0370370
        k(   36) = (   0.3333333  -0.4725183  -0.5000000), wk =   0.0185185
        k(   37) = (  -0.5000000   0.0000000  -0.5000000), wk =   0.0092593
        k(   38) = (  -0.5000000   0.1575061  -0.5000000), wk =   0.0185185
        k(   39) = (  -0.5000000   0.3150122  -0.5000000), wk =   0.0185185
        k(   40) = (  -0.5000000  -0.4725183  -0.5000000), wk =   0.0092593
        k(   41) = (   0.1666667   0.0000000   0.0000000), wk =   0.0185185
        k(   42) = (   0.3333333   0.0000000   0.0000000), wk =   0.0185185
        k(   43) = (  -0.5000000   0.0000000   0.0000000), wk =   0.0092593
        k(   44) = (   0.1666667  -0.1575061   0.0000000), wk =   0.0370370
        k(   45) = (   0.3333333  -0.1575061   0.0000000), wk =   0.0370370
        k(   46) = (  -0.5000000  -0.1575061   0.0000000), wk =   0.0185185
        k(   47) = (   0.1666667  -0.3150122   0.0000000), wk =   0.0370370
        k(   48) = (   0.3333333  -0.3150122   0.0000000), wk =   0.0370370
        k(   49) = (  -0.5000000  -0.3150122   0.0000000), wk =   0.0185185
        k(   50) = (   0.1666667   0.4725183   0.0000000), wk =   0.0185185
        k(   51) = (   0.3333333   0.4725183   0.0000000), wk =   0.0185185
        k(   52) = (  -0.5000000   0.4725183   0.0000000), wk =   0.0092593
        k(   53) = (   0.3333333   0.0000000   0.1666667), wk =   0.0370370
        k(   54) = (  -0.5000000   0.0000000   0.1666667), wk =   0.0185185
        k(   55) = (   0.3333333  -0.1575061   0.1666667), wk =   0.0740741
        k(   56) = (  -0.5000000  -0.1575061   0.1666667), wk =   0.0370370
        k(   57) = (   0.3333333  -0.3150122   0.1666667), wk =   0.0740741
        k(   58) = (  -0.5000000  -0.3150122   0.1666667), wk =   0.0370370
        k(   59) = (   0.3333333   0.4725183   0.1666667), wk =   0.0370370
        k(   60) = (  -0.5000000   0.4725183   0.1666667), wk =   0.0185185
        k(   61) = (  -0.5000000   0.0000000   0.3333333), wk =   0.0185185
        k(   62) = (  -0.5000000  -0.1575061   0.3333333), wk =   0.0370370
        k(   63) = (  -0.5000000  -0.3150122   0.3333333), wk =   0.0370370
        k(   64) = (  -0.5000000   0.4725183   0.3333333), wk =   0.0185185

     Initial potential from superposition of free atoms

     starting charge  367.99656, renormalised to  368.00000
     Starting wfc are  232 randomized atomic wfcs

     Self-consistent Calculation

     iteration #  1     ecut=   120.00 Ry     beta= 0.70
     Davidson diagonalization with overlap
     ethr =  1.00E-02,  avg # of iterations =  5.3

     total energy              =   -6254.00783242 Ry
     Harris-Foulkes estimate   =   -6264.50896503 Ry
     estimated scf accuracy    <      13.33467185 Ry

[...]

     End of self-consistent calculation

[...]
End final coordinates

     A final scf calculation at the relaxed structure.
     The G-vectors are recalculated for the final unit cell
     Results may differ from those at the preceding step.

     bravais-lattice index     =            0
     lattice parameter (alat)  =      13.8397  a.u.
     unit-cell volume          =    2872.1338 (a.u.)^3
     number of atoms/cell      =           32
     number of atomic types    =            2
     number of electrons       =       368.00
     number of Kohn-Sham states=          221
     kinetic-energy cutoff     =     120.0000  Ry
     charge density cutoff     =     480.0000  Ry
     convergence threshold     =      1.0E-10
     mixing beta               =       0.7000
     number of iterations used =            8  plain     mixing
     Exchange-correlation      = SLA PW NOGX NOGC ( 1  4  0  0 0 0)

     celldm(1)=  13.839685  celldm(2)=   0.000000  celldm(3)=   0.000000
     celldm(4)=   0.000000  celldm(5)=   0.000000  celldm(6)=   0.000000

     crystal axes: (cart. coord. in units of alat)
               a(1) = (   1.023965   0.000000   0.000000 )
               a(2) = (   0.000000   1.034377   0.000000 )
               a(3) = (   0.000000   0.000000   1.022968 )

     reciprocal axes: (cart. coord. in units 2 pi/alat)
               b(1) = (  0.976596  0.000000  0.000000 )
               b(2) = (  0.000000  0.966766  0.000000 )
               b(3) = (  0.000000  0.000000  0.977548 )

     PseudoPot. # 1 for W  read from file:
     /cluster/scratch/mnoe/QE/pps/W_ONCV_LDA-4.0.upf
     MD5 check sum: ba0307d5d4cd419d6f1d13dc49d7c13a
     Pseudo is Norm-conserving + core correction, Zval = 28.0
     Generated using ONCVPSP code by D. R. Hamann
     Using radial grid of 1380 points,  8 beta functions with:
                l(1) =   0
                l(2) =   0
                l(3) =   1
                l(4) =   1
                l(5) =   2
                l(6) =   2
                l(7) =   3
                l(8) =   3

     PseudoPot. # 2 for O  read from file:
     /cluster/scratch/mnoe/QE/pps/O_ONCV_LDA-3.0.upf
     MD5 check sum: a1bd6164e7280c17a38c229939bfbd54
     Pseudo is Norm-conserving + core correction, Zval =  6.0
     Generated using ONCVPSP code by D. R. Hamann
     Using radial grid of  926 points,  5 beta functions with:
                l(1) =   0
                l(2) =   0
                l(3) =   1
                l(4) =   1
                l(5) =   2

     atomic species   valence    mass     pseudopotential
        W             28.00   183.84000     W ( 1.00)
        O              6.00    15.99940     O ( 1.00)

      4 Sym. Ops. (no inversion) found ( 3 have fractional translation)

   Cartesian axes

     site n.     atom                  positions (alat units)
         1           W   tau(   1) = (   0.2428605   0.2779215  -0.0058461  )
         2           W   tau(   2) = (   0.7628829   0.7564554  -0.0134310  )
         3           W   tau(   3) = (   0.2691220   0.2392670   0.5056380  )
         4           W   tau(   4) = (   0.7730645   0.7951101   0.4980531  )
         5           W   tau(   5) = (   0.7811044   0.2779215   0.5173301  )
         6           W   tau(   6) = (   0.2610820   0.7564554   0.5249150  )
         7           W   tau(   7) = (   0.7548429   0.2392670   0.0058461  )
         8           W   tau(   8) = (   0.2509004   0.7951101   0.0134310  )
         9           O   tau(   9) = (   0.2457431   0.0048934  -0.0166030  )
        10           O   tau(  10) = (   0.7725581  -0.0048934  -0.0189605  )
        11           O   tau(  11) = (   0.2662393   0.5122951   0.4948810  )
        12           O   tau(  12) = (   0.7633892   0.5220819   0.4925235  )
        13           O   tau(  13) = (   0.7782217   0.0048934   0.5280871  )
        14           O   tau(  14) = (   0.2514067  -0.0048934   0.5304446  )
        15           O   tau(  15) = (   0.7577256   0.5122951   0.0166030  )
        16           O   tau(  16) = (   0.2605757   0.5220819   0.0189605  )
        17           O   tau(  17) = (   0.5170820   0.2468845   0.4928206  )
        18           O   tau(  18) = (   0.5148829   0.7794428   0.5301476  )
        19           O   tau(  19) = (  -0.0050995   0.2703039   1.0043047  )
        20           O   tau(  20) = (  -0.0029004   0.7721227   0.0186633  )
        21           O   tau(  21) = (   0.5068830   0.2468845   0.0186633  )
        22           O   tau(  22) = (   0.5090820   0.7794428   1.0043047  )
        23           O   tau(  23) = (   0.0050995   0.2703039   0.5301476  )
        24           O   tau(  24) = (   0.0029004   0.7721227   0.4928206  )
        25           O   tau(  25) = (   0.7492921   0.2753609   0.7681973  )
        26           O   tau(  26) = (   0.2746728   0.7959035   0.2600433  )
        27           O   tau(  27) = (   0.7866555   0.2418276   0.2567133  )
        28           O   tau(  28) = (   0.2373096   0.7556621   0.7715273  )
        29           O   tau(  29) = (   0.2746728   0.2753609   0.7662548  )
        30           O   tau(  30) = (   0.7492921   0.7959035   0.2514407  )
        31           O   tau(  31) = (   0.2373096   0.2418276   0.2547708  )
        32           O   tau(  32) = (   0.7866555   0.7556621   0.7629247  )

     number of k points=    64  gaussian smearing, width (Ry)=  0.0007
                       cart. coord. in units 2pi/alat
        k(    1) = (   0.0000000   0.0000000   0.0000000), wk =   0.0092593
        k(    2) = (   0.0000000   0.0000000   0.1629246), wk =   0.0185185
        k(    3) = (   0.0000000   0.0000000   0.3258492), wk =   0.0185185
        k(    4) = (   0.0000000   0.0000000  -0.4887738), wk =   0.0092593
        k(    5) = (   0.0000000   0.1611276   0.0000000), wk =   0.0185185
        k(    6) = (   0.0000000   0.1611276   0.1629246), wk =   0.0370370
        k(    7) = (   0.0000000   0.1611276   0.3258492), wk =   0.0370370
        k(    8) = (   0.0000000   0.1611276  -0.4887738), wk =   0.0185185
        k(    9) = (   0.0000000   0.3222552   0.0000000), wk =   0.0185185
        k(   10) = (   0.0000000   0.3222552   0.1629246), wk =   0.0370370
        k(   11) = (   0.0000000   0.3222552   0.3258492), wk =   0.0370370
        k(   12) = (   0.0000000   0.3222552  -0.4887738), wk =   0.0185185
        k(   13) = (   0.0000000  -0.4833828   0.0000000), wk =   0.0092593
        k(   14) = (   0.0000000  -0.4833828   0.1629246), wk =   0.0185185
        k(   15) = (   0.0000000  -0.4833828   0.3258492), wk =   0.0185185
        k(   16) = (   0.0000000  -0.4833828  -0.4887738), wk =   0.0092593
        k(   17) = (   0.1627660   0.0000000   0.1629246), wk =   0.0370370
        k(   18) = (   0.1627660   0.0000000   0.3258492), wk =   0.0370370
        k(   19) = (   0.1627660   0.0000000  -0.4887738), wk =   0.0185185
        k(   20) = (   0.1627660   0.1611276   0.1629246), wk =   0.0740741
        k(   21) = (   0.1627660   0.1611276   0.3258492), wk =   0.0740741
        k(   22) = (   0.1627660   0.1611276  -0.4887738), wk =   0.0370370
        k(   23) = (   0.1627660   0.3222552   0.1629246), wk =   0.0740741
        k(   24) = (   0.1627660   0.3222552   0.3258492), wk =   0.0740741
        k(   25) = (   0.1627660   0.3222552  -0.4887738), wk =   0.0370370
        k(   26) = (   0.1627660  -0.4833828   0.1629246), wk =   0.0370370
        k(   27) = (   0.1627660  -0.4833828   0.3258492), wk =   0.0370370
        k(   28) = (   0.1627660  -0.4833828  -0.4887738), wk =   0.0185185
        k(   29) = (   0.3255320   0.0000000   0.3258492), wk =   0.0370370
        k(   30) = (   0.3255320   0.0000000  -0.4887738), wk =   0.0185185
        k(   31) = (   0.3255320   0.1611276   0.3258492), wk =   0.0740741
        k(   32) = (   0.3255320   0.1611276  -0.4887738), wk =   0.0370370
        k(   33) = (   0.3255320   0.3222552   0.3258492), wk =   0.0740741
        k(   34) = (   0.3255320   0.3222552  -0.4887738), wk =   0.0370370
        k(   35) = (   0.3255320  -0.4833828   0.3258492), wk =   0.0370370
        k(   36) = (   0.3255320  -0.4833828  -0.4887738), wk =   0.0185185
        k(   37) = (  -0.4882980   0.0000000  -0.4887738), wk =   0.0092593
        k(   38) = (  -0.4882980   0.1611276  -0.4887738), wk =   0.0185185
        k(   39) = (  -0.4882980   0.3222552  -0.4887738), wk =   0.0185185
        k(   40) = (  -0.4882980  -0.4833828  -0.4887738), wk =   0.0092593
        k(   41) = (   0.1627660   0.0000000   0.0000000), wk =   0.0185185
        k(   42) = (   0.3255320   0.0000000   0.0000000), wk =   0.0185185
        k(   43) = (  -0.4882980   0.0000000   0.0000000), wk =   0.0092593
        k(   44) = (   0.1627660  -0.1611276   0.0000000), wk =   0.0370370
        k(   45) = (   0.3255320  -0.1611276   0.0000000), wk =   0.0370370
        k(   46) = (  -0.4882980  -0.1611276   0.0000000), wk =   0.0185185
        k(   47) = (   0.1627660  -0.3222552   0.0000000), wk =   0.0370370
        k(   48) = (   0.3255320  -0.3222552   0.0000000), wk =   0.0370370
        k(   49) = (  -0.4882980  -0.3222552   0.0000000), wk =   0.0185185
        k(   50) = (   0.1627660   0.4833828   0.0000000), wk =   0.0185185
        k(   51) = (   0.3255320   0.4833828   0.0000000), wk =   0.0185185
        k(   52) = (  -0.4882980   0.4833828   0.0000000), wk =   0.0092593
        k(   53) = (   0.3255320   0.0000000   0.1629246), wk =   0.0370370
        k(   54) = (  -0.4882980   0.0000000   0.1629246), wk =   0.0185185
        k(   55) = (   0.3255320  -0.1611276   0.1629246), wk =   0.0740741
        k(   56) = (  -0.4882980  -0.1611276   0.1629246), wk =   0.0370370
        k(   57) = (   0.3255320  -0.3222552   0.1629246), wk =   0.0740741
        k(   58) = (  -0.4882980  -0.3222552   0.1629246), wk =   0.0370370
        k(   59) = (   0.3255320   0.4833828   0.1629246), wk =   0.0370370
        k(   60) = (  -0.4882980   0.4833828   0.1629246), wk =   0.0185185
        k(   61) = (  -0.4882980   0.0000000   0.3258492), wk =   0.0185185
        k(   62) = (  -0.4882980  -0.1611276   0.3258492), wk =   0.0370370
        k(   63) = (  -0.4882980  -0.3222552   0.3258492), wk =   0.0370370
        k(   64) = (  -0.4882980   0.4833828   0.3258492), wk =   0.0185185

     Initial potential from superposition of free atoms

     starting charge  367.99656, renormalised to  368.00000
     Starting wfc are  232 randomized atomic wfcs

     Writing output data file Landau_17.save

     Self-consistent Calculation

[...]

     total energy              =   -6261.09366003 Ry
     Harris-Foulkes estimate   =   -6261.09366003 Ry
     estimated scf accuracy    <          4.5E-10 Ry

     iteration # 16     ecut=   120.00 Ry     beta= 0.70
     Davidson diagonalization with overlap
     ethr =  1.22E-13,  avg # of iterations =  2.3

     End of self-consistent calculation

[...]

          k = 0.3255 0.4834 0.1629 ( 63774 PWs)   bands (ev):

[...]

          k =-0.4883 0.4834 0.3258 ( 63740 PWs)   bands (ev):

   -66.6061 -66.6061 -66.6058 -66.6058 -66.6051 -66.6051 -66.6048 -66.6048
   -30.9431 -30.9430 -30.9243 -30.9243 -30.9220 -30.9220 -30.9171 -30.9171
   -30.9130 -30.9130 -30.9121 -30.9120 -30.9050 -30.9050 -30.9007 -30.9007
   -30.8962 -30.8962 -30.8854 -30.8854 -30.8817 -30.8817 -30.8656 -30.8656
   -20.7786 -20.7785 -20.7785 -20.7785 -20.7775 -20.7775 -20.7774 -20.7774
   -20.7542 -20.7542 -20.7539 -20.7539 -20.7516 -20.7516 -20.7513 -20.7513
   -20.7492 -20.7492 -20.7489 -20.7489 -20.7481 -20.7481 -20.7471 -20.7471
   -20.7466 -20.7466 -20.7457 -20.7457 -20.7441 -20.7441 -20.7440 -20.7440
   -20.7436 -20.7436 -20.7424 -20.7424 -20.7422 -20.7422 -20.7412 -20.7412
   -20.7409 -20.7409 -20.7409 -20.7408 -20.7396 -20.7396 -20.7394 -20.7394
   -20.7384 -20.7384 -20.7380 -20.7380 -20.7371 -20.7371 -20.7357 -20.7357
    -9.5474  -9.5474  -9.5114  -9.5113  -9.1692  -9.1691  -9.1389  -9.1388
    -8.9225  -8.9224  -8.9141  -8.9141  -8.7880  -8.7879  -8.7716  -8.7716
    -8.7576  -8.7575  -8.7366  -8.7366  -8.5057  -8.5057  -8.4486  -8.4485
     1.8358   1.8358   1.8808   1.8808   2.6569   2.6569   2.6982   2.6983
     2.7254   2.7254   2.7647   2.7648   2.9185   2.9185   2.9325   2.9325
     3.0001   3.0001   3.0144   3.0145   3.2962   3.2962   3.3817   3.3818
     3.4484   3.4484   3.4730   3.4731   3.7835   3.7835   3.8492   3.8492
     3.9117   3.9117   3.9315   3.9315   3.9829   3.9829   3.9943   3.9944
     4.2823   4.2823   4.3429   4.3429   4.6475   4.6475   4.6631   4.6631
     6.6862   6.6862   6.7386   6.7387   6.7543   6.7543   6.7761   6.7762
     6.9882   6.9883   7.0219   7.0219   7.0599   7.0600   7.0861   7.0861
     7.1442   7.1443   7.1977   7.1977   7.3139   7.3139   7.3466   7.3467
    11.0400  11.0400  11.1043  11.1043  11.2448  11.2448  11.3175  11.3175
    11.6390  11.6390  11.6761  11.6761  11.7126  11.7127  11.7495  11.7495
    12.0979  12.0979  12.2060  12.2060  12.2915  12.2915  12.3884  12.3884
    16.2212  16.2212  16.2887  16.2887  16.6463  16.6464  16.6800  16.6800
    17.1585  17.1586  17.2399  17.2399  17.4094

     the Fermi energy is     8.4792 ev

!    total energy              =   -6261.09366003 Ry
     Harris-Foulkes estimate   =   -6261.09366003 Ry
     estimated scf accuracy    <          9.6E-11 Ry

     The total energy is the sum of the following terms:

     one-electron contribution =   -4823.43684087 Ry
     hartree contribution      =    2643.00549679 Ry
     xc contribution           =    -965.67998674 Ry
     ewald contribution        =   -3114.98232921 Ry
     smearing contrib. (-TS)   =      -0.00000000 Ry

     convergence has been achieved in  16 iterations

     Forces acting on atoms (cartesian axes, Ry/au):

     atom    1 type  1   force =    -0.00908138    0.01787032   -0.00752665
     atom    2 type  1   force =    -0.00607316   -0.01743918   -0.00906902
     atom    3 type  1   force =     0.00908138   -0.01787032   -0.00752665
     atom    4 type  1   force =     0.00607316    0.01743918   -0.00906902
     atom    5 type  1   force =     0.00908138    0.01787032    0.00752665
     atom    6 type  1   force =     0.00607316   -0.01743918    0.00906902
     atom    7 type  1   force =    -0.00908138   -0.01787032    0.00752665
     atom    8 type  1   force =    -0.00607316    0.01743918    0.00906902
     atom    9 type  2   force =     0.00096244   -0.00943236    0.00022839
     atom   10 type  2   force =     0.00083505    0.00952399    0.00001948
     atom   11 type  2   force =    -0.00096244    0.00943236    0.00022839
     atom   12 type  2   force =    -0.00083505   -0.00952399    0.00001948
     atom   13 type  2   force =    -0.00096244   -0.00943236   -0.00022839
     atom   14 type  2   force =    -0.00083505    0.00952399   -0.00001948
     atom   15 type  2   force =     0.00096244    0.00943236   -0.00022839
     atom   16 type  2   force =     0.00083505   -0.00952399   -0.00001948
     atom   17 type  2   force =    -0.00718803    0.00270013   -0.00120727
     atom   18 type  2   force =    -0.00598677    0.00356013    0.00225083
     atom   19 type  2   force =     0.00718803   -0.00270013   -0.00120727
     atom   20 type  2   force =     0.00598677   -0.00356013    0.00225083
     atom   21 type  2   force =     0.00718803    0.00270013    0.00120727
     atom   22 type  2   force =     0.00598677    0.00356013   -0.00225083
     atom   23 type  2   force =    -0.00718803   -0.00270013    0.00120727
     atom   24 type  2   force =    -0.00598677   -0.00356013   -0.00225083
     atom   25 type  2   force =    -0.00088627    0.00203371   -0.00365329
     atom   26 type  2   force =     0.00015689    0.00010978   -0.00570454
     atom   27 type  2   force =     0.00088627   -0.00203371   -0.00365329
     atom   28 type  2   force =    -0.00015689   -0.00010978   -0.00570454
     atom   29 type  2   force =     0.00088627    0.00203371    0.00365329
     atom   30 type  2   force =    -0.00015689    0.00010978    0.00570454
     atom   31 type  2   force =    -0.00088627   -0.00203371    0.00365329
     atom   32 type  2   force =     0.00015689   -0.00010978    0.00570454

     Total force =     0.000000     Total SCF correction =     0.000000

     Computing stress (Cartesian axis) and pressure

          total   stress  (Ry/bohr**3)                   (kbar)     P=    1.61
   0.00001629   0.00000000   0.00000000          2.40      0.00      0.00
   0.00000000   0.00000098   0.00000000          0.00      0.14      0.00
   0.00000000   0.00000000   0.00001553          0.00      0.00      2.28

     Writing output data file Landau_17.save

     General routines

     Parallel routines

   This run was terminated on:  20: 6: 6  24Mar2020

   JOB DONE.