     Program PWSCF v.6.2 (svn rev. 14038) starts on 25Mar2020 at 21: 2: 5

     K-points division:     npool     =      40
     Reading input from scf.in

     Current dimensions of program PWSCF are:
     Max number of different atomic species (ntypx) = 10
     Max number of k-points (npk) =  40000
     Max angular momentum in pseudopotentials (lmaxx) =  3

     Subspace diagonalization in iterative solution of the eigenvalue problem:
     a serial algorithm will be used

     bravais-lattice index     =            0
     lattice parameter (alat)  =      14.1936  a.u.
     unit-cell volume          =    2872.9720 (a.u.)^3
     number of atoms/cell      =           32
     number of atomic types    =            2
     number of electrons       =       368.60
     number of Kohn-Sham states=          221
     kinetic-energy cutoff     =     120.0000  Ry
     charge density cutoff     =     480.0000  Ry
     convergence threshold     =      1.0E-08
     mixing beta               =       0.7000
     number of iterations used =            8  plain     mixing
     Exchange-correlation      = SLA PW NOGX NOGC ( 1  4  0  0 0 0)

     celldm(1)=  14.193564  celldm(2)=   0.000000  celldm(3)=   0.000000
     celldm(4)=   0.000000  celldm(5)=   0.000000  celldm(6)=   0.000000

     crystal axes: (cart. coord. in units of alat)
               a(1) = (   1.000000   0.000000   0.000000 )
               a(2) = (   0.000000   1.005869   0.000000 )
               a(3) = (   0.000000   0.000000   0.998885 )

     reciprocal axes: (cart. coord. in units 2 pi/alat)
               b(1) = (  1.000000  0.000000  0.000000 )
               b(2) = (  0.000000  0.994165  0.000000 )
               b(3) = (  0.000000  0.000000  1.001116 )

     PseudoPot. # 1 for W  read from file:
     /cluster/scratch/mnoe/QE/pps/W_ONCV_LDA-4.0.upf
     MD5 check sum: ba0307d5d4cd419d6f1d13dc49d7c13a
     Pseudo is Norm-conserving + core correction, Zval = 28.0
     Generated using ONCVPSP code by D. R. Hamann
     Using radial grid of 1380 points,  8 beta functions with:
                l(1) =   0
                l(2) =   0
                l(3) =   1
                l(4) =   1
                l(5) =   2
                l(6) =   2
                l(7) =   3
                l(8) =   3

     PseudoPot. # 2 for O  read from file:
     /cluster/scratch/mnoe/QE/pps/O_ONCV_LDA-3.0.upf
     MD5 check sum: a1bd6164e7280c17a38c229939bfbd54
     Pseudo is Norm-conserving + core correction, Zval =  6.0
     Generated using ONCVPSP code by D. R. Hamann
     Using radial grid of  926 points,  5 beta functions with:
                l(1) =   0
                l(2) =   0
                l(3) =   1
                l(4) =   1
                l(5) =   2

     atomic species   valence    mass     pseudopotential
        W             28.00   183.84000     W ( 1.00)
        O              6.00    15.99940     O ( 1.00)

      4 Sym. Ops. (no inversion) found ( 3 have fractional translation)

   Cartesian axes

     site n.     atom                  positions (alat units)
         1           W   tau(   1) = (   0.2356679   0.2687028  -0.0063800  )
         2           W   tau(   2) = (   0.7444434   0.7371662  -0.0146577  )
         3           W   tau(   3) = (   0.2643321   0.2342318   0.4930626  )
         4           W   tau(   4) = (   0.7555565   0.7716374   0.4847849  )
         5           W   tau(   5) = (   0.7643320   0.2687028   0.5058226  )
         6           W   tau(   6) = (   0.2555566   0.7371662   0.5141003  )
         7           W   tau(   7) = (   0.7356679   0.2342318   0.0063800  )
         8           W   tau(   8) = (   0.2444434   0.7716374   0.0146577  )
         9           O   tau(   9) = (   0.2388143   0.0043337  -0.0181194  )
        10           O   tau(  10) = (   0.7550038  -0.0043338  -0.0206923  )
        11           O   tau(  11) = (   0.2611857   0.4986008   0.4813231  )
        12           O   tau(  12) = (   0.7449960   0.5072683   0.4787503  )
        13           O   tau(  13) = (   0.7611856   0.0043337   0.5175621  )
        14           O   tau(  14) = (   0.2449960  -0.0043338   0.5201349  )
        15           O   tau(  15) = (   0.7388142   0.4986008   0.0181194  )
        16           O   tau(  16) = (   0.2550039   0.5072683   0.0206923  )
        17           O   tau(  17) = (   0.5055660   0.2387406   0.4850044  )
        18           O   tau(  18) = (   0.5031658   0.7583797   0.5138809  )
        19           O   tau(  19) = (  -0.0055660   0.2641939   0.9844470  )
        20           O   tau(  20) = (  -0.0031658   0.7504240   0.0144381  )
        21           O   tau(  21) = (   0.4944340   0.2387406   0.0144381  )
        22           O   tau(  22) = (   0.4968342   0.7583797   0.9844470  )
        23           O   tau(  23) = (   0.0055660   0.2641939   0.5138809  )
        24           O   tau(  24) = (   0.0031658   0.7504240   0.4850044  )
        25           O   tau(  25) = (   0.7355456   0.2696900   0.7502238  )
        26           O   tau(  26) = (   0.2644543   0.7762699   0.2544155  )
        27           O   tau(  27) = (   0.7644545   0.2332445   0.2507813  )
        28           O   tau(  28) = (   0.2355457   0.7325338   0.7538580  )
        29           O   tau(  29) = (   0.2644543   0.2696900   0.7481039  )
        30           O   tau(  30) = (   0.7355456   0.7762699   0.2450271  )
        31           O   tau(  31) = (   0.2355457   0.2332445   0.2486613  )
        32           O   tau(  32) = (   0.7644545   0.7325338   0.7444697  )

     number of k points=    64  gaussian smearing, width (Ry)=  0.0007
                       cart. coord. in units 2pi/alat
        k(    1) = (   0.0000000   0.0000000   0.0000000), wk =   0.0092593
        k(    2) = (   0.0000000   0.0000000   0.1668527), wk =   0.0185185
        k(    3) = (   0.0000000   0.0000000   0.3337054), wk =   0.0185185
        k(    4) = (   0.0000000   0.0000000  -0.5005580), wk =   0.0092593
        k(    5) = (   0.0000000   0.1656942   0.0000000), wk =   0.0185185
        k(    6) = (   0.0000000   0.1656942   0.1668527), wk =   0.0370370
        k(    7) = (   0.0000000   0.1656942   0.3337054), wk =   0.0370370
        k(    8) = (   0.0000000   0.1656942  -0.5005580), wk =   0.0185185
        k(    9) = (   0.0000000   0.3313884   0.0000000), wk =   0.0185185
        k(   10) = (   0.0000000   0.3313884   0.1668527), wk =   0.0370370
        k(   11) = (   0.0000000   0.3313884   0.3337054), wk =   0.0370370
        k(   12) = (   0.0000000   0.3313884  -0.5005580), wk =   0.0185185
        k(   13) = (   0.0000000  -0.4970826   0.0000000), wk =   0.0092593
        k(   14) = (   0.0000000  -0.4970826   0.1668527), wk =   0.0185185
        k(   15) = (   0.0000000  -0.4970826   0.3337054), wk =   0.0185185
        k(   16) = (   0.0000000  -0.4970826  -0.5005580), wk =   0.0092593
        k(   17) = (   0.1666667   0.0000000   0.0000000), wk =   0.0185185
        k(   18) = (   0.1666667   0.0000000   0.1668527), wk =   0.0370370
        k(   19) = (   0.1666667   0.0000000   0.3337054), wk =   0.0370370
        k(   20) = (   0.1666667   0.0000000  -0.5005580), wk =   0.0185185
        k(   21) = (   0.1666667   0.1656942   0.0000000), wk =   0.0370370
        k(   22) = (   0.1666667   0.1656942   0.1668527), wk =   0.0740741
        k(   23) = (   0.1666667   0.1656942   0.3337054), wk =   0.0740741
        k(   24) = (   0.1666667   0.1656942  -0.5005580), wk =   0.0370370
        k(   25) = (   0.1666667   0.3313884   0.0000000), wk =   0.0370370
        k(   26) = (   0.1666667   0.3313884   0.1668527), wk =   0.0740741
        k(   27) = (   0.1666667   0.3313884   0.3337054), wk =   0.0740741
        k(   28) = (   0.1666667   0.3313884  -0.5005580), wk =   0.0370370
        k(   29) = (   0.1666667  -0.4970826   0.0000000), wk =   0.0185185
        k(   30) = (   0.1666667  -0.4970826   0.1668527), wk =   0.0370370
        k(   31) = (   0.1666667  -0.4970826   0.3337054), wk =   0.0370370
        k(   32) = (   0.1666667  -0.4970826  -0.5005580), wk =   0.0185185
        k(   33) = (   0.3333333   0.0000000   0.0000000), wk =   0.0185185
        k(   34) = (   0.3333333   0.0000000   0.1668527), wk =   0.0370370
        k(   35) = (   0.3333333   0.0000000   0.3337054), wk =   0.0370370
        k(   36) = (   0.3333333   0.0000000  -0.5005580), wk =   0.0185185
        k(   37) = (   0.3333333   0.1656942   0.0000000), wk =   0.0370370
        k(   38) = (   0.3333333   0.1656942   0.1668527), wk =   0.0740741
        k(   39) = (   0.3333333   0.1656942   0.3337054), wk =   0.0740741
        k(   40) = (   0.3333333   0.1656942  -0.5005580), wk =   0.0370370
        k(   41) = (   0.3333333   0.3313884   0.0000000), wk =   0.0370370
        k(   42) = (   0.3333333   0.3313884   0.1668527), wk =   0.0740741
        k(   43) = (   0.3333333   0.3313884   0.3337054), wk =   0.0740741
        k(   44) = (   0.3333333   0.3313884  -0.5005580), wk =   0.0370370
        k(   45) = (   0.3333333  -0.4970826   0.0000000), wk =   0.0185185
        k(   46) = (   0.3333333  -0.4970826   0.1668527), wk =   0.0370370
        k(   47) = (   0.3333333  -0.4970826   0.3337054), wk =   0.0370370
        k(   48) = (   0.3333333  -0.4970826  -0.5005580), wk =   0.0185185
        k(   49) = (  -0.5000000   0.0000000   0.0000000), wk =   0.0092593
        k(   50) = (  -0.5000000   0.0000000   0.1668527), wk =   0.0185185
        k(   51) = (  -0.5000000   0.0000000   0.3337054), wk =   0.0185185
        k(   52) = (  -0.5000000   0.0000000  -0.5005580), wk =   0.0092593
        k(   53) = (  -0.5000000   0.1656942   0.0000000), wk =   0.0185185
        k(   54) = (  -0.5000000   0.1656942   0.1668527), wk =   0.0370370
        k(   55) = (  -0.5000000   0.1656942   0.3337054), wk =   0.0370370
        k(   56) = (  -0.5000000   0.1656942  -0.5005580), wk =   0.0185185
        k(   57) = (  -0.5000000   0.3313884   0.0000000), wk =   0.0185185
        k(   58) = (  -0.5000000   0.3313884   0.1668527), wk =   0.0370370
        k(   59) = (  -0.5000000   0.3313884   0.3337054), wk =   0.0370370
        k(   60) = (  -0.5000000   0.3313884  -0.5005580), wk =   0.0185185
        k(   61) = (  -0.5000000  -0.4970826   0.0000000), wk =   0.0092593
        k(   62) = (  -0.5000000  -0.4970826   0.1668527), wk =   0.0185185
        k(   63) = (  -0.5000000  -0.4970826   0.3337054), wk =   0.0185185
        k(   64) = (  -0.5000000  -0.4970826  -0.5005580), wk =   0.0092593

     Initial potential from superposition of free atoms

     starting charge  367.99656, renormalised to  368.60000
     Starting wfc are  232 randomized atomic wfcs

     Self-consistent Calculation

     iteration #  1     ecut=   120.00 Ry     beta= 0.70
     Davidson diagonalization with overlap
     ethr =  1.00E-02,  avg # of iterations =  5.2

     total energy              =   -6253.38039328 Ry
     Harris-Foulkes estimate   =   -6264.33800146 Ry
     estimated scf accuracy    <      13.79990158 Ry

[...]

     total energy              =   -6260.69032467 Ry
     Harris-Foulkes estimate   =   -6260.69032468 Ry
     estimated scf accuracy    <       0.00000006 Ry

     iteration # 15     ecut=   120.00 Ry     beta= 0.70
     Davidson diagonalization with overlap
     ethr =  1.61E-11,  avg # of iterations =  2.3

     End of self-consistent calculation

          k = 0.0000 0.0000 0.0000 ( 63757 PWs)   bands (ev):

   -66.4738 -66.4731 -66.4731 -66.4730 -66.4724 -66.4723 -66.4723 -66.4716
   -30.8550 -30.8491 -30.8465 -30.8405 -30.8392 -30.8316 -30.8312 -30.8298
   -30.8038 -30.7993 -30.7989 -30.7958 -30.7671 -30.7665 -30.7645 -30.7622
   -30.7491 -30.7481 -30.7462 -30.7426 -30.7183 -30.7159 -30.7142 -30.7113
   -20.6328 -20.6327 -20.6327 -20.6326 -20.6323 -20.6322 -20.6320 -20.6319
   -20.6175 -20.6172 -20.6161 -20.6156 -20.6155 -20.6146 -20.6145 -20.6133
   -20.6130 -20.6126 -20.6125 -20.6117 -20.6111 -20.6111 -20.6105 -20.6101
   -20.6099 -20.6096 -20.6093 -20.6091 -20.6082 -20.6080 -20.6079 -20.6079
   -20.6074 -20.6071 -20.6071 -20.6061 -20.6055 -20.6052 -20.6049 -20.6042
   -20.5966 -20.5956 -20.5948 -20.5939 -20.5936 -20.5932 -20.5922 -20.5921
   -20.5904 -20.5904 -20.5903 -20.5897 -20.5897 -20.5881 -20.5879 -20.5865
   -10.2614  -9.9340  -9.9222  -9.9168  -9.6007  -9.5929  -9.5724  -9.3563
    -9.3489  -9.3099  -9.3092  -9.3069  -8.1194  -8.0730  -8.0559  -8.0549
    -8.0455  -8.0118  -8.0060  -7.9957  -7.9843  -7.9836  -7.9482  -7.9355
     0.7802   0.7992   0.8136   0.8252   0.8404   0.9060   0.9359   0.9763
     1.1091   1.1195   1.1454   1.3586   2.2096   2.2191   2.2471   2.3257
     2.3358   2.3588   4.0996   4.1361   4.1903   4.2585   4.2862   4.2870
     4.3007   4.3327   4.3476   4.3904   4.4148   4.4348   4.8862   4.9678
     4.9752   5.2657   5.2872   5.2959   5.3163   5.3265   5.3406   5.3509
     5.3576   5.4084   5.6971   5.7342   5.7608   5.7830   5.7973   5.8581
     5.8725   5.9810   5.9941   6.1593   6.2163   6.3754   6.6649   6.6895
     6.7015   6.7449   6.7514   6.7694   6.7764   6.7910   6.7923   6.7987
     6.8716   6.8776   7.8099   7.8135   7.9000   7.9028   7.9086   7.9209
     8.9135   8.9638   9.0633   9.0712   9.1272   9.1659  12.1489  12.2355
    12.2640  12.2819  12.2898  12.2918  12.3308  12.3965  12.4174  12.4439
    12.5150  12.5432  13.2739  13.3895  13.4858  13.5720  13.6623  13.7580
    14.1956  14.2048  14.3412  14.3917  14.4145  14.4535  15.4982  15.5070
    15.5635  16.6660  16.7362  16.7895  16.8320

[...]

          k = 0.3333-0.4971-0.5006 ( 63736 PWs)   bands (ev):

[...]

          k =-0.5000 0.0000 0.0000 ( 63842 PWs)   bands (ev):

[...]

          k =-0.5000-0.4971-0.5006 ( 63704 PWs)   bands (ev):

   -66.4730 -66.4730 -66.4730 -66.4729 -66.4725 -66.4724 -66.4724 -66.4724
   -30.8128 -30.8128 -30.8125 -30.8125 -30.8096 -30.8096 -30.8095 -30.8095
   -30.7878 -30.7878 -30.7877 -30.7877 -30.7868 -30.7868 -30.7861 -30.7861
   -30.7575 -30.7575 -30.7568 -30.7568 -30.7548 -30.7548 -30.7544 -30.7544
   -20.6327 -20.6327 -20.6327 -20.6326 -20.6321 -20.6321 -20.6321 -20.6321
   -20.6154 -20.6154 -20.6154 -20.6154 -20.6144 -20.6144 -20.6144 -20.6144
   -20.6110 -20.6110 -20.6110 -20.6110 -20.6106 -20.6106 -20.6104 -20.6104
   -20.6093 -20.6093 -20.6091 -20.6090 -20.6089 -20.6089 -20.6087 -20.6087
   -20.6080 -20.6080 -20.6078 -20.6078 -20.6061 -20.6061 -20.6059 -20.6059
   -20.5937 -20.5937 -20.5937 -20.5937 -20.5932 -20.5931 -20.5929 -20.5929
   -20.5911 -20.5911 -20.5908 -20.5908 -20.5895 -20.5895 -20.5895 -20.5895
    -9.2677  -9.2676  -9.2600  -9.2600  -9.2542  -9.2541  -9.2531  -9.2531
    -8.7800  -8.7800  -8.7560  -8.7559  -8.7485  -8.7485  -8.7402  -8.7401
    -8.7253  -8.7252  -8.7109  -8.7108  -8.7108  -8.7108  -8.7025  -8.7025
     2.6696   2.6697   2.6772   2.6772   2.7247   2.7247   2.7330   2.7331
     2.8264   2.8264   2.8326   2.8326   2.8635   2.8636   2.8717   2.8717
     3.0216   3.0217   3.0818   3.0819   3.1627   3.1627   3.1770   3.1771
     3.7959   3.7959   3.8152   3.8152   3.8336   3.8336   3.8367   3.8368
     3.8677   3.8678   3.8857   3.8857   3.9183   3.9183   3.9411   3.9411
     4.0146   4.0146   4.0313   4.0314   4.0764   4.0764   4.0877   4.0877
     6.8745   6.8745   6.8984   6.8984   6.9467   6.9467   6.9670   6.9670
     6.9967   6.9967   6.9984   6.9985   7.0452   7.0452   7.0651   7.0652
     7.2549   7.2549   7.2577   7.2577   7.2810   7.2811   7.3009   7.3009
    11.4983  11.4983  11.5117  11.5117  11.5517  11.5517  11.5692  11.5692
    11.7262  11.7262  11.7768  11.7768  11.8342  11.8342  11.8386  11.8386
    11.8841  11.8842  11.8957  11.8957  11.9472  11.9472  11.9608  11.9608
    16.7871  16.7871  16.7964  16.7965  16.8245  16.8247  16.8729  16.8729
    17.4558  17.4818  17.4824  17.5093  17.5095

     the Fermi energy is     9.2950 ev

!    total energy              =   -6260.69032467 Ry
     Harris-Foulkes estimate   =   -6260.69032468 Ry
     estimated scf accuracy    <          5.5E-09 Ry

     The total energy is the sum of the following terms:

     one-electron contribution =   -4826.56040424 Ry
     hartree contribution      =    2646.30156555 Ry
     xc contribution           =    -966.33671376 Ry
     ewald contribution        =   -3114.09474509 Ry
     smearing contrib. (-TS)   =      -0.00002713 Ry

     convergence has been achieved in  15 iterations

     Writing output data file Landau_19.save

     General routines

     Parallel routines

   This run was terminated on:  21:31: 5  25Mar2020

   JOB DONE.