     Program PWSCF v.6.2 (svn rev. 14038) starts on 28Feb2020 at 17:18: 9

     K-points division:     npool     =      40
     Reading input from rscf.in

     Current dimensions of program PWSCF are:
     Max number of different atomic species (ntypx) = 10
     Max number of k-points (npk) =  40000
     Max angular momentum in pseudopotentials (lmaxx) =  3

     Subspace diagonalization in iterative solution of the eigenvalue problem:
     a serial algorithm will be used

     bravais-lattice index     =            0
     lattice parameter (alat)  =      13.8397  a.u.
     unit-cell volume          =    2804.9816 (a.u.)^3
     number of atoms/cell      =           32
     number of atomic types    =            2
     number of electrons       =       368.00
     number of Kohn-Sham states=          221
     kinetic-energy cutoff     =     120.0000  Ry
     charge density cutoff     =     480.0000  Ry
     convergence threshold     =      1.0E-08
     mixing beta               =       0.7000
     number of iterations used =            8  plain     mixing
     Exchange-correlation      = SLA PW NOGX NOGC ( 1  4  0  0 0 0)
     nstep                     =           50

     celldm(1)=  13.839685  celldm(2)=   0.000000  celldm(3)=   0.000000
     celldm(4)=   0.000000  celldm(5)=   0.000000  celldm(6)=   0.000000

     crystal axes: (cart. coord. in units of alat)
               a(1) = (   1.000000   0.000000   0.000000 )
               a(2) = (   0.000000   1.058160   0.000000 )
               a(3) = (   0.000000   0.000000   1.000000 )

     reciprocal axes: (cart. coord. in units 2 pi/alat)
               b(1) = (  1.000000  0.000000  0.000000 )
               b(2) = (  0.000000  0.945037  0.000000 )
               b(3) = (  0.000000  0.000000  1.000000 )

     PseudoPot. # 1 for W  read from file:
     /cluster/scratch/mnoe/QE/pps/W_ONCV_LDA-4.0.upf
     MD5 check sum: ba0307d5d4cd419d6f1d13dc49d7c13a
     Pseudo is Norm-conserving + core correction, Zval = 28.0
     Generated using ONCVPSP code by D. R. Hamann
     Using radial grid of 1380 points,  8 beta functions with:
                l(1) =   0
                l(2) =   0
                l(3) =   1
                l(4) =   1
                l(5) =   2
                l(6) =   2
                l(7) =   3
                l(8) =   3

     PseudoPot. # 2 for O  read from file:
     /cluster/scratch/mnoe/QE/pps/O_ONCV_LDA-3.0.upf
     MD5 check sum: a1bd6164e7280c17a38c229939bfbd54
     Pseudo is Norm-conserving + core correction, Zval =  6.0
     Generated using ONCVPSP code by D. R. Hamann
     Using radial grid of  926 points,  5 beta functions with:
                l(1) =   0
                l(2) =   0
                l(3) =   1
                l(4) =   1
                l(5) =   2

     atomic species   valence    mass     pseudopotential
        W             28.00   183.84000     W ( 1.00)
        O              6.00    15.99940     O ( 1.00)

      8 Sym. Ops. (no inversion) found ( 4 have fractional translation)

   Cartesian axes

     site n.     atom                  positions (alat units)
         1           W   tau(   1) = (   0.2517900   0.2989717   0.2500500  )
         2           W   tau(   2) = (  -0.2500500   0.7591884  -0.7482101  )
         3           W   tau(   3) = (   0.2482100   0.2301084   0.7500500  )
         4           W   tau(   4) = (   0.7500500   0.8280517   0.7517900  )
         5           W   tau(   5) = (   0.7482100   0.2989717   0.7499500  )
         6           W   tau(   6) = (   0.2500500   0.7591884   0.7482100  )
         7           W   tau(   7) = (  -0.2482101   0.2301084  -0.7500500  )
         8           W   tau(   8) = (   0.2499500   0.8280517   0.2482100  )
         9           O   tau(   9) = (   0.2519800   0.0101638   0.2514400  )
        10           O   tau(  10) = (  -0.2514399   1.0479963  -0.7480200  )
        11           O   tau(  11) = (   0.2480200   0.5189162   0.7514400  )
        12           O   tau(  12) = (   0.7514400   0.5392439   0.7519800  )
        13           O   tau(  13) = (   0.7480200   0.0101638   0.7485600  )
        14           O   tau(  14) = (   0.2514400   1.0479963   0.7480200  )
        15           O   tau(  15) = (  -0.2480200   0.5189162  -0.7514400  )
        16           O   tau(  16) = (   0.2485600   0.5392439   0.2480200  )
        17           O   tau(  17) = (   0.4993700   0.2667939   0.7030506  )
        18           O   tau(  18) = (   0.4998700   0.7921703   0.7969494  )
        19           O   tau(  19) = (  -0.9993700   0.2622862   1.2030506  )
        20           O   tau(  20) = (   0.0001301   0.7950697   0.2969494  )
        21           O   tau(  21) = (   0.5006300   0.2667939   0.2969494  )
        22           O   tau(  22) = (   0.5001300   0.7921703   1.2030506  )
        23           O   tau(  23) = (  -0.0006300   0.2622862   0.7969494  )
        24           O   tau(  24) = (  -1.0001300   0.7950697   0.7030506  )
        25           O   tau(  25) = (   0.7030506   0.2630903   2.0001300  )
        26           O   tau(  26) = (   0.2969494   0.7913662   0.4993700  )
        27           O   tau(  27) = (   0.7969494   0.2659897   0.5001300  )
        28           O   tau(  28) = (   0.2030506   0.7958739   1.9993700  )
        29           O   tau(  29) = (   0.2969494   0.2630903   0.9998700  )
        30           O   tau(  30) = (   0.7030506   0.7913662   0.5006300  )
        31           O   tau(  31) = (   0.2030506   0.2659897   0.4998700  )
        32           O   tau(  32) = (   0.7969494   0.7958739   1.0006300  )

     number of k points=    40  gaussian smearing, width (Ry)=  0.0007
                       cart. coord. in units 2pi/alat
        k(    1) = (   0.0000000   0.0000000   0.0000000), wk =   0.0092593
        k(    2) = (   0.0000000   0.0000000   0.1666667), wk =   0.0370370
        k(    3) = (   0.0000000   0.0000000   0.3333333), wk =   0.0370370
        k(    4) = (   0.0000000   0.0000000  -0.5000000), wk =   0.0185185
        k(    5) = (   0.0000000   0.1575061   0.0000000), wk =   0.0185185
        k(    6) = (   0.0000000   0.1575061   0.1666667), wk =   0.0740741
        k(    7) = (   0.0000000   0.1575061   0.3333333), wk =   0.0740741
        k(    8) = (   0.0000000   0.1575061  -0.5000000), wk =   0.0370370
        k(    9) = (   0.0000000   0.3150122   0.0000000), wk =   0.0185185
        k(   10) = (   0.0000000   0.3150122   0.1666667), wk =   0.0740741
        k(   11) = (   0.0000000   0.3150122   0.3333333), wk =   0.0740741
        k(   12) = (   0.0000000   0.3150122  -0.5000000), wk =   0.0370370
        k(   13) = (   0.0000000  -0.4725183   0.0000000), wk =   0.0092593
        k(   14) = (   0.0000000  -0.4725183   0.1666667), wk =   0.0370370
        k(   15) = (   0.0000000  -0.4725183   0.3333333), wk =   0.0370370
        k(   16) = (   0.0000000  -0.4725183  -0.5000000), wk =   0.0185185
        k(   17) = (   0.1666667   0.0000000   0.1666667), wk =   0.0370370
        k(   18) = (   0.1666667   0.0000000   0.3333333), wk =   0.0740741
        k(   19) = (   0.1666667   0.0000000  -0.5000000), wk =   0.0370370
        k(   20) = (   0.1666667   0.1575061   0.1666667), wk =   0.0740741
        k(   21) = (   0.1666667   0.1575061   0.3333333), wk =   0.1481481
        k(   22) = (   0.1666667   0.1575061  -0.5000000), wk =   0.0740741
        k(   23) = (   0.1666667   0.3150122   0.1666667), wk =   0.0740741
        k(   24) = (   0.1666667   0.3150122   0.3333333), wk =   0.1481481
        k(   25) = (   0.1666667   0.3150122  -0.5000000), wk =   0.0740741
        k(   26) = (   0.1666667  -0.4725183   0.1666667), wk =   0.0370370
        k(   27) = (   0.1666667  -0.4725183   0.3333333), wk =   0.0740741
        k(   28) = (   0.1666667  -0.4725183  -0.5000000), wk =   0.0370370
        k(   29) = (   0.3333333   0.0000000   0.3333333), wk =   0.0370370
        k(   30) = (   0.3333333   0.0000000  -0.5000000), wk =   0.0370370
        k(   31) = (   0.3333333   0.1575061   0.3333333), wk =   0.0740741
        k(   32) = (   0.3333333   0.1575061  -0.5000000), wk =   0.0740741
        k(   33) = (   0.3333333   0.3150122   0.3333333), wk =   0.0740741
        k(   34) = (   0.3333333   0.3150122  -0.5000000), wk =   0.0740741
        k(   35) = (   0.3333333  -0.4725183   0.3333333), wk =   0.0370370
        k(   36) = (   0.3333333  -0.4725183  -0.5000000), wk =   0.0370370
        k(   37) = (  -0.5000000   0.0000000  -0.5000000), wk =   0.0092593
        k(   38) = (  -0.5000000   0.1575061  -0.5000000), wk =   0.0185185
        k(   39) = (  -0.5000000   0.3150122  -0.5000000), wk =   0.0185185
        k(   40) = (  -0.5000000  -0.4725183  -0.5000000), wk =   0.0092593

     Initial potential from superposition of free atoms

     starting charge  367.99656, renormalised to  368.00000
     Starting wfc are  232 randomized atomic wfcs

     Self-consistent Calculation

     iteration #  1     ecut=   120.00 Ry     beta= 0.70
     Davidson diagonalization with overlap
     ethr =  1.00E-02,  avg # of iterations =  5.0

     total energy              =   -6253.99646852 Ry
     Harris-Foulkes estimate   =   -6264.58785968 Ry
     estimated scf accuracy    <      13.41525332 Ry

[...]

     End of self-consistent calculation

          k = 0.0000 0.0000 0.0000 ( 62239 PWs)   bands (ev):

   -66.1692 -66.1688 -66.1682 -66.1682 -66.1678 -66.1678 -66.1672 -66.1668
   -30.5533 -30.5499 -30.5499 -30.5467 -30.5246 -30.5246 -30.5215 -30.5210
   -30.5192 -30.5192 -30.5160 -30.5160 -30.4936 -30.4912 -30.4912 -30.4888
   -30.4234 -30.4234 -30.4207 -30.4206 -30.4191 -30.4188 -30.4164 -30.4161
   -20.3272 -20.3272 -20.3272 -20.3271 -20.3271 -20.3271 -20.3271 -20.3270
   -20.3084 -20.3082 -20.3082 -20.3080 -20.3052 -20.3051 -20.3049 -20.3048
   -20.3044 -20.3044 -20.3039 -20.3039 -20.3033 -20.3033 -20.3030 -20.3029
   -20.3029 -20.3028 -20.3028 -20.3025 -20.3025 -20.3025 -20.3022 -20.3020
   -20.2959 -20.2958 -20.2956 -20.2956 -20.2952 -20.2949 -20.2949 -20.2949
   -20.2937 -20.2937 -20.2935 -20.2935 -20.2934 -20.2934 -20.2932 -20.2932
   -20.2882 -20.2882 -20.2877 -20.2877 -20.2875 -20.2875 -20.2871 -20.2870
    -9.9705  -9.7020  -9.5301  -9.5301  -9.2823  -9.2823  -9.0807  -9.0678
    -9.0517  -8.8602  -8.8462  -8.8462  -7.8319  -7.7859  -7.7857  -7.7712
    -7.7712  -7.7611  -7.7603  -7.7186  -7.6463  -7.6463  -7.6254  -7.6253
     1.1257   1.1261   1.2281   1.2281   1.2412   1.2412   1.3545   1.5823
     1.6334   1.6334   1.6483   1.8174   2.3616   2.4373   2.5669   2.5677
     2.7049   2.7049   4.1169   4.1169   4.3204   4.3204   4.7825   4.7825
     4.8122   4.8122   4.8661   4.8689   5.0347   5.0347   5.0542   5.4658
     5.4658   5.5355   5.5355   5.5429   5.5429   5.5775   5.5775   5.8283
     5.8283   5.8970   5.8971   5.9334   5.9844   6.0484   6.0494   6.0930
     6.0933   6.2605   6.2607   6.5489   6.5489   6.8006   6.8006   6.8269
     6.8270   6.8668   7.0188   7.0362   7.0875   7.0875   7.3516   7.3516
     7.3918   7.3918   7.8540   7.8666   8.0948   8.0948   8.1609   8.1621
     9.1961   9.2024   9.9761   9.9765   9.9951   9.9951  12.2803  12.2803
[...]
W        0.248210008   0.217460812   0.750050006    0   0   0
W        0.750049966   0.782539171   0.751789992    0   0   0
W        0.748210034   0.282539202   0.749949994    0   0   0
W        0.250050006   0.717460798   0.748210008    0   0   0
W       -0.248210074   0.217460812  -0.750050006    0   0   0
W        0.249949994   0.782539171   0.248210034    0   0   0
O        0.251980020   0.009605200   0.251439969    0   0   0
O       -0.251439950   0.990394825  -0.748020012    0   0   0
O        0.248019980   0.490394792   0.751439982    0   0   0
O        0.751439969   0.509605179   0.751980020    0   0   0
O        0.748020031   0.009605200   0.748560018    0   0   0
O        0.251439982   0.990394825   0.748019980    0   0   0
O       -0.248020012   0.490394792  -0.751439950    0   0   0
O        0.248560018   0.509605179   0.248020031    0   0   0
O        0.499370010   0.252130005   0.703050606    0   0   0
O        0.499870004   0.748629968   0.796949364    0   0   0
O       -0.999369993   0.247870026   1.203050637    0   0   0
O        0.000130060   0.751369942   0.296949412    0   0   0
O        0.500629990   0.252130005   0.296949412    0   0   0
O        0.500129996   0.748629968   1.203050637    0   0   0
O       -0.000629959   0.247870026   0.796949364    0   0   0
O       -1.000130012   0.751369942   0.703050606    0   0   0
O        0.703050641   0.248629997   2.000130028    0   0   0
O        0.296949396   0.747869981   0.499370026    0   0   0
O        0.796949363   0.251370034   0.500130045    0   0   0
O        0.203050622   0.752129929   1.999370042    0   0   0
O        0.296949396   0.248629997   0.999869989    0   0   0
O        0.703050641   0.747869981   0.500630039    0   0   0
O        0.203050622   0.251370034   0.499870020    0   0   0
O        0.796949363   0.752129929   1.000629975    0   0   0
End final coordinates

     A final scf calculation at the relaxed structure.
     The G-vectors are recalculated for the final unit cell
     Results may differ from those at the preceding step.

     bravais-lattice index     =            0
     lattice parameter (alat)  =      13.8397  a.u.
     unit-cell volume          =    2812.9090 (a.u.)^3
     number of atoms/cell      =           32
     number of atomic types    =            2
     number of electrons       =       368.00
     number of Kohn-Sham states=          221
     kinetic-energy cutoff     =     120.0000  Ry
     charge density cutoff     =     480.0000  Ry
     convergence threshold     =      1.0E-10
     mixing beta               =       0.7000
     number of iterations used =            8  plain     mixing
     Exchange-correlation      = SLA PW NOGX NOGC ( 1  4  0  0 0 0)

     celldm(1)=  13.839685  celldm(2)=   0.000000  celldm(3)=   0.000000
     celldm(4)=   0.000000  celldm(5)=   0.000000  celldm(6)=   0.000000

     crystal axes: (cart. coord. in units of alat)
               a(1) = (   1.002093   0.000000   0.000000 )
               a(2) = (   0.000000   1.056722   0.000000 )
               a(3) = (   0.000000   0.000000   1.002093 )

     reciprocal axes: (cart. coord. in units 2 pi/alat)
               b(1) = (  0.997911  0.000000  0.000000 )
               b(2) = (  0.000000  0.946322  0.000000 )
               b(3) = (  0.000000  0.000000  0.997911 )

     PseudoPot. # 1 for W  read from file:
     /cluster/scratch/mnoe/QE/pps/W_ONCV_LDA-4.0.upf
     MD5 check sum: ba0307d5d4cd419d6f1d13dc49d7c13a
     Pseudo is Norm-conserving + core correction, Zval = 28.0
     Generated using ONCVPSP code by D. R. Hamann
     Using radial grid of 1380 points,  8 beta functions with:
                l(1) =   0
                l(2) =   0
                l(3) =   1
                l(4) =   1
                l(5) =   2
                l(6) =   2
                l(7) =   3
                l(8) =   3

     PseudoPot. # 2 for O  read from file:
     /cluster/scratch/mnoe/QE/pps/O_ONCV_LDA-3.0.upf
     MD5 check sum: a1bd6164e7280c17a38c229939bfbd54
     Pseudo is Norm-conserving + core correction, Zval =  6.0
     Generated using ONCVPSP code by D. R. Hamann
     Using radial grid of  926 points,  5 beta functions with:
                l(1) =   0
                l(2) =   0
                l(3) =   1
                l(4) =   1
                l(5) =   2

     atomic species   valence    mass     pseudopotential
        W             28.00   183.84000     W ( 1.00)
        O              6.00    15.99940     O ( 1.00)

      8 Sym. Ops. (no inversion) found ( 4 have fractional translation)

   Cartesian axes

     site n.     atom                  positions (alat units)
         1           W   tau(   1) = (   0.2523170   0.2985655   0.2505734  )
         2           W   tau(   2) = (  -0.2505734   0.7581568  -0.7497762  )
         3           W   tau(   3) = (   0.2487295   0.2297957   0.7516200  )
         4           W   tau(   4) = (   0.7516199   0.8269265   0.7533636  )
         5           W   tau(   5) = (   0.7497761   0.2985655   0.7515198  )
         6           W   tau(   6) = (   0.2505734   0.7581568   0.7497761  )
         7           W   tau(   7) = (  -0.2487296   0.2297957  -0.7516200  )
         8           W   tau(   8) = (   0.2504732   0.8269265   0.2487296  )
         9           O   tau(   9) = (   0.2525075   0.0101500   0.2519663  )
        10           O   tau(  10) = (  -0.2519663   1.0465722  -0.7495857  )
        11           O   tau(  11) = (   0.2485391   0.5182111   0.7530129  )
        12           O   tau(  12) = (   0.7530128   0.5385111   0.7535540  )
        13           O   tau(  13) = (   0.7495857   0.0101500   0.7501269  )
        14           O   tau(  14) = (   0.2519663   1.0465722   0.7495857  )
        15           O   tau(  15) = (  -0.2485392   0.5182111  -0.7530128  )
        16           O   tau(  16) = (   0.2490803   0.5385111   0.2485392  )
        17           O   tau(  17) = (   0.5004153   0.2664314   0.7045222  )
        18           O   tau(  18) = (   0.5009163   0.7910939   0.7986175  )
        19           O   tau(  19) = (  -1.0014618   0.2619298   1.2055688  )
        20           O   tau(  20) = (   0.0001303   0.7939893   0.2975710  )
        21           O   tau(  21) = (   0.5016779   0.2664314   0.2975710  )
        22           O   tau(  22) = (   0.5011768   0.7910939   1.2055688  )
        23           O   tau(  23) = (  -0.0006313   0.2619298   0.7986175  )
        24           O   tau(  24) = (  -1.0022234   0.7939893   0.7045222  )
        25           O   tau(  25) = (   0.7045222   0.2627328   2.0043166  )
        26           O   tau(  26) = (   0.2975710   0.7902908   0.5004153  )
        27           O   tau(  27) = (   0.7986175   0.2656283   0.5011769  )
        28           O   tau(  28) = (   0.2034756   0.7947924   2.0035550  )
        29           O   tau(  29) = (   0.2975710   0.2627328   1.0019629  )
        30           O   tau(  30) = (   0.7045222   0.7902908   0.5016779  )
        31           O   tau(  31) = (   0.2034756   0.2656283   0.5009163  )
        32           O   tau(  32) = (   0.7986175   0.7947924   1.0027244  )

     number of k points=    40  gaussian smearing, width (Ry)=  0.0007
                       cart. coord. in units 2pi/alat
        k(    1) = (   0.0000000   0.0000000   0.0000000), wk =   0.0092593
        k(    2) = (   0.0000000   0.0000000   0.1663185), wk =   0.0370370
        k(    3) = (   0.0000000   0.0000000   0.3326371), wk =   0.0370370
        k(    4) = (   0.0000000   0.0000000  -0.4989556), wk =   0.0185185
        k(    5) = (   0.0000000   0.1577204   0.0000000), wk =   0.0185185
        k(    6) = (   0.0000000   0.1577204   0.1663185), wk =   0.0740741
        k(    7) = (   0.0000000   0.1577204   0.3326371), wk =   0.0740741
        k(    8) = (   0.0000000   0.1577204  -0.4989556), wk =   0.0370370
        k(    9) = (   0.0000000   0.3154408   0.0000000), wk =   0.0185185
        k(   10) = (   0.0000000   0.3154408   0.1663185), wk =   0.0740741
        k(   11) = (   0.0000000   0.3154408   0.3326371), wk =   0.0740741
        k(   12) = (   0.0000000   0.3154408  -0.4989556), wk =   0.0370370
        k(   13) = (   0.0000000  -0.4731612   0.0000000), wk =   0.0092593
        k(   14) = (   0.0000000  -0.4731612   0.1663185), wk =   0.0370370
        k(   15) = (   0.0000000  -0.4731612   0.3326371), wk =   0.0370370
        k(   16) = (   0.0000000  -0.4731612  -0.4989556), wk =   0.0185185
        k(   17) = (   0.1663185   0.0000000   0.1663185), wk =   0.0370370
        k(   18) = (   0.1663185   0.0000000   0.3326371), wk =   0.0740741
        k(   19) = (   0.1663185   0.0000000  -0.4989556), wk =   0.0370370
        k(   20) = (   0.1663185   0.1577204   0.1663185), wk =   0.0740741
        k(   21) = (   0.1663185   0.1577204   0.3326371), wk =   0.1481481
        k(   22) = (   0.1663185   0.1577204  -0.4989556), wk =   0.0740741
        k(   23) = (   0.1663185   0.3154408   0.1663185), wk =   0.0740741
        k(   24) = (   0.1663185   0.3154408   0.3326371), wk =   0.1481481
        k(   25) = (   0.1663185   0.3154408  -0.4989556), wk =   0.0740741
        k(   26) = (   0.1663185  -0.4731612   0.1663185), wk =   0.0370370
        k(   27) = (   0.1663185  -0.4731612   0.3326371), wk =   0.0740741
        k(   28) = (   0.1663185  -0.4731612  -0.4989556), wk =   0.0370370
        k(   29) = (   0.3326371   0.0000000   0.3326371), wk =   0.0370370
        k(   30) = (   0.3326371   0.0000000  -0.4989556), wk =   0.0370370
        k(   31) = (   0.3326371   0.1577204   0.3326371), wk =   0.0740741
        k(   32) = (   0.3326371   0.1577204  -0.4989556), wk =   0.0740741
        k(   33) = (   0.3326371   0.3154408   0.3326371), wk =   0.0740741
        k(   34) = (   0.3326371   0.3154408  -0.4989556), wk =   0.0740741
        k(   35) = (   0.3326371  -0.4731612   0.3326371), wk =   0.0370370
        k(   36) = (   0.3326371  -0.4731612  -0.4989556), wk =   0.0370370
        k(   37) = (  -0.4989556   0.0000000  -0.4989556), wk =   0.0092593
        k(   38) = (  -0.4989556   0.1577204  -0.4989556), wk =   0.0185185
        k(   39) = (  -0.4989556   0.3154408  -0.4989556), wk =   0.0185185
        k(   40) = (  -0.4989556  -0.4731612  -0.4989556), wk =   0.0092593

     Initial potential from superposition of free atoms

     starting charge  367.99656, renormalised to  368.00000
     Starting wfc are  232 randomized atomic wfcs

     Writing output data file Landau_2.save

     Self-consistent Calculation

[...]

     total energy              =   -6261.10878511 Ry
     Harris-Foulkes estimate   =   -6261.10878511 Ry
     estimated scf accuracy    <          5.6E-10 Ry

     iteration # 14     ecut=   120.00 Ry     beta= 0.70
     Davidson diagonalization with overlap
     ethr =  1.51E-13,  avg # of iterations =  2.1

     End of self-consistent calculation

[...]

          k = 0.3326-0.4732-0.4990 ( 62412 PWs)   bands (ev):

[...]

          k =-0.4990-0.4732-0.4990 ( 62504 PWs)   bands (ev):

   -66.2226 -66.2225 -66.2225 -66.2225 -66.2225 -66.2225 -66.2225 -66.2225
   -30.5816 -30.5816 -30.5815 -30.5815 -30.5815 -30.5815 -30.5815 -30.5815
   -30.5156 -30.5155 -30.5155 -30.5155 -30.5154 -30.5154 -30.5154 -30.5154
   -30.5137 -30.5137 -30.5136 -30.5136 -30.5136 -30.5135 -30.5135 -30.5135
   -20.3843 -20.3843 -20.3843 -20.3843 -20.3843 -20.3843 -20.3842 -20.3842
   -20.3628 -20.3628 -20.3628 -20.3628 -20.3628 -20.3628 -20.3628 -20.3628
   -20.3610 -20.3610 -20.3610 -20.3609 -20.3609 -20.3609 -20.3608 -20.3608
   -20.3607 -20.3607 -20.3607 -20.3607 -20.3606 -20.3606 -20.3606 -20.3606
   -20.3520 -20.3520 -20.3520 -20.3520 -20.3520 -20.3520 -20.3519 -20.3519
   -20.3485 -20.3485 -20.3485 -20.3484 -20.3484 -20.3484 -20.3484 -20.3484
   -20.3473 -20.3473 -20.3473 -20.3473 -20.3473 -20.3473 -20.3473 -20.3473
    -8.9830  -8.9830  -8.9810  -8.9810  -8.9809  -8.9809  -8.9795  -8.9795
    -8.4620  -8.4620  -8.4597  -8.4597  -8.4597  -8.4597  -8.4582  -8.4582
    -8.3853  -8.3853  -8.3837  -8.3837  -8.3837  -8.3837  -8.3807  -8.3807
     2.9449   2.9449   2.9475   2.9475   2.9475   2.9475   2.9509   2.9509
     3.0729   3.0730   3.0776   3.0776   3.0777   3.0777   3.0825   3.0825
     3.3836   3.3837   3.3992   3.3992   3.3993   3.3993   3.4131   3.4132
     4.1059   4.1059   4.1098   4.1098   4.1098   4.1098   4.1129   4.1129
     4.3334   4.3334   4.3334   4.3334   4.3340   4.3341   4.3346   4.3347
     4.4175   4.4175   4.4221   4.4222   4.4222   4.4222   4.4254   4.4254
     7.1534   7.1534   7.1711   7.1711   7.1711   7.1712   7.1902   7.1902
     7.2899   7.2900   7.2917   7.2917   7.2917   7.2917   7.2928   7.2929
     7.5615   7.5615   7.5661   7.5661   7.5661   7.5661   7.5712   7.5712
    11.7482  11.7482  11.7492  11.7492  11.7493  11.7493  11.7507  11.7507
    12.2224  12.2224  12.2386  12.2386  12.2386  12.2386  12.2561  12.2561
    12.4709  12.4710  12.4788  12.4788  12.4788  12.4788  12.4857  12.4857
    17.1004  17.1004  17.1081  17.1081  17.1082  17.1082  17.1159  17.1159
    17.3407  17.3412  17.3412  17.3412  17.3412

     the Fermi energy is     9.0494 ev

!    total energy              =   -6261.10878511 Ry
     Harris-Foulkes estimate   =   -6261.10878511 Ry
     estimated scf accuracy    <          2.2E-11 Ry

     The total energy is the sum of the following terms:

     one-electron contribution =   -4733.27334673 Ry
     hartree contribution      =    2602.71458023 Ry
     xc contribution           =    -965.67345339 Ry
     ewald contribution        =   -3164.87656522 Ry
     smearing contrib. (-TS)   =      -0.00000000 Ry

     convergence has been achieved in  14 iterations

     Forces acting on atoms (cartesian axes, Ry/au):

     atom    1 type  1   force =     0.00071274    0.00098398    0.00010777
     atom    2 type  1   force =    -0.00010777   -0.00098398    0.00071274
     atom    3 type  1   force =    -0.00071274   -0.00098398    0.00010777
     atom    4 type  1   force =     0.00010777    0.00098398    0.00071274
     atom    5 type  1   force =    -0.00071274    0.00098398   -0.00010777
     atom    6 type  1   force =     0.00010777   -0.00098398   -0.00071274
     atom    7 type  1   force =     0.00071274   -0.00098398   -0.00010777
     atom    8 type  1   force =    -0.00010777    0.00098398   -0.00071274
     atom    9 type  2   force =     0.00007873   -0.00571366   -0.00001128
     atom   10 type  2   force =     0.00001128    0.00571366    0.00007873
     atom   11 type  2   force =    -0.00007873    0.00571366   -0.00001128
     atom   12 type  2   force =    -0.00001128   -0.00571366    0.00007873
     atom   13 type  2   force =    -0.00007873   -0.00571366    0.00001128
     atom   14 type  2   force =    -0.00001128    0.00571366   -0.00007873
     atom   15 type  2   force =     0.00007873    0.00571366    0.00001128
     atom   16 type  2   force =     0.00001128   -0.00571366   -0.00007873
     atom   17 type  2   force =     0.00033920    0.00020322   -0.00075109
     atom   18 type  2   force =    -0.00000679    0.00013035    0.00074417
     atom   19 type  2   force =    -0.00033920   -0.00020322   -0.00075109
     atom   20 type  2   force =     0.00000679   -0.00013035    0.00074417
     atom   21 type  2   force =    -0.00033920    0.00020322    0.00075109
     atom   22 type  2   force =     0.00000679    0.00013035   -0.00074417
     atom   23 type  2   force =     0.00033920   -0.00020322    0.00075109
     atom   24 type  2   force =    -0.00000679   -0.00013035   -0.00074417
     atom   25 type  2   force =    -0.00074417    0.00013035    0.00000679
     atom   26 type  2   force =     0.00075109   -0.00020322    0.00033920
     atom   27 type  2   force =     0.00074417   -0.00013035    0.00000679
     atom   28 type  2   force =    -0.00075109    0.00020322    0.00033920
     atom   29 type  2   force =     0.00074417    0.00013035   -0.00000679
     atom   30 type  2   force =    -0.00075109   -0.00020322   -0.00033920
     atom   31 type  2   force =    -0.00074417   -0.00013035   -0.00000679
     atom   32 type  2   force =     0.00075109    0.00020322   -0.00033920

     Total force =     0.000000     Total SCF correction =     0.000000

     Computing stress (Cartesian axis) and pressure

          total   stress  (Ry/bohr**3)                   (kbar)     P=    0.06
   0.00000063   0.00000000   0.00000000          0.09      0.00      0.00
   0.00000000  -0.00000004   0.00000000          0.00     -0.01      0.00
   0.00000000   0.00000000   0.00000063          0.00      0.00      0.09

     Writing output data file Landau_2.save

     General routines

     Parallel routines

   This run was terminated on:  19:19: 2  28Feb2020

   JOB DONE.