     Program PWSCF v.6.4.1 starts on 22Nov2019 at  0:25: 8

     K-points division:     npool     =      40
     Reading input from scf.in

     Current dimensions of program PWSCF are:
     Max number of different atomic species (ntypx) = 10
     Max number of k-points (npk) =  40000
     Max angular momentum in pseudopotentials (lmaxx) =  3

     Subspace diagonalization in iterative solution of the eigenvalue problem:
     a serial algorithm will be used

     Message from routine setup:
     using ibrav=0 with symmetry is DISCOURAGED, use correct ibrav instead

     bravais-lattice index     =            0
     lattice parameter (alat)  =      14.0096  a.u.
     unit-cell volume          =    2843.3428 (a.u.)^3
     number of atoms/cell      =           32
     number of atomic types    =            2
     number of electrons       =       368.20
     number of Kohn-Sham states=          221
     kinetic-energy cutoff     =     120.0000  Ry
     charge density cutoff     =     480.0000  Ry
     convergence threshold     =      1.0E-08
     mixing beta               =       0.7000
     number of iterations used =            8  plain     mixing
     Exchange-correlation      = SLA PW NOGX NOGC ( 1  4  0  0 0 0)

     celldm(1)=  14.009611  celldm(2)=   0.000000  celldm(3)=   0.000000
     celldm(4)=   0.000000  celldm(5)=   0.000000  celldm(6)=   0.000000

     crystal axes: (cart. coord. in units of alat)
               a(1) = (   1.000000   0.000000   0.000000 )
               a(2) = (   0.000000   1.033832   0.000000 )
               a(3) = (   0.000000   0.000000   1.000233 )

     reciprocal axes: (cart. coord. in units 2 pi/alat)
               b(1) = (  1.000000  0.000000  0.000000 )
               b(2) = (  0.000000  0.967275  0.000000 )
               b(3) = (  0.000000  0.000000  0.999767 )

     PseudoPot. # 1 for W  read from file:
     /cluster/scratch/mnoe/QE/pps/W_ONCV_LDA-4.0.upf
     MD5 check sum: ba0307d5d4cd419d6f1d13dc49d7c13a
     Pseudo is Norm-conserving + core correction, Zval = 28.0
     Generated using ONCVPSP code by D. R. Hamann
     Using radial grid of 1380 points,  8 beta functions with:
                l(1) =   0
                l(2) =   0
                l(3) =   1
                l(4) =   1
                l(5) =   2
                l(6) =   2
                l(7) =   3
                l(8) =   3

     PseudoPot. # 2 for O  read from file:
     /cluster/scratch/mnoe/QE/pps/O_ONCV_LDA-3.0.upf
     MD5 check sum: b55cdb4f45ae2203d24ad12cf8d61a31
     Pseudo is Norm-conserving + core correction, Zval =  6.0
     Generated using ONCVPSP code by D. R. Hamann
     Using radial grid of  926 points,  5 beta functions with:
                l(1) =   0
                l(2) =   0
                l(3) =   1
                l(4) =   1
                l(5) =   2

     atomic species   valence    mass     pseudopotential
        W             28.00   183.84000     W ( 1.00)
        O              6.00    15.99940     O ( 1.00)

      8 Sym. Ops., with inversion, found ( 6 have fractional translation)

   Cartesian axes

     site n.     atom                  positions (alat units)
         1           W   tau(   1) = (   0.2430600   0.2966621   0.0065515  )
         2           W   tau(   2) = (   0.7569400   0.7371695   0.9936814  )
         3           W   tau(   3) = (   0.2569400   0.2202537   0.5066680  )
         4           W   tau(   4) = (   0.7430600   0.8135779   0.4935649  )
         5           W   tau(   5) = (   0.7569400   0.2966621   0.4935649  )
         6           W   tau(   6) = (   0.2430600   0.7371695   0.5066680  )
         7           W   tau(   7) = (   0.7430600   0.2202537   0.9936814  )
         8           W   tau(   8) = (   0.2569400   0.8135779   0.0065515  )
         9           O   tau(   9) = (   0.2372000   0.0185666   0.0020405  )
        10           O   tau(  10) = (   0.7628000   1.0152651   0.9981924  )
        11           O   tau(  11) = (   0.2628000   0.4983492   0.5021570  )
        12           O   tau(  12) = (   0.7372000   0.5354824   0.4980760  )
        13           O   tau(  13) = (   0.7628000   0.0185666   0.4980760  )
        14           O   tau(  14) = (   0.2372000   1.0152651   0.5021570  )
        15           O   tau(  15) = (   0.7372000   0.4983492   0.9981924  )
        16           O   tau(  16) = (   0.2628000   0.5354824   0.0020405  )
        17           O   tau(  17) = (   0.5019000   0.2448837   0.4759804  )
        18           O   tau(  18) = (   0.4981000   0.7889479   0.5242526  )
        19           O   tau(  19) = (   0.9981000   0.2720321   0.9760969  )
        20           O   tau(  20) = (   0.0019000   0.7617995   0.0241361  )
        21           O   tau(  21) = (   0.4981000   0.2448837   0.0241361  )
        22           O   tau(  22) = (   0.5019000   0.7889479   0.9760969  )
        23           O   tau(  23) = (   0.0019000   0.2720321   0.5242526  )
        24           O   tau(  24) = (   0.9981000   0.7617995   0.4759804  )
        25           O   tau(  25) = (   0.7258696   0.2554908   0.7472941  )
        26           O   tau(  26) = (   0.2741305   0.7783408   0.2529389  )
        27           O   tau(  27) = (   0.7741305   0.2614250   0.2471776  )
        28           O   tau(  28) = (   0.2258695   0.7724067   0.7530553  )
        29           O   tau(  29) = (   0.2741305   0.2554908   0.7530553  )
        30           O   tau(  30) = (   0.7258696   0.7783408   0.2471776  )
        31           O   tau(  31) = (   0.2258695   0.2614250   0.2529389  )
        32           O   tau(  32) = (   0.7741305   0.7724067   0.7472941  )

     number of k points=    64  gaussian smearing, width (Ry)=  0.0007
                       cart. coord. in units 2pi/alat
        k(    1) = (   0.0000000   0.0000000   0.0000000), wk =   0.0092593
        k(    2) = (   0.0000000   0.0000000   0.1666279), wk =   0.0185185
        k(    3) = (   0.0000000   0.0000000   0.3332557), wk =   0.0185185
        k(    4) = (   0.0000000   0.0000000  -0.4998836), wk =   0.0092593
        k(    5) = (   0.0000000   0.1612126   0.0000000), wk =   0.0185185
        k(    6) = (   0.0000000   0.1612126   0.1666279), wk =   0.0370370
        k(    7) = (   0.0000000   0.1612126   0.3332557), wk =   0.0370370
        k(    8) = (   0.0000000   0.1612126  -0.4998836), wk =   0.0185185
        k(    9) = (   0.0000000   0.3224252   0.0000000), wk =   0.0185185
        k(   10) = (   0.0000000   0.3224252   0.1666279), wk =   0.0370370
        k(   11) = (   0.0000000   0.3224252   0.3332557), wk =   0.0370370
        k(   12) = (   0.0000000   0.3224252  -0.4998836), wk =   0.0185185
        k(   13) = (   0.0000000  -0.4836377   0.0000000), wk =   0.0092593
        k(   14) = (   0.0000000  -0.4836377   0.1666279), wk =   0.0185185
        k(   15) = (   0.0000000  -0.4836377   0.3332557), wk =   0.0185185
        k(   16) = (   0.0000000  -0.4836377  -0.4998836), wk =   0.0092593
        k(   17) = (   0.1666667   0.0000000   0.0000000), wk =   0.0185185
        k(   18) = (   0.1666667   0.0000000   0.1666279), wk =   0.0370370
        k(   19) = (   0.1666667   0.0000000   0.3332557), wk =   0.0370370
        k(   20) = (   0.1666667   0.0000000  -0.4998836), wk =   0.0185185
        k(   21) = (   0.1666667   0.1612126   0.0000000), wk =   0.0370370
        k(   22) = (   0.1666667   0.1612126   0.1666279), wk =   0.0740741
        k(   23) = (   0.1666667   0.1612126   0.3332557), wk =   0.0740741
        k(   24) = (   0.1666667   0.1612126  -0.4998836), wk =   0.0370370
        k(   25) = (   0.1666667   0.3224252   0.0000000), wk =   0.0370370
        k(   26) = (   0.1666667   0.3224252   0.1666279), wk =   0.0740741
        k(   27) = (   0.1666667   0.3224252   0.3332557), wk =   0.0740741
        k(   28) = (   0.1666667   0.3224252  -0.4998836), wk =   0.0370370
        k(   29) = (   0.1666667  -0.4836377   0.0000000), wk =   0.0185185
        k(   30) = (   0.1666667  -0.4836377   0.1666279), wk =   0.0370370
        k(   31) = (   0.1666667  -0.4836377   0.3332557), wk =   0.0370370
        k(   32) = (   0.1666667  -0.4836377  -0.4998836), wk =   0.0185185
        k(   33) = (   0.3333333   0.0000000   0.0000000), wk =   0.0185185
        k(   34) = (   0.3333333   0.0000000   0.1666279), wk =   0.0370370
        k(   35) = (   0.3333333   0.0000000   0.3332557), wk =   0.0370370
        k(   36) = (   0.3333333   0.0000000  -0.4998836), wk =   0.0185185
        k(   37) = (   0.3333333   0.1612126   0.0000000), wk =   0.0370370
        k(   38) = (   0.3333333   0.1612126   0.1666279), wk =   0.0740741
        k(   39) = (   0.3333333   0.1612126   0.3332557), wk =   0.0740741
        k(   40) = (   0.3333333   0.1612126  -0.4998836), wk =   0.0370370
        k(   41) = (   0.3333333   0.3224252   0.0000000), wk =   0.0370370
        k(   42) = (   0.3333333   0.3224252   0.1666279), wk =   0.0740741
        k(   43) = (   0.3333333   0.3224252   0.3332557), wk =   0.0740741
        k(   44) = (   0.3333333   0.3224252  -0.4998836), wk =   0.0370370
        k(   45) = (   0.3333333  -0.4836377   0.0000000), wk =   0.0185185
        k(   46) = (   0.3333333  -0.4836377   0.1666279), wk =   0.0370370
        k(   47) = (   0.3333333  -0.4836377   0.3332557), wk =   0.0370370
        k(   48) = (   0.3333333  -0.4836377  -0.4998836), wk =   0.0185185
        k(   49) = (  -0.5000000   0.0000000   0.0000000), wk =   0.0092593
        k(   50) = (  -0.5000000   0.0000000   0.1666279), wk =   0.0185185
        k(   51) = (  -0.5000000   0.0000000   0.3332557), wk =   0.0185185
        k(   52) = (  -0.5000000   0.0000000  -0.4998836), wk =   0.0092593
        k(   53) = (  -0.5000000   0.1612126   0.0000000), wk =   0.0185185
        k(   54) = (  -0.5000000   0.1612126   0.1666279), wk =   0.0370370
        k(   55) = (  -0.5000000   0.1612126   0.3332557), wk =   0.0370370
        k(   56) = (  -0.5000000   0.1612126  -0.4998836), wk =   0.0185185
        k(   57) = (  -0.5000000   0.3224252   0.0000000), wk =   0.0185185
        k(   58) = (  -0.5000000   0.3224252   0.1666279), wk =   0.0370370
        k(   59) = (  -0.5000000   0.3224252   0.3332557), wk =   0.0370370
        k(   60) = (  -0.5000000   0.3224252  -0.4998836), wk =   0.0185185
        k(   61) = (  -0.5000000  -0.4836377   0.0000000), wk =   0.0092593
        k(   62) = (  -0.5000000  -0.4836377   0.1666279), wk =   0.0185185
        k(   63) = (  -0.5000000  -0.4836377   0.3332557), wk =   0.0185185
        k(   64) = (  -0.5000000  -0.4836377  -0.4998836), wk =   0.0092593

     Initial potential from superposition of free atoms

     starting charge  367.99656, renormalised to  368.20000
     Starting wfcs are  232 randomized atomic wfcs

     Self-consistent Calculation

     iteration #  1     ecut=   120.00 Ry     beta= 0.70
     Davidson diagonalization with overlap
     ethr =  1.00E-02,  avg # of iterations =  5.2

     total energy              =   -6253.70603640 Ry
     Harris-Foulkes estimate   =   -6264.49701605 Ry
     estimated scf accuracy    <      13.63698980 Ry

[...]

     total energy              =   -6260.94736804 Ry
     Harris-Foulkes estimate   =   -6260.94736807 Ry
     estimated scf accuracy    <       0.00000006 Ry

     iteration # 13     ecut=   120.00 Ry     beta= 0.70
     Davidson diagonalization with overlap
     ethr =  1.74E-11,  avg # of iterations =  2.9

     End of self-consistent calculation

          k = 0.0000 0.0000 0.0000 ( 63135 PWs)   bands (ev):

   -66.3491 -66.3486 -66.3484 -66.3483 -66.3479 -66.3479 -66.3476 -66.3472
   -30.7291 -30.7255 -30.7238 -30.7205 -30.6960 -30.6952 -30.6951 -30.6914
   -30.6904 -30.6880 -30.6856 -30.6841 -30.6555 -30.6554 -30.6517 -30.6508
   -30.6079 -30.6054 -30.6052 -30.6047 -30.6033 -30.6030 -30.5978 -30.5967
   -20.5089 -20.5089 -20.5088 -20.5088 -20.5086 -20.5085 -20.5085 -20.5085
   -20.4915 -20.4911 -20.4911 -20.4907 -20.4905 -20.4904 -20.4903 -20.4898
   -20.4888 -20.4886 -20.4885 -20.4884 -20.4866 -20.4863 -20.4857 -20.4852
   -20.4845 -20.4841 -20.4839 -20.4833 -20.4830 -20.4829 -20.4825 -20.4824
   -20.4817 -20.4814 -20.4808 -20.4805 -20.4800 -20.4798 -20.4797 -20.4794
   -20.4759 -20.4758 -20.4757 -20.4755 -20.4751 -20.4747 -20.4745 -20.4742
   -20.4731 -20.4730 -20.4729 -20.4726 -20.4713 -20.4712 -20.4707 -20.4705
   -10.1478  -9.7983  -9.7632  -9.7627  -9.4348  -9.4268  -9.3390  -9.1699
    -9.1477  -9.0486  -9.0436  -9.0416  -8.0227  -7.9523  -7.9480  -7.9388
    -7.9352  -7.9276  -7.9148  -7.8816  -7.8753  -7.8721  -7.8610  -7.8494
     0.9729   0.9740   1.0669   1.0769   1.0818   1.0945   1.1163   1.3048
     1.3080   1.3183   1.3303   1.4867   2.3201   2.3277   2.3458   2.4085
     2.4212   2.4338   3.9548   3.9771   4.1397   4.1757   4.5000   4.5065
     4.5409   4.5515   4.5998   4.6525   4.7023   4.7026   4.9328   5.3414
     5.3594   5.3599   5.3741   5.4319   5.4412   5.4552   5.4979   5.6623
     5.6978   5.7316   5.7346   5.7724   5.7954   5.8459   5.9076   6.0344
     6.0636   6.1654   6.2183   6.3137   6.3151   6.5283   6.5548   6.5573
     6.5734   6.6658   6.9271   6.9424   6.9518   6.9536   7.0301   7.0388
     7.0515   7.0567   8.0119   8.0212   8.0604   8.0660   8.0789   8.0818
     8.9689   8.9800   9.6033   9.6057   9.6914   9.7003  12.2601  12.2745
    12.3147  12.3379  12.3435  12.3493  12.3604  12.3790  12.8856  13.0672
    13.1047  13.1666  13.2735  13.4224  13.4500  13.6723  13.9714  14.0106
    14.0190  14.0959  14.2851  14.5504  14.5781  14.5816  15.4289  15.4321
    15.4655  16.4039  16.8123  16.8419  17.1614

[...]

          k = 0.3333-0.4836-0.4999 ( 63100 PWs)   bands (ev):

[...]

          k =-0.5000 0.0000 0.0000 ( 63108 PWs)   bands (ev):

[...]

          k =-0.5000-0.4836-0.4999 ( 63088 PWs)   bands (ev):

   -66.3481 -66.3481 -66.3481 -66.3481 -66.3481 -66.3481 -66.3481 -66.3481
   -30.6943 -30.6943 -30.6943 -30.6943 -30.6935 -30.6935 -30.6935 -30.6935
   -30.6512 -30.6512 -30.6512 -30.6511 -30.6497 -30.6497 -30.6497 -30.6497
   -30.6399 -30.6399 -30.6399 -30.6398 -30.6384 -30.6384 -30.6384 -30.6384
   -20.5087 -20.5087 -20.5087 -20.5087 -20.5087 -20.5087 -20.5087 -20.5087
   -20.4908 -20.4908 -20.4908 -20.4908 -20.4907 -20.4907 -20.4907 -20.4907
   -20.4860 -20.4860 -20.4860 -20.4860 -20.4859 -20.4859 -20.4859 -20.4859
   -20.4847 -20.4847 -20.4847 -20.4847 -20.4846 -20.4846 -20.4846 -20.4846
   -20.4785 -20.4785 -20.4785 -20.4785 -20.4784 -20.4784 -20.4784 -20.4784
   -20.4772 -20.4772 -20.4772 -20.4772 -20.4771 -20.4771 -20.4771 -20.4771
   -20.4720 -20.4720 -20.4720 -20.4720 -20.4720 -20.4720 -20.4720 -20.4720
    -9.1581  -9.1581  -9.1580  -9.1580  -9.1430  -9.1430  -9.1429  -9.1429
    -8.5931  -8.5931  -8.5931  -8.5931  -8.5821  -8.5821  -8.5821  -8.5821
    -8.5288  -8.5288  -8.5287  -8.5287  -8.5047  -8.5047  -8.5047  -8.5047
     2.6976   2.6976   2.6976   2.6976   2.7827   2.7827   2.7827   2.7827
     2.8336   2.8336   2.8336   2.8336   2.9434   2.9434   2.9434   2.9434
     3.1674   3.1674   3.1674   3.1674   3.2656   3.2656   3.2656   3.2656
     3.9684   3.9684   3.9684   3.9684   4.0082   4.0082   4.0082   4.0082
     4.1647   4.1647   4.1647   4.1647   4.1924   4.1924   4.1924   4.1924
     4.3002   4.3002   4.3002   4.3002   4.3411   4.3411   4.3411   4.3411
     7.0047   7.0047   7.0047   7.0047   7.1186   7.1186   7.1186   7.1186
     7.1562   7.1562   7.1562   7.1562   7.1978   7.1978   7.1978   7.1978
     7.4290   7.4290   7.4290   7.4290   7.4692   7.4692   7.4692   7.4692
    11.6479  11.6479  11.6479  11.6479  11.6806  11.6806  11.6806  11.6806
    12.0308  12.0308  12.0308  12.0308  12.1482  12.1482  12.1482  12.1482
    12.2439  12.2439  12.2439  12.2439  12.3164  12.3164  12.3164  12.3164
    16.7957  16.7957  16.7957  16.7957  16.8743  16.8743  16.8743  16.8743
    17.2876  17.2876  17.2876  17.2876  17.3335

     the Fermi energy is     9.3286 ev

!    total energy              =   -6260.94736805 Ry
     Harris-Foulkes estimate   =   -6260.94736805 Ry
     estimated scf accuracy    <          9.1E-10 Ry

     The total energy is the sum of the following terms:

     one-electron contribution =   -4778.32560120 Ry
     hartree contribution      =    2623.64620537 Ry
     xc contribution           =    -965.91972502 Ry
     ewald contribution        =   -3140.34819109 Ry
     smearing contrib. (-TS)   =      -0.00005611 Ry

     convergence has been achieved in  13 iterations

     Writing output data file Landau_15.save/

     General routines

     Parallel routines

   This run was terminated on:   0:54:39  22Nov2019

   JOB DONE.