     Program PWSCF v.6.4.1 starts on 16Dec2019 at 21:50:18

     K-points division:     npool     =      40
     Reading input from scf.in

     Current dimensions of program PWSCF are:
     Max number of different atomic species (ntypx) = 10
     Max number of k-points (npk) =  40000
     Max angular momentum in pseudopotentials (lmaxx) =  3

     Subspace diagonalization in iterative solution of the eigenvalue problem:
     a serial algorithm will be used

     Message from routine setup:
     using ibrav=0 with symmetry is DISCOURAGED, use correct ibrav instead

     bravais-lattice index     =            0
     lattice parameter (alat)  =      13.8371  a.u.
     unit-cell volume          =    2800.5265 (a.u.)^3
     number of atoms/cell      =           32
     number of atomic types    =            2
     number of electrons       =       368.20
     number of Kohn-Sham states=          221
     kinetic-energy cutoff     =     120.0000  Ry
     charge density cutoff     =     480.0000  Ry
     convergence threshold     =      1.0E-08
     mixing beta               =       0.7000
     number of iterations used =            8  plain     mixing
     Exchange-correlation      = SLA PW NOGX NOGC ( 1  4  0  0 0 0)

     celldm(1)=  13.837055  celldm(2)=   0.000000  celldm(3)=   0.000000
     celldm(4)=   0.000000  celldm(5)=   0.000000  celldm(6)=   0.000000

     crystal axes: (cart. coord. in units of alat)
               a(1) = (   1.000000   0.000000   0.000000 )
               a(2) = (   0.000000   1.056180   0.000000 )
               a(3) = (   0.000000   0.000000   1.000854 )

     reciprocal axes: (cart. coord. in units 2 pi/alat)
               b(1) = (  1.000000  0.000000  0.000000 )
               b(2) = (  0.000000  0.946808  0.000000 )
               b(3) = (  0.000000  0.000000  0.999147 )

     PseudoPot. # 1 for W  read from file:
     /cluster/scratch/mnoe/QE/pps/W_ONCV_LDA-4.0.upf
     MD5 check sum: ba0307d5d4cd419d6f1d13dc49d7c13a
     Pseudo is Norm-conserving + core correction, Zval = 28.0
     Generated using ONCVPSP code by D. R. Hamann
     Using radial grid of 1380 points,  8 beta functions with:
                l(1) =   0
                l(2) =   0
                l(3) =   1
                l(4) =   1
                l(5) =   2
                l(6) =   2
                l(7) =   3
                l(8) =   3

     PseudoPot. # 2 for O  read from file:
     /cluster/scratch/mnoe/QE/pps/O_ONCV_LDA-3.0.upf
     MD5 check sum: b55cdb4f45ae2203d24ad12cf8d61a31
     Pseudo is Norm-conserving + core correction, Zval =  6.0
     Generated using ONCVPSP code by D. R. Hamann
     Using radial grid of  926 points,  5 beta functions with:
                l(1) =   0
                l(2) =   0
                l(3) =   1
                l(4) =   1
                l(5) =   2

     atomic species   valence    mass     pseudopotential
        W             28.00   183.84000     W ( 1.00)
        O              6.00    15.99940     O ( 1.00)

      8 Sym. Ops., with inversion, found ( 6 have fractional translation)

   Cartesian axes

     site n.     atom                  positions (alat units)
         1           W   tau(   1) = (   0.2439900   0.2976949   0.0056849  )
         2           W   tau(   2) = (   0.7560100   0.7584851   0.9951693  )
         3           W   tau(   3) = (   0.2560100   0.2303951   0.5061120  )
         4           W   tau(   4) = (   0.7439900   0.8257848   0.4947422  )
         5           W   tau(   5) = (   0.7560100   0.2976949   0.4947422  )
         6           W   tau(   6) = (   0.2439900   0.7584851   0.5061120  )
         7           W   tau(   7) = (   0.7439900   0.2303951   0.9951693  )
         8           W   tau(   8) = (   0.2560100   0.8257848   0.0056849  )
         9           O   tau(   9) = (   0.2389100   0.0087874   0.0017715  )
        10           O   tau(  10) = (   0.7610900   1.0473926   0.9990827  )
        11           O   tau(  11) = (   0.2610900   0.5193026   0.5021986  )
        12           O   tau(  12) = (   0.7389100   0.5368774   0.4986556  )
        13           O   tau(  13) = (   0.7610900   0.0087874   0.4986556  )
        14           O   tau(  14) = (   0.2389100   1.0473926   0.5021986  )
        15           O   tau(  15) = (   0.7389100   0.5193026   0.9990827  )
        16           O   tau(  16) = (   0.2610900   0.5368774   0.0017715  )
        17           O   tau(  17) = (   0.5016400   0.2520257   0.4499240  )
        18           O   tau(  18) = (   0.4983600   0.8041543   0.5509301  )
        19           O   tau(  19) = (   0.9983600   0.2760643   0.9503511  )
        20           O   tau(  20) = (   0.0016401   0.7801156   0.0505031  )
        21           O   tau(  21) = (   0.4983600   0.2520257   0.0505031  )
        22           O   tau(  22) = (   0.5016400   0.8041543   0.9503511  )
        23           O   tau(  23) = (   0.0016401   0.2760643   0.5509301  )
        24           O   tau(  24) = (   0.9983600   0.7801156   0.4499240  )
        25           O   tau(  25) = (   0.6995400   0.2614257   0.7481485  )
        26           O   tau(  26) = (   0.3004600   0.7947543   0.2527056  )
        27           O   tau(  27) = (   0.8004600   0.2666643   0.2477214  )
        28           O   tau(  28) = (   0.1995400   0.7895156   0.7531328  )
        29           O   tau(  29) = (   0.3004600   0.2614257   0.7531328  )
        30           O   tau(  30) = (   0.6995400   0.7947543   0.2477214  )
        31           O   tau(  31) = (   0.1995400   0.2666643   0.2527056  )
        32           O   tau(  32) = (   0.8004600   0.7895156   0.7481485  )

     number of k points=    64  gaussian smearing, width (Ry)=  0.0007
                       cart. coord. in units 2pi/alat
        k(    1) = (   0.0000000   0.0000000   0.0000000), wk =   0.0092593
        k(    2) = (   0.0000000   0.0000000   0.1665244), wk =   0.0185185
        k(    3) = (   0.0000000   0.0000000   0.3330489), wk =   0.0185185
        k(    4) = (   0.0000000   0.0000000  -0.4995733), wk =   0.0092593
        k(    5) = (   0.0000000   0.1578014   0.0000000), wk =   0.0185185
        k(    6) = (   0.0000000   0.1578014   0.1665244), wk =   0.0370370
        k(    7) = (   0.0000000   0.1578014   0.3330489), wk =   0.0370370
        k(    8) = (   0.0000000   0.1578014  -0.4995733), wk =   0.0185185
        k(    9) = (   0.0000000   0.3156028   0.0000000), wk =   0.0185185
        k(   10) = (   0.0000000   0.3156028   0.1665244), wk =   0.0370370
        k(   11) = (   0.0000000   0.3156028   0.3330489), wk =   0.0370370
        k(   12) = (   0.0000000   0.3156028  -0.4995733), wk =   0.0185185
        k(   13) = (   0.0000000  -0.4734042   0.0000000), wk =   0.0092593
        k(   14) = (   0.0000000  -0.4734042   0.1665244), wk =   0.0185185
        k(   15) = (   0.0000000  -0.4734042   0.3330489), wk =   0.0185185
        k(   16) = (   0.0000000  -0.4734042  -0.4995733), wk =   0.0092593
        k(   17) = (   0.1666667   0.0000000   0.0000000), wk =   0.0185185
        k(   18) = (   0.1666667   0.0000000   0.1665244), wk =   0.0370370
        k(   19) = (   0.1666667   0.0000000   0.3330489), wk =   0.0370370
        k(   20) = (   0.1666667   0.0000000  -0.4995733), wk =   0.0185185
        k(   21) = (   0.1666667   0.1578014   0.0000000), wk =   0.0370370
        k(   22) = (   0.1666667   0.1578014   0.1665244), wk =   0.0740741
        k(   23) = (   0.1666667   0.1578014   0.3330489), wk =   0.0740741
        k(   24) = (   0.1666667   0.1578014  -0.4995733), wk =   0.0370370
        k(   25) = (   0.1666667   0.3156028   0.0000000), wk =   0.0370370
        k(   26) = (   0.1666667   0.3156028   0.1665244), wk =   0.0740741
        k(   27) = (   0.1666667   0.3156028   0.3330489), wk =   0.0740741
        k(   28) = (   0.1666667   0.3156028  -0.4995733), wk =   0.0370370
        k(   29) = (   0.1666667  -0.4734042   0.0000000), wk =   0.0185185
        k(   30) = (   0.1666667  -0.4734042   0.1665244), wk =   0.0370370
        k(   31) = (   0.1666667  -0.4734042   0.3330489), wk =   0.0370370
        k(   32) = (   0.1666667  -0.4734042  -0.4995733), wk =   0.0185185
        k(   33) = (   0.3333333   0.0000000   0.0000000), wk =   0.0185185
        k(   34) = (   0.3333333   0.0000000   0.1665244), wk =   0.0370370
        k(   35) = (   0.3333333   0.0000000   0.3330489), wk =   0.0370370
        k(   36) = (   0.3333333   0.0000000  -0.4995733), wk =   0.0185185
        k(   37) = (   0.3333333   0.1578014   0.0000000), wk =   0.0370370
        k(   38) = (   0.3333333   0.1578014   0.1665244), wk =   0.0740741
        k(   39) = (   0.3333333   0.1578014   0.3330489), wk =   0.0740741
        k(   40) = (   0.3333333   0.1578014  -0.4995733), wk =   0.0370370
        k(   41) = (   0.3333333   0.3156028   0.0000000), wk =   0.0370370
        k(   42) = (   0.3333333   0.3156028   0.1665244), wk =   0.0740741
        k(   43) = (   0.3333333   0.3156028   0.3330489), wk =   0.0740741
        k(   44) = (   0.3333333   0.3156028  -0.4995733), wk =   0.0370370
        k(   45) = (   0.3333333  -0.4734042   0.0000000), wk =   0.0185185
        k(   46) = (   0.3333333  -0.4734042   0.1665244), wk =   0.0370370
        k(   47) = (   0.3333333  -0.4734042   0.3330489), wk =   0.0370370
        k(   48) = (   0.3333333  -0.4734042  -0.4995733), wk =   0.0185185
        k(   49) = (  -0.5000000   0.0000000   0.0000000), wk =   0.0092593
        k(   50) = (  -0.5000000   0.0000000   0.1665244), wk =   0.0185185
        k(   51) = (  -0.5000000   0.0000000   0.3330489), wk =   0.0185185
        k(   52) = (  -0.5000000   0.0000000  -0.4995733), wk =   0.0092593
        k(   53) = (  -0.5000000   0.1578014   0.0000000), wk =   0.0185185
        k(   54) = (  -0.5000000   0.1578014   0.1665244), wk =   0.0370370
        k(   55) = (  -0.5000000   0.1578014   0.3330489), wk =   0.0370370
        k(   56) = (  -0.5000000   0.1578014  -0.4995733), wk =   0.0185185
        k(   57) = (  -0.5000000   0.3156028   0.0000000), wk =   0.0185185
        k(   58) = (  -0.5000000   0.3156028   0.1665244), wk =   0.0370370
        k(   59) = (  -0.5000000   0.3156028   0.3330489), wk =   0.0370370
        k(   60) = (  -0.5000000   0.3156028  -0.4995733), wk =   0.0185185
        k(   61) = (  -0.5000000  -0.4734042   0.0000000), wk =   0.0092593
        k(   62) = (  -0.5000000  -0.4734042   0.1665244), wk =   0.0185185
        k(   63) = (  -0.5000000  -0.4734042   0.3330489), wk =   0.0185185
        k(   64) = (  -0.5000000  -0.4734042  -0.4995733), wk =   0.0092593

     Initial potential from superposition of free atoms

     starting charge  367.99656, renormalised to  368.20000
     Starting wfcs are  232 randomized atomic wfcs

     Self-consistent Calculation

     iteration #  1     ecut=   120.00 Ry     beta= 0.70
     Davidson diagonalization with overlap
     ethr =  1.00E-02,  avg # of iterations =  4.9

     total energy              =   -6253.81401872 Ry
     Harris-Foulkes estimate   =   -6264.47429910 Ry
     estimated scf accuracy    <      13.47569269 Ry

[...]

     iteration #  7     ecut=   120.00 Ry     beta= 0.70
     Davidson diagonalization with overlap
     c_bands:  1 eigenvalues not converged
     ethr =  1.62E-06,  avg # of iterations =  5.0

[...]

     total energy              =   -6260.97110233 Ry
     Harris-Foulkes estimate   =   -6260.97110234 Ry
     estimated scf accuracy    <       0.00000003 Ry

     iteration # 13     ecut=   120.00 Ry     beta= 0.70
     Davidson diagonalization with overlap
     ethr =  8.91E-12,  avg # of iterations =  2.8

     End of self-consistent calculation

          k = 0.0000 0.0000 0.0000 ( 62175 PWs)   bands (ev):

   -66.0953 -66.0949 -66.0943 -66.0943 -66.0939 -66.0939 -66.0933 -66.0929
   -30.5072 -30.5033 -30.5028 -30.4991 -30.4556 -30.4493 -30.4481 -30.4425
   -30.4413 -30.4404 -30.4367 -30.4345 -30.4334 -30.4318 -30.4265 -30.4255
   -30.3420 -30.3399 -30.3396 -30.3386 -30.3370 -30.3367 -30.3341 -30.3319
   -20.2510 -20.2510 -20.2509 -20.2509 -20.2508 -20.2508 -20.2507 -20.2507
   -20.2395 -20.2392 -20.2392 -20.2390 -20.2343 -20.2340 -20.2339 -20.2336
   -20.2313 -20.2309 -20.2306 -20.2306 -20.2303 -20.2299 -20.2299 -20.2299
   -20.2295 -20.2294 -20.2293 -20.2289 -20.2285 -20.2283 -20.2282 -20.2279
   -20.2207 -20.2204 -20.2203 -20.2201 -20.2183 -20.2180 -20.2179 -20.2177
   -20.2147 -20.2147 -20.2135 -20.2135 -20.2122 -20.2121 -20.2110 -20.2109
   -20.2073 -20.2072 -20.2063 -20.2062 -20.2062 -20.2062 -20.2050 -20.2050
    -9.9147  -9.6303  -9.4720  -9.4717  -9.1983  -9.1920  -9.0440  -9.0037
    -8.9908  -8.8432  -8.8134  -8.8124  -7.8338  -7.7673  -7.7617  -7.7505
    -7.7411  -7.7222  -7.7215  -7.7093  -7.5955  -7.5911  -7.5727  -7.5707
     1.2524   1.2535   1.3268   1.3345   1.3430   1.3566   1.4138   1.6633
     1.6672   1.6725   1.6918   1.9044   2.4265   2.5034   2.6048   2.6110
     2.7530   2.7636   4.1633   4.1795   4.3885   4.4178   4.8261   4.8665
     4.8677   4.8822   4.8967   4.9026   5.0762   5.0782   5.1338   5.4590
     5.4820   5.5307   5.5671   5.5713   5.5725   5.6217   5.6592   5.8372
     5.8615   5.9056   5.9079   5.9448   5.9944   6.0530   6.0620   6.1451
     6.1501   6.2652   6.2804   6.5939   6.6000   6.8277   6.8542   6.8629
     6.8785   6.8930   7.0241   7.0390   7.0955   7.1092   7.3963   7.4158
     7.4409   7.4593   7.8053   7.8199   8.0813   8.1092   8.1485   8.1763
     9.3621   9.3634  10.0523  10.0627  10.0867  10.0986  12.2689  12.3017
    12.3214  12.3602  12.3842  12.3967  12.5595  12.5767  12.8214  12.8900
    13.2726  13.3033  13.4172  13.4414  13.7834  14.0631  14.1813  14.1864
    14.2646  14.4149  14.5249  14.9306  15.4668  15.4814  15.5223  16.0781
    16.0953  16.8382  17.0650  17.0883  17.5209

[...]

          k = 0.3333-0.4734-0.4996 ( 62080 PWs)   bands (ev):

[...]

          k =-0.5000 0.0000 0.0000 ( 62184 PWs)   bands (ev):

[...]

          k =-0.5000-0.4734-0.4996 ( 62176 PWs)   bands (ev):

   -66.0941 -66.0941 -66.0941 -66.0941 -66.0941 -66.0941 -66.0941 -66.0941
   -30.4748 -30.4748 -30.4748 -30.4748 -30.4744 -30.4744 -30.4744 -30.4744
   -30.3915 -30.3915 -30.3915 -30.3915 -30.3894 -30.3894 -30.3894 -30.3894
   -30.3840 -30.3840 -30.3839 -30.3839 -30.3819 -30.3819 -30.3819 -30.3819
   -20.2509 -20.2509 -20.2509 -20.2509 -20.2509 -20.2509 -20.2508 -20.2508
   -20.2368 -20.2368 -20.2368 -20.2367 -20.2367 -20.2367 -20.2367 -20.2367
   -20.2304 -20.2304 -20.2304 -20.2304 -20.2302 -20.2302 -20.2302 -20.2302
   -20.2290 -20.2289 -20.2289 -20.2289 -20.2288 -20.2287 -20.2287 -20.2287
   -20.2192 -20.2192 -20.2192 -20.2192 -20.2191 -20.2191 -20.2191 -20.2191
   -20.2105 -20.2105 -20.2105 -20.2105 -20.2105 -20.2105 -20.2105 -20.2105
   -20.2087 -20.2087 -20.2087 -20.2087 -20.2087 -20.2087 -20.2087 -20.2087
    -8.9051  -8.9051  -8.9051  -8.9051  -8.8940  -8.8940  -8.8940  -8.8940
    -8.3847  -8.3847  -8.3847  -8.3847  -8.3695  -8.3695  -8.3695  -8.3695
    -8.3071  -8.3071  -8.3071  -8.3071  -8.2933  -8.2933  -8.2933  -8.2933
     2.9960   2.9960   2.9960   2.9960   3.0381   3.0381   3.0381   3.0381
     3.1745   3.1745   3.1745   3.1745   3.2312   3.2312   3.2312   3.2312
     3.4334   3.4334   3.4334   3.4334   3.5291   3.5291   3.5291   3.5292
     4.1821   4.1821   4.1821   4.1821   4.1967   4.1967   4.1967   4.1967
     4.4021   4.4021   4.4021   4.4021   4.4254   4.4254   4.4254   4.4254
     4.5010   4.5010   4.5010   4.5010   4.5319   4.5319   4.5319   4.5319
     7.1723   7.1723   7.1724   7.1724   7.2843   7.2843   7.2843   7.2843
     7.3607   7.3607   7.3607   7.3607   7.3829   7.3829   7.3829   7.3829
     7.6160   7.6160   7.6160   7.6160   7.6492   7.6492   7.6492   7.6492
    11.8640  11.8641  11.8641  11.8641  11.8732  11.8732  11.8733  11.8733
    12.2766  12.2766  12.2766  12.2766  12.3792  12.3792  12.3792  12.3792
    12.5672  12.5672  12.5672  12.5672  12.6140  12.6140  12.6140  12.6140
    17.1601  17.1601  17.1601  17.1601  17.2052  17.2052  17.2052  17.2053
    17.4035  17.4039  17.4040  17.4040  17.4216

     the Fermi energy is     9.7039 ev

!    total energy              =   -6260.97110233 Ry
     Harris-Foulkes estimate   =   -6260.97110233 Ry
     estimated scf accuracy    <          5.6E-10 Ry

     The total energy is the sum of the following terms:

     one-electron contribution =   -4714.02165241 Ry
     hartree contribution      =    2594.70679432 Ry
     xc contribution           =    -965.88887179 Ry
     ewald contribution        =   -3175.76734442 Ry
     smearing contrib. (-TS)   =      -0.00002805 Ry

     convergence has been achieved in  13 iterations

     Writing output data file chempot_2.save/

     General routines

     Parallel routines

   This run was terminated on:  22:12:52  16Dec2019

   JOB DONE.