     Program PWSCF v.6.4.1 starts on 17Dec2019 at 14:31: 3

     K-points division:     npool     =      40
     Reading input from scf.in

     Current dimensions of program PWSCF are:
     Max number of different atomic species (ntypx) = 10
     Max number of k-points (npk) =  40000
     Max angular momentum in pseudopotentials (lmaxx) =  3

     Subspace diagonalization in iterative solution of the eigenvalue problem:
     a serial algorithm will be used

     Message from routine setup:
     using ibrav=0 with symmetry is DISCOURAGED, use correct ibrav instead

     bravais-lattice index     =            0
     lattice parameter (alat)  =       9.9205  a.u.
     unit-cell volume          =    1425.5776 (a.u.)^3
     number of atoms/cell      =           16
     number of atomic types    =            2
     number of electrons       =       184.45
     number of Kohn-Sham states=          111
     kinetic-energy cutoff     =     120.0000  Ry
     charge density cutoff     =     480.0000  Ry
     convergence threshold     =      1.0E-08
     mixing beta               =       0.7000
     number of iterations used =            8  plain     mixing
     Exchange-correlation      = SLA PW NOGX NOGC ( 1  4  0  0 0 0)

     celldm(1)=   9.920463  celldm(2)=   0.000000  celldm(3)=   0.000000
     celldm(4)=   0.000000  celldm(5)=   0.000000  celldm(6)=   0.000000

     crystal axes: (cart. coord. in units of alat)
               a(1) = (   1.000000   0.000000   0.000000 )
               a(2) = (   0.000000   1.000000   0.000000 )
               a(3) = (   0.000000   0.000000   1.460142 )

     reciprocal axes: (cart. coord. in units 2 pi/alat)
               b(1) = (  1.000000  0.000000  0.000000 )
               b(2) = (  0.000000  1.000000  0.000000 )
               b(3) = (  0.000000  0.000000  0.684865 )

     PseudoPot. # 1 for W  read from file:
     /cluster/scratch/mnoe/QE/pps/W_ONCV_LDA-4.0.upf
     MD5 check sum: ba0307d5d4cd419d6f1d13dc49d7c13a
     Pseudo is Norm-conserving + core correction, Zval = 28.0
     Generated using ONCVPSP code by D. R. Hamann
     Using radial grid of 1380 points,  8 beta functions with:
                l(1) =   0
                l(2) =   0
                l(3) =   1
                l(4) =   1
                l(5) =   2
                l(6) =   2
                l(7) =   3
                l(8) =   3

     PseudoPot. # 2 for O  read from file:
     /cluster/scratch/mnoe/QE/pps/O_ONCV_LDA-3.0.upf
     MD5 check sum: b55cdb4f45ae2203d24ad12cf8d61a31
     Pseudo is Norm-conserving + core correction, Zval =  6.0
     Generated using ONCVPSP code by D. R. Hamann
     Using radial grid of  926 points,  5 beta functions with:
                l(1) =   0
                l(2) =   0
                l(3) =   1
                l(4) =   1
                l(5) =   2

     atomic species   valence    mass     pseudopotential
        W             28.00   183.84000     W ( 1.00)
        O              6.00    15.99940     O ( 1.00)

     16 Sym. Ops., with inversion, found (14 have fractional translation)

   Cartesian axes

     site n.     atom                  positions (alat units)
         1           W   tau(   1) = (   0.2500000   0.2500000   0.3085719  )
         2           W   tau(   2) = (   0.7500000   0.7500000   1.1515700  )
         3           W   tau(   3) = (   0.7500000   0.7500000   0.4214991  )
         4           W   tau(   4) = (   0.2500000   0.2500000   1.0386427  )
         5           O   tau(   5) = (   0.2500000   0.2500000   0.6991461  )
         6           O   tau(   6) = (   0.7500000   0.7500000   0.7609957  )
         7           O   tau(   7) = (   0.7500000   0.7500000   0.0309248  )
         8           O   tau(   8) = (   0.2500000   0.2500000   1.4292170  )
         9           O   tau(   9) = (   0.4845182   0.5154817   0.3650355  )
        10           O   tau(  10) = (   0.5154818   0.4845183   1.0951064  )
        11           O   tau(  11) = (   0.0154817   0.9845183   0.3650355  )
        12           O   tau(  12) = (   0.9845182   0.0154818   1.0951064  )
        13           O   tau(  13) = (   0.9845183   0.4845182   0.3650355  )
        14           O   tau(  14) = (   0.0154818   0.5154818   1.0951064  )
        15           O   tau(  15) = (   0.5154817   0.0154817   0.3650355  )
        16           O   tau(  16) = (   0.4845183   0.9845182   1.0951064  )

     number of k points=    60  gaussian smearing, width (Ry)=  0.0007
                       cart. coord. in units 2pi/alat
        k(    1) = (   0.0000000   0.0000000   0.0000000), wk =   0.0041152
        k(    2) = (   0.0000000   0.0000000   0.1141442), wk =   0.0082305
        k(    3) = (   0.0000000   0.0000000   0.2282883), wk =   0.0082305
        k(    4) = (   0.0000000   0.0000000  -0.3424325), wk =   0.0041152
        k(    5) = (   0.0000000   0.1111111   0.0000000), wk =   0.0164609
        k(    6) = (   0.0000000   0.1111111   0.1141442), wk =   0.0329218
        k(    7) = (   0.0000000   0.1111111   0.2282883), wk =   0.0329218
        k(    8) = (   0.0000000   0.1111111  -0.3424325), wk =   0.0164609
        k(    9) = (   0.0000000   0.2222222   0.0000000), wk =   0.0164609
        k(   10) = (   0.0000000   0.2222222   0.1141442), wk =   0.0329218
        k(   11) = (   0.0000000   0.2222222   0.2282883), wk =   0.0329218
        k(   12) = (   0.0000000   0.2222222  -0.3424325), wk =   0.0164609
        k(   13) = (   0.0000000   0.3333333   0.0000000), wk =   0.0164609
        k(   14) = (   0.0000000   0.3333333   0.1141442), wk =   0.0329218
        k(   15) = (   0.0000000   0.3333333   0.2282883), wk =   0.0329218
        k(   16) = (   0.0000000   0.3333333  -0.3424325), wk =   0.0164609
        k(   17) = (   0.0000000   0.4444444   0.0000000), wk =   0.0164609
        k(   18) = (   0.0000000   0.4444444   0.1141442), wk =   0.0329218
        k(   19) = (   0.0000000   0.4444444   0.2282883), wk =   0.0329218
        k(   20) = (   0.0000000   0.4444444  -0.3424325), wk =   0.0164609
        k(   21) = (   0.1111111   0.1111111   0.0000000), wk =   0.0164609
        k(   22) = (   0.1111111   0.1111111   0.1141442), wk =   0.0329218
        k(   23) = (   0.1111111   0.1111111   0.2282883), wk =   0.0329218
        k(   24) = (   0.1111111   0.1111111  -0.3424325), wk =   0.0164609
        k(   25) = (   0.1111111   0.2222222   0.0000000), wk =   0.0329218
        k(   26) = (   0.1111111   0.2222222   0.1141442), wk =   0.0658436
        k(   27) = (   0.1111111   0.2222222   0.2282883), wk =   0.0658436
        k(   28) = (   0.1111111   0.2222222  -0.3424325), wk =   0.0329218
        k(   29) = (   0.1111111   0.3333333   0.0000000), wk =   0.0329218
        k(   30) = (   0.1111111   0.3333333   0.1141442), wk =   0.0658436
        k(   31) = (   0.1111111   0.3333333   0.2282883), wk =   0.0658436
        k(   32) = (   0.1111111   0.3333333  -0.3424325), wk =   0.0329218
        k(   33) = (   0.1111111   0.4444444   0.0000000), wk =   0.0329218
        k(   34) = (   0.1111111   0.4444444   0.1141442), wk =   0.0658436
        k(   35) = (   0.1111111   0.4444444   0.2282883), wk =   0.0658436
        k(   36) = (   0.1111111   0.4444444  -0.3424325), wk =   0.0329218
        k(   37) = (   0.2222222   0.2222222   0.0000000), wk =   0.0164609
        k(   38) = (   0.2222222   0.2222222   0.1141442), wk =   0.0329218
        k(   39) = (   0.2222222   0.2222222   0.2282883), wk =   0.0329218
        k(   40) = (   0.2222222   0.2222222  -0.3424325), wk =   0.0164609
        k(   41) = (   0.2222222   0.3333333   0.0000000), wk =   0.0329218
        k(   42) = (   0.2222222   0.3333333   0.1141442), wk =   0.0658436
        k(   43) = (   0.2222222   0.3333333   0.2282883), wk =   0.0658436
        k(   44) = (   0.2222222   0.3333333  -0.3424325), wk =   0.0329218
        k(   45) = (   0.2222222   0.4444444   0.0000000), wk =   0.0329218
        k(   46) = (   0.2222222   0.4444444   0.1141442), wk =   0.0658436
        k(   47) = (   0.2222222   0.4444444   0.2282883), wk =   0.0658436
        k(   48) = (   0.2222222   0.4444444  -0.3424325), wk =   0.0329218
        k(   49) = (   0.3333333   0.3333333   0.0000000), wk =   0.0164609
        k(   50) = (   0.3333333   0.3333333   0.1141442), wk =   0.0329218
        k(   51) = (   0.3333333   0.3333333   0.2282883), wk =   0.0329218
        k(   52) = (   0.3333333   0.3333333  -0.3424325), wk =   0.0164609
        k(   53) = (   0.3333333   0.4444444   0.0000000), wk =   0.0329218
        k(   54) = (   0.3333333   0.4444444   0.1141442), wk =   0.0658436
        k(   55) = (   0.3333333   0.4444444   0.2282883), wk =   0.0658436
        k(   56) = (   0.3333333   0.4444444  -0.3424325), wk =   0.0329218
        k(   57) = (   0.4444444   0.4444444   0.0000000), wk =   0.0164609
        k(   58) = (   0.4444444   0.4444444   0.1141442), wk =   0.0329218
        k(   59) = (   0.4444444   0.4444444   0.2282883), wk =   0.0329218
        k(   60) = (   0.4444444   0.4444444  -0.3424325), wk =   0.0164609

     Initial potential from superposition of free atoms

     starting charge  183.99828, renormalised to  184.45000
     Starting wfcs are  116 randomized atomic wfcs

     Self-consistent Calculation

     iteration #  1     ecut=   120.00 Ry     beta= 0.70
     Davidson diagonalization with overlap
     ethr =  1.00E-02,  avg # of iterations =  5.1

     total energy              =   -3126.51177423 Ry
     Harris-Foulkes estimate   =   -3132.07650920 Ry
     estimated scf accuracy    <       6.98876526 Ry

[...]

     total energy              =   -3130.22201676 Ry
     Harris-Foulkes estimate   =   -3130.22201678 Ry
     estimated scf accuracy    <       0.00000003 Ry

     iteration # 12     ecut=   120.00 Ry     beta= 0.70
     Davidson diagonalization with overlap
     ethr =  1.51E-11,  avg # of iterations =  2.1

     End of self-consistent calculation

          k = 0.0000 0.0000 0.0000 ( 31663 PWs)   bands (ev):

   -66.2489 -66.2484 -66.2476 -66.2471 -30.6703 -30.6657 -30.6005 -30.5971
   -30.5785 -30.5785 -30.5745 -30.5745 -30.4968 -30.4968 -30.4936 -30.4936
   -20.4004 -20.4003 -20.3957 -20.3956 -20.3956 -20.3956 -20.3940 -20.3939
   -20.3891 -20.3891 -20.3877 -20.3877 -20.3862 -20.3862 -20.3848 -20.3848
   -20.3845 -20.3844 -20.3843 -20.3843 -20.3522 -20.3522 -20.3522 -20.3522
   -20.3495 -20.3495 -20.3495 -20.3495 -10.1627  -9.7744  -9.3999  -9.1396
    -9.1168  -9.0562  -8.0187  -7.8988  -7.8593  -7.8593  -7.8347  -7.8347
     1.0017   1.0018   1.0428   1.2515   1.3433   1.4541   2.3629   2.3629
     2.3738   2.4834   3.9679   3.9679   4.6370   4.6370   4.8586   5.4605
     5.4605   5.5020   5.5020   5.6699   5.6699   5.7974   5.8332   6.4833
     6.4833   6.7052   6.9803   7.0047   7.0780   7.0780   7.0928   7.0928
     8.0990   8.0990   8.2098   8.2162   8.9061   8.9110   9.5199   9.5199
    12.3211  12.3211  13.2246  13.2246  13.4614  13.5575  13.5657  14.0953
    14.0953  14.3647  14.3667  14.4849  15.4628  16.3888  16.7692

[...]

          k = 0.4444 0.4444-0.3424 ( 31626 PWs)   bands (ev):

   -66.2480 -66.2480 -66.2480 -66.2480 -30.6337 -30.6336 -30.6336 -30.6336
   -30.5812 -30.5812 -30.5786 -30.5786 -30.4935 -30.4935 -30.4911 -30.4911
   -20.3972 -20.3972 -20.3972 -20.3972 -20.3956 -20.3956 -20.3956 -20.3956
   -20.3884 -20.3884 -20.3883 -20.3883 -20.3856 -20.3856 -20.3854 -20.3854
   -20.3844 -20.3844 -20.3843 -20.3843 -20.3539 -20.3539 -20.3538 -20.3538
   -20.3480 -20.3480 -20.3479 -20.3479  -9.5289  -9.5288  -9.4880  -9.4880
    -8.6575  -8.6575  -8.6520  -8.6520  -7.9595  -7.9595  -7.9046  -7.9046
     1.1323   1.1323   1.2467   1.2467   2.9364   2.9364   2.9417   2.9418
     3.1755   3.1755   3.2011   3.2011   4.3987   4.3987   4.5893   4.5893
     5.0543   5.0543   5.1791   5.1792   5.7263   5.7263   5.8906   5.8906
     6.1002   6.1002   6.2371   6.2371   6.5477   6.5477   6.6437   6.6437
     7.3376   7.3376   7.3467   7.3467  11.0911  11.0911  11.1494  11.1494
    12.3314  12.3314  12.4394  12.4394  13.4129  13.4129  13.5079  13.5079
    15.0455  15.0455  15.2302  15.2302  17.5838  17.5839  17.7423

     the Fermi energy is     9.5399 ev

!    total energy              =   -3130.22201676 Ry
     Harris-Foulkes estimate   =   -3130.22201677 Ry
     estimated scf accuracy    <          5.5E-10 Ry

     The total energy is the sum of the following terms:

     one-electron contribution =   -2397.80326013 Ry
     hartree contribution      =    1316.87741408 Ry
     xc contribution           =    -483.35012022 Ry
     ewald contribution        =   -1565.94603653 Ry
     smearing contrib. (-TS)   =      -0.00001397 Ry

     convergence has been achieved in  12 iterations

     Writing output data file chempot_9.save/

     General routines

     Parallel routines

   This run was terminated on:  14:36:55  17Dec2019

   JOB DONE.