     Program PWSCF v.6.2 (svn rev. 14038) starts on 25Mar2020 at 21:30:11

     K-points division:     npool     =      40
     Reading input from scf.in

     Current dimensions of program PWSCF are:
     Max number of different atomic species (ntypx) = 10
     Max number of k-points (npk) =  40000
     Max angular momentum in pseudopotentials (lmaxx) =  3

     Subspace diagonalization in iterative solution of the eigenvalue problem:
     a serial algorithm will be used

     bravais-lattice index     =            0
     lattice parameter (alat)  =      14.1032  a.u.
     unit-cell volume          =    2862.4614 (a.u.)^3
     number of atoms/cell      =           32
     number of atomic types    =            2
     number of electrons       =       368.60
     number of Kohn-Sham states=          221
     kinetic-energy cutoff     =     120.0000  Ry
     charge density cutoff     =     480.0000  Ry
     convergence threshold     =      1.0E-08
     mixing beta               =       0.7000
     number of iterations used =            8  plain     mixing
     Exchange-correlation      = SLA PW NOGX NOGC ( 1  4  0  0 0 0)

     celldm(1)=  14.103179  celldm(2)=   0.000000  celldm(3)=   0.000000
     celldm(4)=   0.000000  celldm(5)=   0.000000  celldm(6)=   0.000000

     crystal axes: (cart. coord. in units of alat)
               a(1) = (   1.000000   0.000000   0.000000 )
               a(2) = (   0.000000   1.019228   0.000000 )
               a(3) = (   0.000000   0.000000   1.001192 )

     reciprocal axes: (cart. coord. in units 2 pi/alat)
               b(1) = (  1.000000  0.000000  0.000000 )
               b(2) = (  0.000000  0.981135  0.000000 )
               b(3) = (  0.000000  0.000000  0.998810 )

     PseudoPot. # 1 for W  read from file:
     /cluster/scratch/mnoe/QE/pps/W_ONCV_LDA-4.0.upf
     MD5 check sum: ba0307d5d4cd419d6f1d13dc49d7c13a
     Pseudo is Norm-conserving + core correction, Zval = 28.0
     Generated using ONCVPSP code by D. R. Hamann
     Using radial grid of 1380 points,  8 beta functions with:
                l(1) =   0
                l(2) =   0
                l(3) =   1
                l(4) =   1
                l(5) =   2
                l(6) =   2
                l(7) =   3
                l(8) =   3

     PseudoPot. # 2 for O  read from file:
     /cluster/scratch/mnoe/QE/pps/O_ONCV_LDA-3.0.upf
     MD5 check sum: a1bd6164e7280c17a38c229939bfbd54
     Pseudo is Norm-conserving + core correction, Zval =  6.0
     Generated using ONCVPSP code by D. R. Hamann
     Using radial grid of  926 points,  5 beta functions with:
                l(1) =   0
                l(2) =   0
                l(3) =   1
                l(4) =   1
                l(5) =   2

     atomic species   valence    mass     pseudopotential
        W             28.00   183.84000     W ( 1.00)
        O              6.00    15.99940     O ( 1.00)

      4 Sym. Ops. (no inversion) found ( 3 have fractional translation)

   Cartesian axes

     site n.     atom                  positions (alat units)
         1           W   tau(   1) = (   0.2388638   0.2770109   0.0062628  )
         2           W   tau(   2) = (   0.7568823   0.7422172  -0.0107728  )
         3           W   tau(   3) = (   0.2611362   0.2326032   0.5068586  )
         4           W   tau(   4) = (   0.7431176   0.7866250   0.4898230  )
         5           W   tau(   5) = (   0.7611361   0.2770109   0.4943330  )
         6           W   tau(   6) = (   0.2431177   0.7422172   0.5113686  )
         7           W   tau(   7) = (   0.7388638   0.2326032  -0.0062628  )
         8           W   tau(   8) = (   0.2568823   0.7866250   0.0107728  )
         9           O   tau(   9) = (   0.2327181   0.0056825  -0.0015127  )
        10           O   tau(  10) = (   0.7659597  -0.0056825  -0.0068076  )
        11           O   tau(  11) = (   0.2672819   0.5039316   0.4990831  )
        12           O   tau(  12) = (   0.7340402   0.5152966   0.4937881  )
        13           O   tau(  13) = (   0.7672818   0.0056825   0.5021085  )
        14           O   tau(  14) = (   0.2340402  -0.0056825   0.5074034  )
        15           O   tau(  15) = (   0.7327180   0.5039316   0.0015127  )
        16           O   tau(  16) = (   0.2659597   0.5152966   0.0068076  )
        17           O   tau(  17) = (   0.5033979   0.2364818   0.4747405  )
        18           O   tau(  18) = (   0.4984696   0.7808503   0.5264512  )
        19           O   tau(  19) = (  -0.0033980   0.2731322   0.9753363  )
        20           O   tau(  20) = (   0.0015303   0.7479919   0.0258552  )
        21           O   tau(  21) = (   0.4966021   0.2364818   0.0258552  )
        22           O   tau(  22) = (   0.5015304   0.7808503   0.9753363  )
        23           O   tau(  23) = (   0.0033979   0.2731322   0.5264512  )
        24           O   tau(  24) = (  -0.0015304   0.7479919   0.4747405  )
        25           O   tau(  25) = (   0.7241754   0.2553592   0.7477708  )
        26           O   tau(  26) = (   0.2758245   0.7725575   0.2546543  )
        27           O   tau(  27) = (   0.7758247   0.2542548   0.2471751  )
        28           O   tau(  28) = (   0.2241755   0.7562847   0.7552500  )
        29           O   tau(  29) = (   0.2758245   0.2553592   0.7540165  )
        30           O   tau(  30) = (   0.7241754   0.7725575   0.2459415  )
        31           O   tau(  31) = (   0.2241755   0.2542548   0.2534208  )
        32           O   tau(  32) = (   0.7758247   0.7562847   0.7465372  )

     number of k points=    64  gaussian smearing, width (Ry)=  0.0007
                       cart. coord. in units 2pi/alat
        k(    1) = (   0.0000000   0.0000000   0.0000000), wk =   0.0092593
        k(    2) = (   0.0000000   0.0000000   0.1664683), wk =   0.0185185
        k(    3) = (   0.0000000   0.0000000   0.3329366), wk =   0.0185185
        k(    4) = (   0.0000000   0.0000000  -0.4994049), wk =   0.0092593
        k(    5) = (   0.0000000   0.1635224   0.0000000), wk =   0.0185185
        k(    6) = (   0.0000000   0.1635224   0.1664683), wk =   0.0370370
        k(    7) = (   0.0000000   0.1635224   0.3329366), wk =   0.0370370
        k(    8) = (   0.0000000   0.1635224  -0.4994049), wk =   0.0185185
        k(    9) = (   0.0000000   0.3270449   0.0000000), wk =   0.0185185
        k(   10) = (   0.0000000   0.3270449   0.1664683), wk =   0.0370370
        k(   11) = (   0.0000000   0.3270449   0.3329366), wk =   0.0370370
        k(   12) = (   0.0000000   0.3270449  -0.4994049), wk =   0.0185185
        k(   13) = (   0.0000000  -0.4905673   0.0000000), wk =   0.0092593
        k(   14) = (   0.0000000  -0.4905673   0.1664683), wk =   0.0185185
        k(   15) = (   0.0000000  -0.4905673   0.3329366), wk =   0.0185185
        k(   16) = (   0.0000000  -0.4905673  -0.4994049), wk =   0.0092593
        k(   17) = (   0.1666667   0.0000000   0.0000000), wk =   0.0185185
        k(   18) = (   0.1666667   0.0000000   0.1664683), wk =   0.0370370
        k(   19) = (   0.1666667   0.0000000   0.3329366), wk =   0.0370370
        k(   20) = (   0.1666667   0.0000000  -0.4994049), wk =   0.0185185
        k(   21) = (   0.1666667   0.1635224   0.0000000), wk =   0.0370370
        k(   22) = (   0.1666667   0.1635224   0.1664683), wk =   0.0740741
        k(   23) = (   0.1666667   0.1635224   0.3329366), wk =   0.0740741
        k(   24) = (   0.1666667   0.1635224  -0.4994049), wk =   0.0370370
        k(   25) = (   0.1666667   0.3270449   0.0000000), wk =   0.0370370
        k(   26) = (   0.1666667   0.3270449   0.1664683), wk =   0.0740741
        k(   27) = (   0.1666667   0.3270449   0.3329366), wk =   0.0740741
        k(   28) = (   0.1666667   0.3270449  -0.4994049), wk =   0.0370370
        k(   29) = (   0.1666667  -0.4905673   0.0000000), wk =   0.0185185
        k(   30) = (   0.1666667  -0.4905673   0.1664683), wk =   0.0370370
        k(   31) = (   0.1666667  -0.4905673   0.3329366), wk =   0.0370370
        k(   32) = (   0.1666667  -0.4905673  -0.4994049), wk =   0.0185185
        k(   33) = (   0.3333333   0.0000000   0.0000000), wk =   0.0185185
        k(   34) = (   0.3333333   0.0000000   0.1664683), wk =   0.0370370
        k(   35) = (   0.3333333   0.0000000   0.3329366), wk =   0.0370370
        k(   36) = (   0.3333333   0.0000000  -0.4994049), wk =   0.0185185
        k(   37) = (   0.3333333   0.1635224   0.0000000), wk =   0.0370370
        k(   38) = (   0.3333333   0.1635224   0.1664683), wk =   0.0740741
        k(   39) = (   0.3333333   0.1635224   0.3329366), wk =   0.0740741
        k(   40) = (   0.3333333   0.1635224  -0.4994049), wk =   0.0370370
        k(   41) = (   0.3333333   0.3270449   0.0000000), wk =   0.0370370
        k(   42) = (   0.3333333   0.3270449   0.1664683), wk =   0.0740741
        k(   43) = (   0.3333333   0.3270449   0.3329366), wk =   0.0740741
        k(   44) = (   0.3333333   0.3270449  -0.4994049), wk =   0.0370370
        k(   45) = (   0.3333333  -0.4905673   0.0000000), wk =   0.0185185
        k(   46) = (   0.3333333  -0.4905673   0.1664683), wk =   0.0370370
        k(   47) = (   0.3333333  -0.4905673   0.3329366), wk =   0.0370370
        k(   48) = (   0.3333333  -0.4905673  -0.4994049), wk =   0.0185185
        k(   49) = (  -0.5000000   0.0000000   0.0000000), wk =   0.0092593
        k(   50) = (  -0.5000000   0.0000000   0.1664683), wk =   0.0185185
        k(   51) = (  -0.5000000   0.0000000   0.3329366), wk =   0.0185185
        k(   52) = (  -0.5000000   0.0000000  -0.4994049), wk =   0.0092593
        k(   53) = (  -0.5000000   0.1635224   0.0000000), wk =   0.0185185
        k(   54) = (  -0.5000000   0.1635224   0.1664683), wk =   0.0370370
        k(   55) = (  -0.5000000   0.1635224   0.3329366), wk =   0.0370370
        k(   56) = (  -0.5000000   0.1635224  -0.4994049), wk =   0.0185185
        k(   57) = (  -0.5000000   0.3270449   0.0000000), wk =   0.0185185
        k(   58) = (  -0.5000000   0.3270449   0.1664683), wk =   0.0370370
        k(   59) = (  -0.5000000   0.3270449   0.3329366), wk =   0.0370370
        k(   60) = (  -0.5000000   0.3270449  -0.4994049), wk =   0.0185185
        k(   61) = (  -0.5000000  -0.4905673   0.0000000), wk =   0.0092593
        k(   62) = (  -0.5000000  -0.4905673   0.1664683), wk =   0.0185185
        k(   63) = (  -0.5000000  -0.4905673   0.3329366), wk =   0.0185185
        k(   64) = (  -0.5000000  -0.4905673  -0.4994049), wk =   0.0092593

     Initial potential from superposition of free atoms

     starting charge  367.99656, renormalised to  368.60000
     Starting wfc are  232 randomized atomic wfcs

     Self-consistent Calculation

     iteration #  1     ecut=   120.00 Ry     beta= 0.70
     Davidson diagonalization with overlap
     ethr =  1.00E-02,  avg # of iterations =  5.2

     total energy              =   -6253.40310723 Ry
     Harris-Foulkes estimate   =   -6264.32580611 Ry
     estimated scf accuracy    <      13.75724770 Ry

[...]

     total energy              =   -6260.69396038 Ry
     Harris-Foulkes estimate   =   -6260.69396040 Ry
     estimated scf accuracy    <       0.00000007 Ry

     iteration # 15     ecut=   120.00 Ry     beta= 0.70
     Davidson diagonalization with overlap
     ethr =  1.85E-11,  avg # of iterations =  1.8

     End of self-consistent calculation

          k = 0.0000 0.0000 0.0000 ( 63523 PWs)   bands (ev):

   -66.4030 -66.4025 -66.4023 -66.4023 -66.4018 -66.4017 -66.4016 -66.4010
   -30.7959 -30.7906 -30.7895 -30.7843 -30.7607 -30.7543 -30.7530 -30.7523
   -30.7419 -30.7363 -30.7363 -30.7339 -30.7133 -30.7132 -30.7096 -30.7085
   -30.6656 -30.6652 -30.6644 -30.6620 -30.6505 -30.6501 -30.6464 -30.6446
   -20.5594 -20.5593 -20.5593 -20.5593 -20.5592 -20.5592 -20.5591 -20.5590
   -20.5474 -20.5470 -20.5466 -20.5461 -20.5440 -20.5432 -20.5432 -20.5423
   -20.5418 -20.5416 -20.5413 -20.5405 -20.5399 -20.5397 -20.5392 -20.5388
   -20.5386 -20.5382 -20.5378 -20.5376 -20.5375 -20.5372 -20.5371 -20.5363
   -20.5352 -20.5346 -20.5345 -20.5336 -20.5330 -20.5325 -20.5324 -20.5317
   -20.5220 -20.5213 -20.5204 -20.5196 -20.5194 -20.5187 -20.5182 -20.5174
   -20.5164 -20.5154 -20.5152 -20.5149 -20.5144 -20.5140 -20.5132 -20.5125
   -10.2062  -9.8898  -9.8481  -9.8449  -9.5442  -9.5350  -9.4831  -9.3009
    -9.2812  -9.2518  -9.2314  -9.2294  -8.0815  -8.0209  -8.0122  -8.0073
    -8.0033  -7.9617  -7.9597  -7.9530  -7.9391  -7.9378  -7.8949  -7.8905
     0.8555   0.8662   0.9067   0.9174   0.9370   0.9705   0.9973   1.1056
     1.2019   1.2039   1.2248   1.4414   2.2468   2.2761   2.2992   2.3549
     2.3931   2.4188   4.0621   4.0966   4.1965   4.2524   4.3818   4.3918
     4.4053   4.4302   4.4391   4.4684   4.5496   4.5604   4.9035   5.0705
     5.0938   5.2850   5.3115   5.3130   5.3406   5.3556   5.3742   5.4474
     5.4576   5.5093   5.6945   5.7417   5.7595   5.8378   5.8464   5.8961
     5.9244   6.0931   6.1000   6.1567   6.1821   6.4767   6.6631   6.6996
     6.7251   6.7502   6.7527   6.8011   6.8167   6.8265   6.8968   6.9128
     6.9483   6.9649   7.8385   7.8587   7.8877   7.8977   7.9062   7.9389
     8.9554   8.9986   9.2686   9.2824   9.3156   9.3332  12.1381  12.2017
    12.2715  12.2725  12.3124  12.3346  12.3374  12.3482  12.4750  12.6361
    12.7389  12.7743  13.2063  13.3410  13.5564  13.5600  13.8091  13.8197
    14.1731  14.1802  14.3715  14.4833  14.6652  14.6849  15.4525  15.6180
    15.6693  16.7296  16.7938  16.8240  16.8652

[...]

          k = 0.3333-0.4906-0.4994 ( 63528 PWs)   bands (ev):

[...]

          k =-0.5000 0.0000 0.0000 ( 63530 PWs)   bands (ev):

[...]

          k =-0.5000-0.4906-0.4994 ( 63568 PWs)   bands (ev):

   -66.4021 -66.4021 -66.4021 -66.4021 -66.4020 -66.4020 -66.4020 -66.4020
   -30.7555 -30.7555 -30.7553 -30.7553 -30.7547 -30.7547 -30.7546 -30.7546
   -30.7093 -30.7093 -30.7091 -30.7091 -30.7082 -30.7082 -30.7076 -30.7076
   -30.6909 -30.6909 -30.6902 -30.6902 -30.6896 -30.6895 -30.6891 -30.6891
   -20.5593 -20.5593 -20.5593 -20.5593 -20.5592 -20.5592 -20.5592 -20.5592
   -20.5446 -20.5446 -20.5446 -20.5446 -20.5442 -20.5442 -20.5442 -20.5442
   -20.5403 -20.5403 -20.5401 -20.5401 -20.5400 -20.5400 -20.5395 -20.5395
   -20.5390 -20.5390 -20.5384 -20.5384 -20.5382 -20.5382 -20.5379 -20.5379
   -20.5338 -20.5338 -20.5337 -20.5337 -20.5332 -20.5332 -20.5331 -20.5330
   -20.5188 -20.5188 -20.5188 -20.5188 -20.5183 -20.5183 -20.5180 -20.5180
   -20.5165 -20.5165 -20.5162 -20.5162 -20.5158 -20.5157 -20.5157 -20.5157
    -9.2113  -9.2112  -9.2060  -9.2059  -9.1983  -9.1983  -9.1979  -9.1978
    -8.7102  -8.7102  -8.6890  -8.6890  -8.6810  -8.6810  -8.6786  -8.6786
    -8.6747  -8.6746  -8.6597  -8.6597  -8.6585  -8.6585  -8.6469  -8.6469
     2.7179   2.7179   2.7230   2.7230   2.7824   2.7825   2.7850   2.7850
     2.8703   2.8703   2.8737   2.8738   2.9362   2.9363   2.9432   2.9432
     3.0780   3.0781   3.1213   3.1213   3.2144   3.2145   3.2321   3.2322
     3.8534   3.8535   3.8656   3.8656   3.8880   3.8880   3.8880   3.8880
     3.9575   3.9575   3.9694   3.9695   3.9995   3.9996   4.0130   4.0130
     4.0849   4.0849   4.0964   4.0964   4.1503   4.1503   4.1559   4.1559
     6.9016   6.9016   6.9215   6.9215   6.9939   6.9939   7.0280   7.0280
     7.0468   7.0469   7.0563   7.0563   7.0987   7.0988   7.0999   7.0999
     7.2987   7.2988   7.3013   7.3014   7.3338   7.3338   7.3460   7.3460
    11.5819  11.5819  11.5876  11.5876  11.6254  11.6254  11.6311  11.6311
    11.8007  11.8007  11.8269  11.8269  11.9102  11.9102  11.9439  11.9439
    11.9903  11.9903  12.0161  12.0161  12.0733  12.0733  12.0817  12.0817
    16.8490  16.8490  16.8512  16.8513  16.8990  16.8990  16.9243  16.9243
    17.4095  17.4113  17.4282  17.4292  17.4292

     the Fermi energy is     9.3367 ev

!    total energy              =   -6260.69396039 Ry
     Harris-Foulkes estimate   =   -6260.69396039 Ry
     estimated scf accuracy    <          2.3E-09 Ry

     The total energy is the sum of the following terms:

     one-electron contribution =   -4809.11974987 Ry
     hartree contribution      =    2638.42952685 Ry
     xc contribution           =    -966.33181500 Ry
     ewald contribution        =   -3123.67187663 Ry
     smearing contrib. (-TS)   =      -0.00004573 Ry

     convergence has been achieved in  15 iterations

     Writing output data file Landau_13.save

     General routines

     Parallel routines

   This run was terminated on:  22: 5:20  25Mar2020

   JOB DONE.