     Program PWSCF v.6.2 (svn rev. 14038) starts on  6Mar2020 at 22:13: 5

     K-points division:     npool     =      40
     Reading input from rscf.in

     Current dimensions of program PWSCF are:
     Max number of different atomic species (ntypx) = 10
     Max number of k-points (npk) =  40000
     Max angular momentum in pseudopotentials (lmaxx) =  3

     Subspace diagonalization in iterative solution of the eigenvalue problem:
     a serial algorithm will be used

     bravais-lattice index     =            0
     lattice parameter (alat)  =      13.8397  a.u.
     unit-cell volume          =    2804.9816 (a.u.)^3
     number of atoms/cell      =           32
     number of atomic types    =            2
     number of electrons       =       368.00
     number of Kohn-Sham states=          221
     kinetic-energy cutoff     =     120.0000  Ry
     charge density cutoff     =     480.0000  Ry
     convergence threshold     =      1.0E-08
     mixing beta               =       0.7000
     number of iterations used =            8  plain     mixing
     Exchange-correlation      = SLA PW NOGX NOGC ( 1  4  0  0 0 0)
     nstep                     =           50

     celldm(1)=  13.839685  celldm(2)=   0.000000  celldm(3)=   0.000000
     celldm(4)=   0.000000  celldm(5)=   0.000000  celldm(6)=   0.000000

     crystal axes: (cart. coord. in units of alat)
               a(1) = (   1.000000   0.000000   0.000000 )
               a(2) = (   0.000000   1.058160   0.000000 )
               a(3) = (   0.000000   0.000000   1.000000 )

     reciprocal axes: (cart. coord. in units 2 pi/alat)
               b(1) = (  1.000000  0.000000  0.000000 )
               b(2) = (  0.000000  0.945037  0.000000 )
               b(3) = (  0.000000  0.000000  1.000000 )

     PseudoPot. # 1 for W  read from file:
     /cluster/scratch/mnoe/QE/pps/W_ONCV_LDA-4.0.upf
     MD5 check sum: ba0307d5d4cd419d6f1d13dc49d7c13a
     Pseudo is Norm-conserving + core correction, Zval = 28.0
     Generated using ONCVPSP code by D. R. Hamann
     Using radial grid of 1380 points,  8 beta functions with:
                l(1) =   0
                l(2) =   0
                l(3) =   1
                l(4) =   1
                l(5) =   2
                l(6) =   2
                l(7) =   3
                l(8) =   3

     PseudoPot. # 2 for O  read from file:
     /cluster/scratch/mnoe/QE/pps/O_ONCV_LDA-3.0.upf
     MD5 check sum: a1bd6164e7280c17a38c229939bfbd54
     Pseudo is Norm-conserving + core correction, Zval =  6.0
     Generated using ONCVPSP code by D. R. Hamann
     Using radial grid of  926 points,  5 beta functions with:
                l(1) =   0
                l(2) =   0
                l(3) =   1
                l(4) =   1
                l(5) =   2

     atomic species   valence    mass     pseudopotential
        W             28.00   183.84000     W ( 1.00)
        O              6.00    15.99940     O ( 1.00)

      8 Sym. Ops. (no inversion) found ( 7 have fractional translation)

   Cartesian axes

     site n.     atom                  positions (alat units)
         1           W   tau(   1) = (   0.2673400   0.2937315  -0.9817500  )
         2           W   tau(   2) = (   0.7317500   0.7644286  -0.9826600  )
         3           W   tau(   3) = (   0.2326600   0.2353485  -0.4817500  )
         4           W   tau(   4) = (   0.7682500   0.8228116  -0.4826600  )
         5           W   tau(   5) = (   0.7326600   0.2937315  -0.5182500  )
         6           W   tau(   6) = (   0.2682500   0.7644286  -0.5173400  )
         7           W   tau(   7) = (   0.7673400   0.2353485  -1.0182500  )
         8           W   tau(   8) = (   0.2317500   0.8228116  -1.0173400  )
         9           O   tau(   9) = (   0.2869600   0.0075769  -0.9632200  )
        10           O   tau(  10) = (   0.7132200   1.0505832  -0.9630400  )
        11           O   tau(  11) = (   0.2130400   0.5215032  -0.4632200  )
        12           O   tau(  12) = (   0.7867800   0.5366570  -0.4630400  )
        13           O   tau(  13) = (   0.7130400   0.0075769  -0.5367800  )
        14           O   tau(  14) = (   0.2867800   1.0505832  -0.5369600  )
        15           O   tau(  15) = (   0.7869600   0.5215032  -1.0367800  )
        16           O   tau(  16) = (   0.2132200   0.5366570  -1.0369600  )
        17           O   tau(  17) = (   0.4923000   0.3112578  -0.5400928  )
        18           O   tau(  18) = (   0.5050500   0.7605526  -0.4599072  )
        19           O   tau(  19) = (   0.0077000   0.2178223  -1.0400928  )
        20           O   tau(  20) = (   0.9949500   0.8266876  -0.9599072  )
        21           O   tau(  21) = (   0.5077000   0.3112578  -0.9599072  )
        22           O   tau(  22) = (   0.4949500   0.7605526  -1.0400928  )
        23           O   tau(  23) = (   0.9922999   0.2178223  -0.4599072  )
        24           O   tau(  24) = (   0.0050500   0.8266876  -0.5400928  )
        25           O   tau(  25) = (   0.7099072   0.2314725  -0.2550500  )
        26           O   tau(  26) = (   0.2900927   0.7469023  -0.7577000  )
        27           O   tau(  27) = (   0.7900928   0.2976075  -0.7550500  )
        28           O   tau(  28) = (   0.2099072   0.8403378  -0.2577000  )
        29           O   tau(  29) = (   0.2900927   0.2314725  -1.2449500  )
        30           O   tau(  30) = (   0.7099072   0.7469023  -0.7423000  )
        31           O   tau(  31) = (   0.2099072   0.2976075  -0.7449500  )
        32           O   tau(  32) = (   0.7900928   0.8403378  -1.2423000  )

     number of k points=    40  gaussian smearing, width (Ry)=  0.0007
                       cart. coord. in units 2pi/alat
        k(    1) = (   0.0000000   0.0000000   0.0000000), wk =   0.0092593
        k(    2) = (   0.0000000   0.0000000   0.1666667), wk =   0.0370370
        k(    3) = (   0.0000000   0.0000000   0.3333333), wk =   0.0370370
        k(    4) = (   0.0000000   0.0000000  -0.5000000), wk =   0.0185185
        k(    5) = (   0.0000000   0.1575061   0.0000000), wk =   0.0185185
        k(    6) = (   0.0000000   0.1575061   0.1666667), wk =   0.0740741
        k(    7) = (   0.0000000   0.1575061   0.3333333), wk =   0.0740741
        k(    8) = (   0.0000000   0.1575061  -0.5000000), wk =   0.0370370
        k(    9) = (   0.0000000   0.3150122   0.0000000), wk =   0.0185185
        k(   10) = (   0.0000000   0.3150122   0.1666667), wk =   0.0740741
        k(   11) = (   0.0000000   0.3150122   0.3333333), wk =   0.0740741
        k(   12) = (   0.0000000   0.3150122  -0.5000000), wk =   0.0370370
        k(   13) = (   0.0000000  -0.4725183   0.0000000), wk =   0.0092593
        k(   14) = (   0.0000000  -0.4725183   0.1666667), wk =   0.0370370
        k(   15) = (   0.0000000  -0.4725183   0.3333333), wk =   0.0370370
        k(   16) = (   0.0000000  -0.4725183  -0.5000000), wk =   0.0185185
        k(   17) = (   0.1666667   0.0000000   0.1666667), wk =   0.0370370
        k(   18) = (   0.1666667   0.0000000   0.3333333), wk =   0.0740741
        k(   19) = (   0.1666667   0.0000000  -0.5000000), wk =   0.0370370
        k(   20) = (   0.1666667   0.1575061   0.1666667), wk =   0.0740741
        k(   21) = (   0.1666667   0.1575061   0.3333333), wk =   0.1481481
        k(   22) = (   0.1666667   0.1575061  -0.5000000), wk =   0.0740741
        k(   23) = (   0.1666667   0.3150122   0.1666667), wk =   0.0740741
        k(   24) = (   0.1666667   0.3150122   0.3333333), wk =   0.1481481
        k(   25) = (   0.1666667   0.3150122  -0.5000000), wk =   0.0740741
        k(   26) = (   0.1666667  -0.4725183   0.1666667), wk =   0.0370370
        k(   27) = (   0.1666667  -0.4725183   0.3333333), wk =   0.0740741
        k(   28) = (   0.1666667  -0.4725183  -0.5000000), wk =   0.0370370
        k(   29) = (   0.3333333   0.0000000   0.3333333), wk =   0.0370370
        k(   30) = (   0.3333333   0.0000000  -0.5000000), wk =   0.0370370
        k(   31) = (   0.3333333   0.1575061   0.3333333), wk =   0.0740741
        k(   32) = (   0.3333333   0.1575061  -0.5000000), wk =   0.0740741
        k(   33) = (   0.3333333   0.3150122   0.3333333), wk =   0.0740741
        k(   34) = (   0.3333333   0.3150122  -0.5000000), wk =   0.0740741
        k(   35) = (   0.3333333  -0.4725183   0.3333333), wk =   0.0370370
        k(   36) = (   0.3333333  -0.4725183  -0.5000000), wk =   0.0370370
        k(   37) = (  -0.5000000   0.0000000  -0.5000000), wk =   0.0092593
        k(   38) = (  -0.5000000   0.1575061  -0.5000000), wk =   0.0185185
        k(   39) = (  -0.5000000   0.3150122  -0.5000000), wk =   0.0185185
        k(   40) = (  -0.5000000  -0.4725183  -0.5000000), wk =   0.0092593

     Initial potential from superposition of free atoms

     starting charge  367.99656, renormalised to  368.00000
     Starting wfc are  232 randomized atomic wfcs

     Self-consistent Calculation

     iteration #  1     ecut=   120.00 Ry     beta= 0.70
     Davidson diagonalization with overlap
     ethr =  1.00E-02,  avg # of iterations =  4.5

     total energy              =   -6253.63573654 Ry
     Harris-Foulkes estimate   =   -6264.48238772 Ry
     estimated scf accuracy    <      13.69634159 Ry

[...]

     End of self-consistent calculation

          k = 0.0000 0.0000 0.0000 ( 62239 PWs)   bands (ev):

   -66.2425 -66.2420 -66.2414 -66.2414 -66.2410 -66.2410 -66.2404 -66.2400
   -30.6653 -30.6635 -30.6562 -30.6562 -30.6333 -30.6333 -30.6315 -30.6304
   -30.5647 -30.5634 -30.5606 -30.5606 -30.5349 -30.5349 -30.5281 -30.5275
   -30.4303 -30.4264 -30.4264 -30.4225 -30.3798 -30.3766 -30.3766 -30.3734
   -20.4236 -20.4233 -20.4233 -20.4233 -20.4226 -20.4226 -20.4226 -20.4223
   -20.4045 -20.4043 -20.4042 -20.4042 -20.4031 -20.4031 -20.4030 -20.4028
   -20.3979 -20.3979 -20.3975 -20.3975 -20.3974 -20.3974 -20.3971 -20.3971
   -20.3897 -20.3891 -20.3885 -20.3885 -20.3877 -20.3875 -20.3875 -20.3872
   -20.3842 -20.3840 -20.3839 -20.3827 -20.3804 -20.3804 -20.3802 -20.3797
   -20.3792 -20.3780 -20.3780 -20.3771 -20.3756 -20.3749 -20.3749 -20.3744
   -20.3685 -20.3682 -20.3673 -20.3672 -20.3668 -20.3668 -20.3657 -20.3656
    -9.9979  -9.8118  -9.5297  -9.5297  -9.3986  -9.3986  -9.1701  -9.1391
    -8.4033  -8.4005  -8.3706  -8.3706  -8.0825  -7.9887  -7.9079  -7.8970
    -7.8970  -7.8602  -7.8131  -7.8131  -7.4933  -7.3955  -7.3955  -7.3072
     1.1141   1.1170   1.2200   1.2200   1.2961   1.2961   1.4921   1.4969
     2.1805   2.1967   2.3170   2.3170   2.3623   2.4118   2.7643   2.8099
     2.9408   2.9408   4.3010   4.3010   4.3337   4.4825   4.4896   4.4897
     4.6159   4.6159   4.8579   5.1791   5.3787   5.3787   5.3841   5.4029
     5.4411   5.4411   5.5655   5.6224   5.6224   5.6838   5.7445   5.7506
     5.7506   5.7695   5.8135   5.8685   5.8685   5.8996   6.0249   6.0888
     6.1419   6.2470   6.5917   6.7338   6.7338   6.8206   6.8451   6.8451
     6.8905   7.0011   7.0011   7.0026   7.0395   7.0395   7.4700   7.4700
     7.4820   7.5195   7.7109   7.7251   7.8955   7.9953   7.9953   8.0962
     9.6921   9.7518   9.8571   9.8571   9.8758  10.1150  11.9861  11.9861
[...]
W        0.232659994   0.222412986  -0.481749996    0   0   0
W        0.768249964   0.777587075  -0.482659994    0   0   0
W        0.732659971   0.277587031  -0.518249987    0   0   0
W        0.268249987   0.722412969  -0.517340006    0   0   0
W        0.767339950   0.222412986  -1.018249987    0   0   0
W        0.231749996   0.777587075  -1.017339973    0   0   0
O        0.286960012   0.007160448  -0.963220004    0   0   0
O        0.713219981   0.992839535  -0.963040020    0   0   0
O        0.213039988   0.492839579  -0.463220004    0   0   0
O        0.786780005   0.507160465  -0.463039988    0   0   0
O        0.713039997   0.007160448  -0.536779996    0   0   0
O        0.286779996   0.992839535  -0.536960012    0   0   0
O        0.786959989   0.492839579  -1.036780028    0   0   0
O        0.213220004   0.507160465  -1.036960012    0   0   0
O        0.492300042   0.294149999  -0.540092763    0   0   0
O        0.505050010   0.718750006  -0.459907174    0   0   0
O        0.007700026   0.205850001  -1.040092763    0   0   0
O        0.994950023   0.781250036  -0.959907245    0   0   0
O        0.507700024   0.294149999  -0.959907245    0   0   0
O        0.494949990   0.718750006  -1.040092763    0   0   0
O        0.992299944   0.205850001  -0.459907174    0   0   0
O        0.005050004   0.781250036  -0.540092763    0   0   0
O        0.709907181   0.218750000  -0.255050027    0   0   0
O        0.290092740   0.705850052  -0.757700024    0   0   0
O        0.790092832   0.281250015  -0.755050010    0   0   0
O        0.209907221   0.794149990  -0.257700049    0   0   0
O        0.290092740   0.218750000  -1.244950046    0   0   0
O        0.709907181   0.705850052  -0.742300042    0   0   0
O        0.209907221   0.281250015  -0.744949990    0   0   0
O        0.790092832   0.794149990  -1.242299967    0   0   0
End final coordinates

     A final scf calculation at the relaxed structure.
     The G-vectors are recalculated for the final unit cell
     Results may differ from those at the preceding step.

     bravais-lattice index     =            0
     lattice parameter (alat)  =      13.8397  a.u.
     unit-cell volume          =    2729.5980 (a.u.)^3
     number of atoms/cell      =           32
     number of atomic types    =            2
     number of electrons       =       368.00
     number of Kohn-Sham states=          221
     kinetic-energy cutoff     =     120.0000  Ry
     charge density cutoff     =     480.0000  Ry
     convergence threshold     =      1.0E-10
     mixing beta               =       0.7000
     number of iterations used =            8  plain     mixing
     Exchange-correlation      = SLA PW NOGX NOGC ( 1  4  0  0 0 0)

     celldm(1)=  13.839685  celldm(2)=   0.000000  celldm(3)=   0.000000
     celldm(4)=   0.000000  celldm(5)=   0.000000  celldm(6)=   0.000000

     crystal axes: (cart. coord. in units of alat)
               a(1) = (   1.008249   0.000000   0.000000 )
               a(2) = (   0.000000   1.012942   0.000000 )
               a(3) = (   0.000000   0.000000   1.008249 )

     reciprocal axes: (cart. coord. in units 2 pi/alat)
               b(1) = (  0.991819  0.000000  0.000000 )
               b(2) = (  0.000000  0.987223  0.000000 )
               b(3) = (  0.000000  0.000000  0.991819 )

     PseudoPot. # 1 for W  read from file:
     /cluster/scratch/mnoe/QE/pps/W_ONCV_LDA-4.0.upf
     MD5 check sum: ba0307d5d4cd419d6f1d13dc49d7c13a
     Pseudo is Norm-conserving + core correction, Zval = 28.0
     Generated using ONCVPSP code by D. R. Hamann
     Using radial grid of 1380 points,  8 beta functions with:
                l(1) =   0
                l(2) =   0
                l(3) =   1
                l(4) =   1
                l(5) =   2
                l(6) =   2
                l(7) =   3
                l(8) =   3

     PseudoPot. # 2 for O  read from file:
     /cluster/scratch/mnoe/QE/pps/O_ONCV_LDA-3.0.upf
     MD5 check sum: a1bd6164e7280c17a38c229939bfbd54
     Pseudo is Norm-conserving + core correction, Zval =  6.0
     Generated using ONCVPSP code by D. R. Hamann
     Using radial grid of  926 points,  5 beta functions with:
                l(1) =   0
                l(2) =   0
                l(3) =   1
                l(4) =   1
                l(5) =   2

     atomic species   valence    mass     pseudopotential
        W             28.00   183.84000     W ( 1.00)
        O              6.00    15.99940     O ( 1.00)

      8 Sym. Ops. (no inversion) found ( 7 have fractional translation)

   Cartesian axes

     site n.     atom                  positions (alat units)
         1           W   tau(   1) = (   0.2695453   0.2811795  -0.9898483  )
         2           W   tau(   2) = (   0.7377861   0.7317624  -0.9907658  )
         3           W   tau(   3) = (   0.2345792   0.2252914  -0.4857239  )
         4           W   tau(   4) = (   0.7745872   0.7876505  -0.4866414  )
         5           W   tau(   5) = (   0.7387036   0.2811795  -0.5225250  )
         6           W   tau(   6) = (   0.2704628   0.7317624  -0.5216075  )
         7           W   tau(   7) = (   0.7736697   0.2252914  -1.0266494  )
         8           W   tau(   8) = (   0.2336617   0.7876505  -1.0257319  )
         9           O   tau(   9) = (   0.2893271   0.0072531  -0.9711655  )
        10           O   tau(  10) = (   0.7191033   1.0056888  -0.9709840  )
        11           O   tau(  11) = (   0.2147973   0.4992179  -0.4670411  )
        12           O   tau(  12) = (   0.7932701   0.5137241  -0.4668596  )
        13           O   tau(  13) = (   0.7189218   0.0072531  -0.5412078  )
        14           O   tau(  14) = (   0.2891456   1.0056888  -0.5413893  )
        15           O   tau(  15) = (   0.7934515   0.4992179  -1.0453323  )
        16           O   tau(  16) = (   0.2149788   0.5137241  -1.0455138  )
        17           O   tau(  17) = (   0.4963610   0.2979569  -0.5445479  )
        18           O   tau(  18) = (   0.5092161   0.7280520  -0.4637009  )
        19           O   tau(  19) = (   0.0077635   0.2085141  -1.0486724  )
        20           O   tau(  20) = (   1.0031573   0.7913609  -0.9678254  )
        21           O   tau(  21) = (   0.5118880   0.2979569  -0.9678254  )
        22           O   tau(  22) = (   0.4990328   0.7280520  -1.0486724  )
        23           O   tau(  23) = (   1.0004853   0.2085141  -0.4637009  )
        24           O   tau(  24) = (   0.0050917   0.7913609  -0.5445479  )
        25           O   tau(  25) = (   0.7157631   0.2215810  -0.2571539  )
        26           O   tau(  26) = (   0.2924857   0.7149851  -0.7639502  )
        27           O   tau(  27) = (   0.7966102   0.2848899  -0.7612783  )
        28           O   tau(  28) = (   0.2116387   0.8044278  -0.2598258  )
        29           O   tau(  29) = (   0.2924857   0.2215810  -1.2552195  )
        30           O   tau(  30) = (   0.7157631   0.7149851  -0.7484232  )
        31           O   tau(  31) = (   0.2116387   0.2848899  -0.7510950  )
        32           O   tau(  32) = (   0.7966102   0.8044278  -1.2525476  )

     number of k points=    40  gaussian smearing, width (Ry)=  0.0007
                       cart. coord. in units 2pi/alat
        k(    1) = (   0.0000000   0.0000000   0.0000000), wk =   0.0092593
        k(    2) = (   0.0000000   0.0000000   0.1653031), wk =   0.0370370
        k(    3) = (   0.0000000   0.0000000   0.3306062), wk =   0.0370370
        k(    4) = (   0.0000000   0.0000000  -0.4959093), wk =   0.0185185
        k(    5) = (   0.0000000   0.1645372   0.0000000), wk =   0.0185185
        k(    6) = (   0.0000000   0.1645372   0.1653031), wk =   0.0740741
        k(    7) = (   0.0000000   0.1645372   0.3306062), wk =   0.0740741
        k(    8) = (   0.0000000   0.1645372  -0.4959093), wk =   0.0370370
        k(    9) = (   0.0000000   0.3290745   0.0000000), wk =   0.0185185
        k(   10) = (   0.0000000   0.3290745   0.1653031), wk =   0.0740741
        k(   11) = (   0.0000000   0.3290745   0.3306062), wk =   0.0740741
        k(   12) = (   0.0000000   0.3290745  -0.4959093), wk =   0.0370370
        k(   13) = (   0.0000000  -0.4936117   0.0000000), wk =   0.0092593
        k(   14) = (   0.0000000  -0.4936117   0.1653031), wk =   0.0370370
        k(   15) = (   0.0000000  -0.4936117   0.3306062), wk =   0.0370370
        k(   16) = (   0.0000000  -0.4936117  -0.4959093), wk =   0.0185185
        k(   17) = (   0.1653031   0.0000000   0.1653031), wk =   0.0370370
        k(   18) = (   0.1653031   0.0000000   0.3306062), wk =   0.0740741
        k(   19) = (   0.1653031   0.0000000  -0.4959093), wk =   0.0370370
        k(   20) = (   0.1653031   0.1645372   0.1653031), wk =   0.0740741
        k(   21) = (   0.1653031   0.1645372   0.3306062), wk =   0.1481481
        k(   22) = (   0.1653031   0.1645372  -0.4959093), wk =   0.0740741
        k(   23) = (   0.1653031   0.3290745   0.1653031), wk =   0.0740741
        k(   24) = (   0.1653031   0.3290745   0.3306062), wk =   0.1481481
        k(   25) = (   0.1653031   0.3290745  -0.4959093), wk =   0.0740741
        k(   26) = (   0.1653031  -0.4936117   0.1653031), wk =   0.0370370
        k(   27) = (   0.1653031  -0.4936117   0.3306062), wk =   0.0740741
        k(   28) = (   0.1653031  -0.4936117  -0.4959093), wk =   0.0370370
        k(   29) = (   0.3306062   0.0000000   0.3306062), wk =   0.0370370
        k(   30) = (   0.3306062   0.0000000  -0.4959093), wk =   0.0370370
        k(   31) = (   0.3306062   0.1645372   0.3306062), wk =   0.0740741
        k(   32) = (   0.3306062   0.1645372  -0.4959093), wk =   0.0740741
        k(   33) = (   0.3306062   0.3290745   0.3306062), wk =   0.0740741
        k(   34) = (   0.3306062   0.3290745  -0.4959093), wk =   0.0740741
        k(   35) = (   0.3306062  -0.4936117   0.3306062), wk =   0.0370370
        k(   36) = (   0.3306062  -0.4936117  -0.4959093), wk =   0.0370370
        k(   37) = (  -0.4959093   0.0000000  -0.4959093), wk =   0.0092593
        k(   38) = (  -0.4959093   0.1645372  -0.4959093), wk =   0.0185185
        k(   39) = (  -0.4959093   0.3290745  -0.4959093), wk =   0.0185185
        k(   40) = (  -0.4959093  -0.4936117  -0.4959093), wk =   0.0092593

     Initial potential from superposition of free atoms

     starting charge  367.99656, renormalised to  368.00000
     Starting wfc are  232 randomized atomic wfcs

     Writing output data file Landau_40.save

     Self-consistent Calculation

[...]

     total energy              =   -6261.10460299 Ry
     Harris-Foulkes estimate   =   -6261.10460299 Ry
     estimated scf accuracy    <          6.1E-10 Ry

     iteration # 14     ecut=   120.00 Ry     beta= 0.70
     Davidson diagonalization with overlap
     ethr =  1.65E-13,  avg # of iterations =  2.0

     End of self-consistent calculation

[...]

          k = 0.3306-0.4936-0.4959 ( 60584 PWs)   bands (ev):

[...]

          k =-0.4959-0.4936-0.4959 ( 60584 PWs)   bands (ev):

   -65.7199 -65.7199 -65.7199 -65.7199 -65.7199 -65.7199 -65.7199 -65.7199
   -30.0713 -30.0712 -30.0711 -30.0711 -30.0711 -30.0711 -30.0695 -30.0695
   -30.0486 -30.0486 -30.0477 -30.0477 -30.0477 -30.0477 -30.0463 -30.0463
   -30.0129 -30.0129 -30.0097 -30.0096 -30.0096 -30.0096 -30.0088 -30.0087
   -19.8885 -19.8885 -19.8885 -19.8885 -19.8885 -19.8885 -19.8885 -19.8884
   -19.8672 -19.8672 -19.8672 -19.8672 -19.8672 -19.8671 -19.8671 -19.8671
   -19.8614 -19.8614 -19.8614 -19.8614 -19.8614 -19.8614 -19.8614 -19.8614
   -19.8462 -19.8462 -19.8460 -19.8460 -19.8460 -19.8460 -19.8459 -19.8459
   -19.8430 -19.8430 -19.8430 -19.8430 -19.8429 -19.8429 -19.8427 -19.8427
   -19.8374 -19.8373 -19.8370 -19.8370 -19.8370 -19.8370 -19.8369 -19.8369
   -19.8237 -19.8237 -19.8237 -19.8237 -19.8237 -19.8237 -19.8236 -19.8236
    -8.5647  -8.5647  -8.5077  -8.5076  -8.5047  -8.5047  -8.5047  -8.5046
    -8.0013  -8.0013  -7.9874  -7.9874  -7.9874  -7.9873  -7.9412  -7.9411
    -7.9174  -7.9174  -7.9037  -7.9037  -7.9037  -7.9036  -7.8517  -7.8516
     3.3150   3.3150   3.3150   3.3150   3.3388   3.3388   3.4268   3.4268
     3.4661   3.4661   3.6883   3.6883   3.7006   3.7006   3.7006   3.7006
     3.7496   3.7496   3.9461   3.9461   3.9461   3.9461   3.9743   3.9743
     4.5545   4.5545   4.6067   4.6067   4.6067   4.6067   4.6536   4.6537
     4.7080   4.7080   4.7813   4.7813   4.8008   4.8008   4.8009   4.8009
     4.9096   4.9096   4.9212   4.9212   4.9212   4.9212   4.9824   4.9824
     7.5351   7.5352   7.6138   7.6138   7.6138   7.6138   7.6704   7.6704
     7.6704   7.6704   7.7403   7.7403   7.7834   7.7834   7.9207   7.9208
     8.0016   8.0016   8.0086   8.0086   8.0087   8.0087   8.1077   8.1077
    12.3522  12.3522  12.4210  12.4210  12.4225  12.4225  12.4225  12.4225
    12.6093  12.6093  12.6838  12.6838  12.6838  12.6838  12.7081  12.7081
    12.8649  12.8649  12.9216  12.9216  12.9216  12.9216  12.9263  12.9263
    17.3487  17.3487  17.5148  17.5148  17.5238  17.5238  17.5238  17.5238
    17.8837  17.8837  17.8970  17.8970  17.8970

     the Fermi energy is     9.5680 ev

!    total energy              =   -6261.10460299 Ry
     Harris-Foulkes estimate   =   -6261.10460299 Ry
     estimated scf accuracy    <          9.3E-11 Ry

     The total energy is the sum of the following terms:

     one-electron contribution =   -4600.49084520 Ry
     hartree contribution      =    2542.92224015 Ry
     xc contribution           =    -965.67287270 Ry
     ewald contribution        =   -3237.86312524 Ry
     smearing contrib. (-TS)   =      -0.00000000 Ry

     convergence has been achieved in  14 iterations

     Forces acting on atoms (cartesian axes, Ry/au):

     atom    1 type  1   force =    -0.00445110   -0.00279566   -0.00663149
     atom    2 type  1   force =     0.00663149    0.00279566   -0.00445110
     atom    3 type  1   force =     0.00445110    0.00279566   -0.00663149
     atom    4 type  1   force =    -0.00663149   -0.00279566   -0.00445110
     atom    5 type  1   force =     0.00445110   -0.00279566    0.00663149
     atom    6 type  1   force =    -0.00663149    0.00279566    0.00445110
     atom    7 type  1   force =    -0.00445110    0.00279566    0.00663149
     atom    8 type  1   force =     0.00663149   -0.00279566    0.00445110
     atom    9 type  2   force =    -0.00152092   -0.00450252   -0.00343960
     atom   10 type  2   force =     0.00343960    0.00450252   -0.00152092
     atom   11 type  2   force =     0.00152092    0.00450252   -0.00343960
     atom   12 type  2   force =    -0.00343960   -0.00450252   -0.00152092
     atom   13 type  2   force =     0.00152092   -0.00450252    0.00343960
     atom   14 type  2   force =    -0.00343960    0.00450252    0.00152092
     atom   15 type  2   force =    -0.00152092    0.00450252    0.00343960
     atom   16 type  2   force =     0.00343960   -0.00450252    0.00152092
     atom   17 type  2   force =     0.00050094   -0.00165912    0.00590150
     atom   18 type  2   force =     0.00425538   -0.00093007    0.00494371
     atom   19 type  2   force =    -0.00050094    0.00165912    0.00590150
     atom   20 type  2   force =    -0.00425538    0.00093007    0.00494371
     atom   21 type  2   force =    -0.00050094   -0.00165912   -0.00590150
     atom   22 type  2   force =    -0.00425538   -0.00093007   -0.00494371
     atom   23 type  2   force =     0.00050094    0.00165912   -0.00590150
     atom   24 type  2   force =     0.00425538    0.00093007   -0.00494371
     atom   25 type  2   force =    -0.00494371   -0.00093007   -0.00425538
     atom   26 type  2   force =    -0.00590150    0.00165912    0.00050094
     atom   27 type  2   force =     0.00494371    0.00093007   -0.00425538
     atom   28 type  2   force =     0.00590150   -0.00165912    0.00050094
     atom   29 type  2   force =     0.00494371   -0.00093007    0.00425538
     atom   30 type  2   force =     0.00590150    0.00165912   -0.00050094
     atom   31 type  2   force =    -0.00494371    0.00093007    0.00425538
     atom   32 type  2   force =    -0.00590150   -0.00165912   -0.00050094

     Total force =     0.000000     Total SCF correction =     0.000000

     Computing stress (Cartesian axis) and pressure

          total   stress  (Ry/bohr**3)                   (kbar)     P=   -0.04
   0.00000104   0.00000000   0.00000000          0.15      0.00      0.00
   0.00000000  -0.00000284   0.00000000          0.00     -0.42      0.00
   0.00000000   0.00000000   0.00000104          0.00      0.00      0.15

     Writing output data file Landau_40.save

     General routines

     Parallel routines

   This run was terminated on:   0:16:28   7Mar2020

   JOB DONE.