     Program PWSCF v.6.2 (svn rev. 14038) starts on 11Mar2020 at  2:17: 4

     K-points division:     npool     =      40
     Reading input from rscf.in

     Current dimensions of program PWSCF are:
     Max number of different atomic species (ntypx) = 10
     Max number of k-points (npk) =  40000
     Max angular momentum in pseudopotentials (lmaxx) =  3

     Subspace diagonalization in iterative solution of the eigenvalue problem:
     a serial algorithm will be used

     Found symmetry operation: I + (  0.5000  0.0000 -0.5000)
     This is a supercell, fractional translations are disabled

     bravais-lattice index     =            0
     lattice parameter (alat)  =      13.8397  a.u.
     unit-cell volume          =    2804.9816 (a.u.)^3
     number of atoms/cell      =           32
     number of atomic types    =            2
     number of electrons       =       368.00
     number of Kohn-Sham states=          221
     kinetic-energy cutoff     =     120.0000  Ry
     charge density cutoff     =     480.0000  Ry
     convergence threshold     =      1.0E-08
     mixing beta               =       0.7000
     number of iterations used =            8  plain     mixing
     Exchange-correlation      = SLA PW NOGX NOGC ( 1  4  0  0 0 0)
     nstep                     =           50

     celldm(1)=  13.839685  celldm(2)=   0.000000  celldm(3)=   0.000000
     celldm(4)=   0.000000  celldm(5)=   0.000000  celldm(6)=   0.000000

     crystal axes: (cart. coord. in units of alat)
               a(1) = (   1.000000   0.000000   0.000000 )
               a(2) = (   0.000000   1.058160   0.000000 )
               a(3) = (   0.000000   0.000000   1.000000 )

     reciprocal axes: (cart. coord. in units 2 pi/alat)
               b(1) = (  1.000000  0.000000  0.000000 )
               b(2) = (  0.000000  0.945037  0.000000 )
               b(3) = (  0.000000  0.000000  1.000000 )

     PseudoPot. # 1 for W  read from file:
     /cluster/scratch/mnoe/QE/pps/W_ONCV_LDA-4.0.upf
     MD5 check sum: ba0307d5d4cd419d6f1d13dc49d7c13a
     Pseudo is Norm-conserving + core correction, Zval = 28.0
     Generated using ONCVPSP code by D. R. Hamann
     Using radial grid of 1380 points,  8 beta functions with:
                l(1) =   0
                l(2) =   0
                l(3) =   1
                l(4) =   1
                l(5) =   2
                l(6) =   2
                l(7) =   3
                l(8) =   3

     PseudoPot. # 2 for O  read from file:
     /cluster/scratch/mnoe/QE/pps/O_ONCV_LDA-3.0.upf
     MD5 check sum: a1bd6164e7280c17a38c229939bfbd54
     Pseudo is Norm-conserving + core correction, Zval =  6.0
     Generated using ONCVPSP code by D. R. Hamann
     Using radial grid of  926 points,  5 beta functions with:
                l(1) =   0
                l(2) =   0
                l(3) =   1
                l(4) =   1
                l(5) =   2

     atomic species   valence    mass     pseudopotential
        W             28.00   183.84000     W ( 1.00)
        O              6.00    15.99940     O ( 1.00)

      2 Sym. Ops., with inversion, found

   Cartesian axes

     site n.     atom                  positions (alat units)
         1           W   tau(   1) = (   0.2500000   0.2969255   0.0000000  )
         2           W   tau(   2) = (   0.7500000   0.7612346   0.0000000  )
         3           W   tau(   3) = (   0.2500000   0.2321546   0.5000000  )
         4           W   tau(   4) = (   0.7500000   0.8260055   0.5000000  )
         5           W   tau(   5) = (   0.7500000   0.2969255   0.5000000  )
         6           W   tau(   6) = (   0.2500000   0.7612346   0.5000000  )
         7           W   tau(   7) = (   0.7500000   0.2321546   0.0000000  )
         8           W   tau(   8) = (   0.2500000   0.8260055   0.0000000  )
         9           O   tau(   9) = (   0.2500000   0.0084422   0.0000000  )
        10           O   tau(  10) = (   0.7500000   1.0497179   0.0000000  )
        11           O   tau(  11) = (   0.2500000   0.5206378   0.5000000  )
        12           O   tau(  12) = (   0.7500000   0.5375223   0.5000000  )
        13           O   tau(  13) = (   0.7500000   0.0084422   0.5000000  )
        14           O   tau(  14) = (   0.2500000   1.0497179   0.5000000  )
        15           O   tau(  15) = (   0.7500000   0.5206378   0.0000000  )
        16           O   tau(  16) = (   0.2500000   0.5375223   0.0000000  )
        17           O   tau(  17) = (   0.5000000   0.2645400   0.4526077  )
        18           O   tau(  18) = (   0.5000000   0.7936201   0.5473923  )
        19           O   tau(  19) = (   0.0000000   0.2645400   0.9526077  )
        20           O   tau(  20) = (   0.0000000   0.7936201   0.0473923  )
        21           O   tau(  21) = (   0.5000000   0.2645400   0.0473923  )
        22           O   tau(  22) = (   0.5000000   0.7936201   0.9526077  )
        23           O   tau(  23) = (   0.0000000   0.2645400   0.5473923  )
        24           O   tau(  24) = (   0.0000000   0.7936201   0.4526077  )
        25           O   tau(  25) = (   0.7026077   0.2645400   0.7500000  )
        26           O   tau(  26) = (   0.2973923   0.7936201   0.2500000  )
        27           O   tau(  27) = (   0.7973923   0.2645400   0.2500000  )
        28           O   tau(  28) = (   0.2026077   0.7936201   0.7500000  )
        29           O   tau(  29) = (   0.2973923   0.2645400   0.7500000  )
        30           O   tau(  30) = (   0.7026077   0.7936201   0.2500000  )
        31           O   tau(  31) = (   0.2026077   0.2645400   0.2500000  )
        32           O   tau(  32) = (   0.7973923   0.7936201   0.7500000  )

     number of k points=   112  gaussian smearing, width (Ry)=  0.0007

     Number of k-points >= 100: set verbosity='high' to print them.

     Initial potential from superposition of free atoms

     starting charge  367.99656, renormalised to  368.00000
     Starting wfc are  232 randomized atomic wfcs

     Self-consistent Calculation

     iteration #  1     ecut=   120.00 Ry     beta= 0.70
     Davidson diagonalization with overlap
     ethr =  1.00E-02,  avg # of iterations =  5.1

     total energy              =   -6254.00315281 Ry
     Harris-Foulkes estimate   =   -6264.58868107 Ry
     estimated scf accuracy    <      13.40891555 Ry

[...]

     End of self-consistent calculation

     Number of k-points >= 100: set verbosity='high' to print the bands.

     the Fermi energy is     8.9917 ev

!    total energy              =   -6261.10761607 Ry
     Harris-Foulkes estimate   =   -6261.10761608 Ry
     estimated scf accuracy    <          6.1E-09 Ry

     The total energy is the sum of the following terms:

     one-electron contribution =   -4732.51302441 Ry
     hartree contribution      =    2602.96553895 Ry
     xc contribution           =    -965.78505801 Ry
     ewald contribution        =   -3165.77507260 Ry
     smearing contrib. (-TS)   =      -0.00000000 Ry

     convergence has been achieved in  14 iterations

     Forces acting on atoms (cartesian axes, Ry/au):

     atom    1 type  1   force =    -0.00000730    0.01116683   -0.00000985
     atom    2 type  1   force =     0.00000730   -0.01116683    0.00000985
     atom    3 type  1   force =    -0.00000601   -0.01115979    0.00000828
     atom    4 type  1   force =     0.00000601    0.01115979   -0.00000828
     atom    5 type  1   force =     0.00000706    0.01115485   -0.00000530
     atom    6 type  1   force =    -0.00000706   -0.01115485    0.00000530
     atom    7 type  1   force =     0.00000577   -0.01114463    0.00000419
     atom    8 type  1   force =    -0.00000577    0.01114463   -0.00000419
     atom    9 type  2   force =    -0.00000044   -0.00562335   -0.00000049
     atom   10 type  2   force =     0.00000044    0.00562335    0.00000049
     atom   11 type  2   force =    -0.00000034    0.00562981    0.00000030
     atom   12 type  2   force =     0.00000034   -0.00562981   -0.00000030
     atom   13 type  2   force =     0.00000088   -0.00562222   -0.00000101
     atom   14 type  2   force =    -0.00000088    0.00562222    0.00000101
     atom   15 type  2   force =     0.00000070    0.00562890    0.00000068
     atom   16 type  2   force =    -0.00000070   -0.00562890   -0.00000068
     atom   17 type  2   force =     0.00000122   -0.00000101   -0.00298007
     atom   18 type  2   force =    -0.00000122    0.00000101    0.00298007
     atom   19 type  2   force =    -0.00000119   -0.00000165   -0.00298069
     atom   20 type  2   force =     0.00000119    0.00000165    0.00298069
     atom   21 type  2   force =     0.00000113   -0.00000127    0.00297995
     atom   22 type  2   force =    -0.00000113    0.00000127   -0.00297995
     atom   23 type  2   force =    -0.00000114   -0.00000150    0.00298068
     atom   24 type  2   force =     0.00000114    0.00000150   -0.00298068
     atom   25 type  2   force =    -0.00297974   -0.00000105    0.00000028
     atom   26 type  2   force =     0.00297974    0.00000105   -0.00000028
     atom   27 type  2   force =     0.00298102   -0.00000115   -0.00000082
     atom   28 type  2   force =    -0.00298102    0.00000115    0.00000082
     atom   29 type  2   force =     0.00297991   -0.00000151    0.00000088
     atom   30 type  2   force =    -0.00297991    0.00000151   -0.00000088
     atom   31 type  2   force =    -0.00298060   -0.00000048   -0.00000013
     atom   32 type  2   force =     0.00298060    0.00000048    0.00000013

     Total force =     0.000000     Total SCF correction =     0.000000

     Computing stress (Cartesian axis) and pressure

          total   stress  (Ry/bohr**3)                   (kbar)     P=   10.18
   0.00013855  -0.00000000   0.00000000         20.38     -0.00      0.00
  -0.00000000  -0.00006942  -0.00000001         -0.00    -10.21     -0.00
   0.00000000  -0.00000001   0.00013857          0.00     -0.00     20.38

     BFGS Geometry Optimization

     number of scf cycles    =   1
     number of bfgs steps    =   0

     enthalpy new            =   -6261.1076160726 Ry

     new trust radius        =       0.0366937552 bohr
     new conv_thr            =       0.0000000100 Ry

     new unit-cell volume =   2819.54608 a.u.^3 (   417.81362 Ang^3 )
     density =      7.37126 g/cm^3

CELL_PARAMETERS (angstrom)
   7.349012815  -0.000000013   0.000000047
  -0.000000014   7.736140953  -0.000001679
   0.000000047  -0.000001587   7.349016304

ATOMIC_POSITIONS (crystal)
W        0.250000000   0.280605433   0.000000000    0   0   0
W        0.749999993   0.719394567   0.000000000    0   0   0
W        0.250000000   0.219394582   0.500000000    0   0   0
W        0.749999993   0.780605415   0.500000000    0   0   0
W        0.749999993   0.280605433   0.500000000    0   0   0
W        0.250000000   0.719394567   0.500000000    0   0   0
W        0.749999993   0.219394582   0.000000000    0   0   0
W        0.250000000   0.780605415   0.000000000    0   0   0
O        0.250000000   0.007978218   0.000000000    0   0   0
O        0.749999993   0.992021796   0.000000000    0   0   0
[...]
O        0.749999993   0.492021778   0.000000000    0   0   0
O        0.250000000   0.507978204   0.000000000    0   0   0
O        0.500000000   0.250000000   0.452607673    0   0   0
O        0.500000000   0.749999991   0.547392307    0   0   0
O        0.000000000   0.250000000   0.952607706    0   0   0
O        0.000000000   0.749999991   0.047392331    0   0   0
O        0.500000000   0.250000000   0.047392331    0   0   0
O        0.500000000   0.749999991   0.952607706    0   0   0
O        0.000000000   0.250000000   0.547392307    0   0   0
O        0.000000000   0.749999991   0.452607673    0   0   0
O        0.702607699   0.250000000   0.749999993    0   0   0
O        0.297392320   0.749999991   0.250000000    0   0   0
O        0.797392314   0.250000000   0.250000000    0   0   0
O        0.202607689   0.749999991   0.749999993    0   0   0
O        0.297392320   0.250000000   0.749999993    0   0   0
O        0.702607699   0.749999991   0.250000000    0   0   0
O        0.202607689   0.250000000   0.250000000    0   0   0
O        0.797392314   0.749999991   0.749999993    0   0   0

     Writing output data file Landau_9.save
     NEW-OLD atomic charge density approx. for the potential
     extrapolated charge  369.90089, renormalised to  368.00000

[...]

     enthalpy old            =   -6261.1076160726 Ry
     enthalpy new            =   -6261.1088908821 Ry

     CASE: enthalpy_new < enthalpy_old

[...]

     Threshold (ethr) on eigenvalues was too large:
     Diagonalizing with lowered threshold

     Davidson diagonalization with overlap
     ethr =  2.53E-08,  avg # of iterations =  2.8

[...]

     number of scf cycles    =   4
     number of bfgs steps    =   3

     enthalpy old            =   -6261.1089426370 Ry
     enthalpy new            =   -6261.1089434156 Ry

     CASE: enthalpy_new < enthalpy_old

     small trust_radius: resetting bfgs history

     new trust radius        =       0.0001000000 bohr
     new conv_thr            =            1.0E-10 Ry

     new unit-cell volume =   2815.57261 a.u.^3 (   417.22481 Ang^3 )
     density =      7.38166 g/cm^3

[...]

ATOMIC_POSITIONS (crystal)
W        0.250000000   0.280605433   0.000000000    0   0   0
W        0.749999993   0.719394567   0.000000000    0   0   0
W        0.250000000   0.219394582   0.500000000    0   0   0
W        0.749999993   0.780605415   0.500000000    0   0   0
W        0.749999993   0.280605433   0.500000000    0   0   0
W        0.250000000   0.719394567   0.500000000    0   0   0
W        0.749999993   0.219394582   0.000000000    0   0   0
W        0.250000000   0.780605415   0.000000000    0   0   0
O        0.250000000   0.007978218   0.000000000    0   0   0
O        0.749999993   0.992021796   0.000000000    0   0   0
O        0.250000000   0.492021778   0.500000000    0   0   0
O        0.749999993   0.507978204   0.500000000    0   0   0
O        0.749999993   0.007978218   0.500000000    0   0   0
O        0.250000000   0.992021796   0.500000000    0   0   0
O        0.749999993   0.492021778   0.000000000    0   0   0
O        0.250000000   0.507978204   0.000000000    0   0   0
O        0.500000000   0.250000000   0.452607673    0   0   0
O        0.500000000   0.749999991   0.547392307    0   0   0
O        0.000000000   0.250000000   0.952607706    0   0   0
O       -0.000000000   0.749999991   0.047392331    0   0   0
O        0.500000000   0.250000000   0.047392331    0   0   0
O        0.500000000   0.749999991   0.952607706    0   0   0
O        0.000000000   0.250000000   0.547392307    0   0   0
O       -0.000000000   0.749999991   0.452607673    0   0   0
O        0.702607699   0.250000000   0.749999993    0   0   0
O        0.297392320   0.749999991   0.250000000    0   0   0
O        0.797392314   0.250000000   0.250000000    0   0   0
O        0.202607689   0.749999991   0.749999993    0   0   0
O        0.297392320   0.250000000   0.749999993    0   0   0
O        0.702607699   0.749999991   0.250000000    0   0   0
O        0.202607689   0.250000000   0.250000000    0   0   0
O        0.797392314   0.749999991   0.749999993    0   0   0

     Writing output data file Landau_9.save
     NEW-OLD atomic charge density approx. for the potential
     extrapolated charge  367.99968, renormalised to  368.00000

[...]

     Threshold (ethr) on eigenvalues was too large:
     Diagonalizing with lowered threshold

     Davidson diagonalization with overlap
     ethr =  2.03E-12,  avg # of iterations =  3.8

[...]

     bfgs converged in   5 scf cycles and   4 bfgs steps
     (criteria: energy <  1.0E-07 Ry, force <  1.0E-07Ry/Bohr, cell <  5.0E-01kbar)

     End of BFGS Geometry Optimization

     Final enthalpy =   -6261.1089434228 Ry
Begin final coordinates
     new unit-cell volume =   2815.57261 a.u.^3 (   417.22481 Ang^3 )
     density =      7.38166 g/cm^3

CELL_PARAMETERS (angstrom)
   7.345003555  -0.000000033   0.000000026
  -0.000000035   7.733678234  -0.000000755
   0.000000026  -0.000000715   7.345003635

ATOMIC_POSITIONS (crystal)
W        0.250000000   0.280605433   0.000000000    0   0   0
W        0.749999993   0.719394567   0.000000000    0   0   0
W        0.250000000   0.219394582   0.500000000    0   0   0
W        0.749999993   0.780605415   0.500000000    0   0   0
W        0.749999993   0.280605433   0.500000000    0   0   0
W        0.250000000   0.719394567   0.500000000    0   0   0
W        0.749999993   0.219394582   0.000000000    0   0   0
W        0.250000000   0.780605415   0.000000000    0   0   0
O        0.250000000   0.007978218   0.000000000    0   0   0
O        0.749999993   0.992021796   0.000000000    0   0   0
O        0.250000000   0.492021778   0.500000000    0   0   0
O        0.749999993   0.507978204   0.500000000    0   0   0
O        0.749999993   0.007978218   0.500000000    0   0   0
O        0.250000000   0.992021796   0.500000000    0   0   0
O        0.749999993   0.492021778   0.000000000    0   0   0
O        0.250000000   0.507978204   0.000000000    0   0   0
O        0.500000000   0.250000000   0.452607673    0   0   0
O        0.500000000   0.749999991   0.547392307    0   0   0
O        0.000000000   0.250000000   0.952607706    0   0   0
O       -0.000000000   0.749999991   0.047392331    0   0   0
O        0.500000000   0.250000000   0.047392331    0   0   0
O        0.500000000   0.749999991   0.952607706    0   0   0
O        0.000000000   0.250000000   0.547392307    0   0   0
O       -0.000000000   0.749999991   0.452607673    0   0   0
O        0.702607699   0.250000000   0.749999993    0   0   0
O        0.297392320   0.749999991   0.250000000    0   0   0
O        0.797392314   0.250000000   0.250000000    0   0   0
O        0.202607689   0.749999991   0.749999993    0   0   0
O        0.297392320   0.250000000   0.749999993    0   0   0
O        0.702607699   0.749999991   0.250000000    0   0   0
O        0.202607689   0.250000000   0.250000000    0   0   0
O        0.797392314   0.749999991   0.749999993    0   0   0
End final coordinates

     A final scf calculation at the relaxed structure.
     The G-vectors are recalculated for the final unit cell
     Results may differ from those at the preceding step.

     bravais-lattice index     =            0
     lattice parameter (alat)  =      13.8397  a.u.
     unit-cell volume          =    2815.5726 (a.u.)^3
     number of atoms/cell      =           32
     number of atomic types    =            2
     number of electrons       =       368.00
     number of Kohn-Sham states=          221
     kinetic-energy cutoff     =     120.0000  Ry
     charge density cutoff     =     480.0000  Ry
     convergence threshold     =      1.0E-10
     mixing beta               =       0.7000
     number of iterations used =            8  plain     mixing
     Exchange-correlation      = SLA PW NOGX NOGC ( 1  4  0  0 0 0)

     celldm(1)=  13.839685  celldm(2)=   0.000000  celldm(3)=   0.000000
     celldm(4)=   0.000000  celldm(5)=   0.000000  celldm(6)=   0.000000

     crystal axes: (cart. coord. in units of alat)
               a(1) = (   1.002916  -0.000000   0.000000 )
               a(2) = (  -0.000000   1.055987  -0.000000 )
               a(3) = (   0.000000  -0.000000   1.002916 )

     reciprocal axes: (cart. coord. in units 2 pi/alat)
               b(1) = (  0.997092  0.000000 -0.000000 )
               b(2) = (  0.000000  0.946981  0.000000 )
               b(3) = ( -0.000000  0.000000  0.997092 )

     PseudoPot. # 1 for W  read from file:
     /cluster/scratch/mnoe/QE/pps/W_ONCV_LDA-4.0.upf
     MD5 check sum: ba0307d5d4cd419d6f1d13dc49d7c13a
     Pseudo is Norm-conserving + core correction, Zval = 28.0
     Generated using ONCVPSP code by D. R. Hamann
     Using radial grid of 1380 points,  8 beta functions with:
                l(1) =   0
                l(2) =   0
                l(3) =   1
                l(4) =   1
                l(5) =   2
                l(6) =   2
                l(7) =   3
                l(8) =   3

     PseudoPot. # 2 for O  read from file:
     /cluster/scratch/mnoe/QE/pps/O_ONCV_LDA-3.0.upf
     MD5 check sum: a1bd6164e7280c17a38c229939bfbd54
     Pseudo is Norm-conserving + core correction, Zval =  6.0
     Generated using ONCVPSP code by D. R. Hamann
     Using radial grid of  926 points,  5 beta functions with:
                l(1) =   0
                l(2) =   0
                l(3) =   1
                l(4) =   1
                l(5) =   2

     atomic species   valence    mass     pseudopotential
        W             28.00   183.84000     W ( 1.00)
        O              6.00    15.99940     O ( 1.00)

      2 Sym. Ops., with inversion, found

   Cartesian axes

     site n.     atom                  positions (alat units)
         1           W   tau(   1) = (   0.2507291   0.2963158  -0.0000000  )
         2           W   tau(   2) = (   0.7521872   0.7596716  -0.0000001  )
         3           W   tau(   3) = (   0.2507291   0.2316779   0.5014581  )
         4           W   tau(   4) = (   0.7521872   0.8243095   0.5014580  )
         5           W   tau(   5) = (   0.7521872   0.2963158   0.5014581  )
         6           W   tau(   6) = (   0.2507291   0.7596716   0.5014581  )
         7           W   tau(   7) = (   0.7521872   0.2316779  -0.0000000  )
         8           W   tau(   8) = (   0.2507291   0.8243095  -0.0000001  )
         9           O   tau(   9) = (   0.2507291   0.0084249   0.0000000  )
        10           O   tau(  10) = (   0.7521872   1.0475625  -0.0000001  )
        11           O   tau(  11) = (   0.2507291   0.5195688   0.5014581  )
        12           O   tau(  12) = (   0.7521872   0.5364185   0.5014581  )
        13           O   tau(  13) = (   0.7521872   0.0084248   0.5014581  )
        14           O   tau(  14) = (   0.2507291   1.0475625   0.5014580  )
        15           O   tau(  15) = (   0.7521872   0.5195688  -0.0000000  )
        16           O   tau(  16) = (   0.2507291   0.5364186  -0.0000001  )
        17           O   tau(  17) = (   0.5014581   0.2639968   0.4539276  )
        18           O   tau(  18) = (   0.5014581   0.7919905   0.5489886  )
        19           O   tau(  19) = (   0.0000000   0.2639968   0.9553857  )
        20           O   tau(  20) = (  -0.0000000   0.7919906   0.0475305  )
        21           O   tau(  21) = (   0.5014581   0.2639969   0.0475305  )
        22           O   tau(  22) = (   0.5014581   0.7919905   0.9553857  )
        23           O   tau(  23) = (   0.0000000   0.2639968   0.5489886  )
        24           O   tau(  24) = (  -0.0000000   0.7919905   0.4539275  )
        25           O   tau(  25) = (   0.7046567   0.2639968   0.7521872  )
        26           O   tau(  26) = (   0.2982596   0.7919905   0.2507290  )
        27           O   tau(  27) = (   0.7997177   0.2639968   0.2507290  )
        28           O   tau(  28) = (   0.2031985   0.7919905   0.7521871  )
        29           O   tau(  29) = (   0.2982596   0.2639968   0.7521872  )
        30           O   tau(  30) = (   0.7046567   0.7919905   0.2507290  )
        31           O   tau(  31) = (   0.2031985   0.2639968   0.2507290  )
        32           O   tau(  32) = (   0.7997177   0.7919905   0.7521871  )

     number of k points=   112  gaussian smearing, width (Ry)=  0.0007

     Number of k-points >= 100: set verbosity='high' to print them.

     Initial potential from superposition of free atoms

     starting charge  367.99656, renormalised to  368.00000
     Starting wfc are  232 randomized atomic wfcs

     Writing output data file Landau_9.save

     Self-consistent Calculation

[...]

     total energy              =   -6261.10899447 Ry
     Harris-Foulkes estimate   =   -6261.10899447 Ry
     estimated scf accuracy    <          3.5E-10 Ry

     iteration # 17     ecut=   120.00 Ry     beta= 0.70
     Davidson diagonalization with overlap
     ethr =  1.00E-13,  avg # of iterations =  2.0

     End of self-consistent calculation

     Number of k-points >= 100: set verbosity='high' to print the bands.

     the Fermi energy is     8.5165 ev

!    total energy              =   -6261.10899447 Ry
     Harris-Foulkes estimate   =   -6261.10899447 Ry
     estimated scf accuracy    <          5.4E-11 Ry

     The total energy is the sum of the following terms:

     one-electron contribution =   -4737.72127521 Ry
     hartree contribution      =    2604.67824758 Ry
     xc contribution           =    -965.66913129 Ry
     ewald contribution        =   -3162.39683555 Ry
     smearing contrib. (-TS)   =      -0.00000000 Ry

     convergence has been achieved in  17 iterations

     Forces acting on atoms (cartesian axes, Ry/au):

     atom    1 type  1   force =     0.00000046    0.00325991   -0.00000039
     atom    2 type  1   force =    -0.00000046   -0.00325991    0.00000039
     atom    3 type  1   force =    -0.00000347   -0.00325868   -0.00000003
     atom    4 type  1   force =     0.00000347    0.00325868    0.00000003
     atom    5 type  1   force =     0.00000113    0.00326396   -0.00000013
     atom    6 type  1   force =    -0.00000113   -0.00326396    0.00000013
     atom    7 type  1   force =     0.00000034   -0.00326214    0.00000009
     atom    8 type  1   force =    -0.00000034    0.00326214   -0.00000009
     atom    9 type  2   force =     0.00000002   -0.00162333    0.00000000
     atom   10 type  2   force =    -0.00000002    0.00162333   -0.00000000
     atom   11 type  2   force =     0.00000003    0.00162329    0.00000000
     atom   12 type  2   force =    -0.00000003   -0.00162329   -0.00000000
     atom   13 type  2   force =    -0.00000001   -0.00162352   -0.00000000
     atom   14 type  2   force =     0.00000001    0.00162352    0.00000000
     atom   15 type  2   force =     0.00000003    0.00162408    0.00000001
     atom   16 type  2   force =    -0.00000003   -0.00162408   -0.00000001
     atom   17 type  2   force =    -0.00000012   -0.00000007   -0.00059420
     atom   18 type  2   force =     0.00000012    0.00000007    0.00059420
     atom   19 type  2   force =     0.00000021    0.00000003   -0.00059416
     atom   20 type  2   force =    -0.00000021   -0.00000003    0.00059416
     atom   21 type  2   force =    -0.00000031    0.00000004    0.00059417
     atom   22 type  2   force =     0.00000031   -0.00000004   -0.00059417
     atom   23 type  2   force =     0.00000007   -0.00000003    0.00059418
     atom   24 type  2   force =    -0.00000007    0.00000003   -0.00059418
     atom   25 type  2   force =    -0.00059417   -0.00000000    0.00000017
     atom   26 type  2   force =     0.00059417    0.00000000   -0.00000017
     atom   27 type  2   force =     0.00059416    0.00000002   -0.00000011
     atom   28 type  2   force =    -0.00059416   -0.00000002    0.00000011
     atom   29 type  2   force =     0.00059426    0.00000006    0.00000018
     atom   30 type  2   force =    -0.00059426   -0.00000006   -0.00000018
     atom   31 type  2   force =    -0.00059415    0.00000002   -0.00000016
     atom   32 type  2   force =     0.00059415   -0.00000002    0.00000016

     Total force =     0.000000     Total SCF correction =     0.000000

     Computing stress (Cartesian axis) and pressure

          total   stress  (Ry/bohr**3)                   (kbar)     P=    0.08
   0.00000088   0.00000000  -0.00000000          0.13      0.00     -0.00
   0.00000000  -0.00000007   0.00000000          0.00     -0.01      0.00
  -0.00000000   0.00000000   0.00000088         -0.00      0.00      0.13

     Writing output data file Landau_9.save

     General routines

     Parallel routines

   This run was terminated on:   8: 5:12  11Mar2020

   JOB DONE.