     Program PWSCF v.6.2 (svn rev. 14038) starts on 10Sep2019 at 19: 2:38

     K-points division:     npool     =      40
     Reading input from scf.in

     Current dimensions of program PWSCF are:
     Max number of different atomic species (ntypx) = 10
     Max number of k-points (npk) =  40000
     Max angular momentum in pseudopotentials (lmaxx) =  3

     Subspace diagonalization in iterative solution of the eigenvalue problem:
     a serial algorithm will be used

     bravais-lattice index     =            0
     lattice parameter (alat)  =      13.8863  a.u.
     unit-cell volume          =    2754.9896 (a.u.)^3
     number of atoms/cell      =           32
     number of atomic types    =            2
     number of electrons       =       368.15
     number of Kohn-Sham states=          221
     kinetic-energy cutoff     =     120.0000  Ry
     charge density cutoff     =     480.0000  Ry
     convergence threshold     =      1.0E-08
     mixing beta               =       0.7000
     number of iterations used =            8  plain     mixing
     Exchange-correlation      = SLA PW NOGX NOGC ( 1  4  0  0 0 0)

     celldm(1)=  13.886273  celldm(2)=   0.000000  celldm(3)=   0.000000
     celldm(4)=   0.000000  celldm(5)=   0.000000  celldm(6)=   0.000000

     crystal axes: (cart. coord. in units of alat)
               a(1) = (   1.000000   0.000000   0.000000 )
               a(2) = (   0.000000   1.028876   0.000000 )
               a(3) = (   0.000000   0.000000   1.000000 )

     reciprocal axes: (cart. coord. in units 2 pi/alat)
               b(1) = (  1.000000  0.000000  0.000000 )
               b(2) = (  0.000000  0.971935  0.000000 )
               b(3) = (  0.000000  0.000000  1.000000 )

     PseudoPot. # 1 for W  read from file:
     /cluster/scratch/mnoe/QE/pps/W_ONCV_LDA-4.0.upf
     MD5 check sum: ba0307d5d4cd419d6f1d13dc49d7c13a
     Pseudo is Norm-conserving + core correction, Zval = 28.0
     Generated using ONCVPSP code by D. R. Hamann
     Using radial grid of 1380 points,  8 beta functions with:
                l(1) =   0
                l(2) =   0
                l(3) =   1
                l(4) =   1
                l(5) =   2
                l(6) =   2
                l(7) =   3
                l(8) =   3

     PseudoPot. # 2 for O  read from file:
     /cluster/scratch/mnoe/QE/pps/O_ONCV_LDA-3.0.upf
     MD5 check sum: ca1549d10c4e927e51167f6fca52ae32
     Pseudo is Norm-conserving + core correction, Zval =  6.0
     Generated using ONCVPSP code by D. R. Hamann
     Using radial grid of  926 points,  5 beta functions with:
                l(1) =   0
                l(2) =   0
                l(3) =   1
                l(4) =   1
                l(5) =   2

     atomic species   valence    mass     pseudopotential
        W             28.00   183.84000     W ( 1.00)
        O              6.00    15.99940     O ( 1.00)

      8 Sym. Ops. (no inversion) found ( 4 have fractional translation)

   Cartesian axes

     site n.     atom                  positions (alat units)
         1           W   tau(   1) = (   0.2787800   0.2899989   0.2508200  )
         2           W   tau(   2) = (  -0.2508200   0.7388767  -0.7212200  )
         3           W   tau(   3) = (   0.2212200   0.2244389   0.7508200  )
         4           W   tau(   4) = (   0.7508200   0.8044366   0.7787800  )
         5           W   tau(   5) = (   0.7212200   0.2899989   0.7491800  )
         6           W   tau(   6) = (   0.2508200   0.7388767   0.7212200  )
         7           W   tau(   7) = (  -0.2212200   0.2244389  -0.7508200  )
         8           W   tau(   8) = (   0.2491800   0.8044366   0.2212200  )
         9           O   tau(   9) = (   0.2816500   0.0085602   0.2729500  )
        10           O   tau(  10) = (  -0.2729500   1.0203154  -0.7183500  )
        11           O   tau(  11) = (   0.2183500   0.5058775   0.7729500  )
        12           O   tau(  12) = (   0.7729500   0.5229980   0.7816500  )
        13           O   tau(  13) = (   0.7183500   0.0085602   0.7270500  )
        14           O   tau(  14) = (   0.2729500   1.0203154   0.7183500  )
        15           O   tau(  15) = (  -0.2183500   0.5058775  -0.7729500  )
        16           O   tau(  16) = (   0.2270500   0.5229980   0.2183500  )
        17           O   tau(  17) = (   0.4898100   0.2923344   0.6995400  )
        18           O   tau(  18) = (   0.4979100   0.7491345   0.8004600  )
        19           O   tau(  19) = (  -0.9898100   0.2221034   1.1995400  )
        20           O   tau(  20) = (   0.0020900   0.7941787   0.3004600  )
        21           O   tau(  21) = (   0.5101900   0.2923344   0.3004600  )
        22           O   tau(  22) = (   0.5020900   0.7491345   1.1995400  )
        23           O   tau(  23) = (  -0.0101900   0.2221034   0.8004600  )
        24           O   tau(  24) = (  -1.0020900   0.7941787   0.6995400  )
        25           O   tau(  25) = (   0.6995400   0.2346968   2.0020900  )
        26           O   tau(  26) = (   0.3004600   0.7365411   0.4898100  )
        27           O   tau(  27) = (   0.8004600   0.2797410   0.5020900  )
        28           O   tau(  28) = (   0.1995400   0.8067721   1.9898100  )
        29           O   tau(  29) = (   0.3004600   0.2346968   0.9979100  )
        30           O   tau(  30) = (   0.6995400   0.7365411   0.5101900  )
        31           O   tau(  31) = (   0.1995400   0.2797410   0.4979100  )
        32           O   tau(  32) = (   0.8004600   0.8067721   1.0101900  )

     number of k points=    40  gaussian smearing, width (Ry)=  0.0007
                       cart. coord. in units 2pi/alat
        k(    1) = (   0.0000000   0.0000000   0.0000000), wk =   0.0092593
        k(    2) = (   0.0000000   0.0000000   0.1666667), wk =   0.0370370
        k(    3) = (   0.0000000   0.0000000   0.3333333), wk =   0.0370370
        k(    4) = (   0.0000000   0.0000000  -0.5000000), wk =   0.0185185
        k(    5) = (   0.0000000   0.1619891   0.0000000), wk =   0.0185185
        k(    6) = (   0.0000000   0.1619891   0.1666667), wk =   0.0740741
        k(    7) = (   0.0000000   0.1619891   0.3333333), wk =   0.0740741
        k(    8) = (   0.0000000   0.1619891  -0.5000000), wk =   0.0370370
        k(    9) = (   0.0000000   0.3239783   0.0000000), wk =   0.0185185
        k(   10) = (   0.0000000   0.3239783   0.1666667), wk =   0.0740741
        k(   11) = (   0.0000000   0.3239783   0.3333333), wk =   0.0740741
        k(   12) = (   0.0000000   0.3239783  -0.5000000), wk =   0.0370370
        k(   13) = (   0.0000000  -0.4859674   0.0000000), wk =   0.0092593
        k(   14) = (   0.0000000  -0.4859674   0.1666667), wk =   0.0370370
        k(   15) = (   0.0000000  -0.4859674   0.3333333), wk =   0.0370370
        k(   16) = (   0.0000000  -0.4859674  -0.5000000), wk =   0.0185185
        k(   17) = (   0.1666667   0.0000000   0.1666667), wk =   0.0370370
        k(   18) = (   0.1666667   0.0000000   0.3333333), wk =   0.0740741
        k(   19) = (   0.1666667   0.0000000  -0.5000000), wk =   0.0370370
        k(   20) = (   0.1666667   0.1619891   0.1666667), wk =   0.0740741
        k(   21) = (   0.1666667   0.1619891   0.3333333), wk =   0.1481481
        k(   22) = (   0.1666667   0.1619891  -0.5000000), wk =   0.0740741
        k(   23) = (   0.1666667   0.3239783   0.1666667), wk =   0.0740741
        k(   24) = (   0.1666667   0.3239783   0.3333333), wk =   0.1481481
        k(   25) = (   0.1666667   0.3239783  -0.5000000), wk =   0.0740741
        k(   26) = (   0.1666667  -0.4859674   0.1666667), wk =   0.0370370
        k(   27) = (   0.1666667  -0.4859674   0.3333333), wk =   0.0740741
        k(   28) = (   0.1666667  -0.4859674  -0.5000000), wk =   0.0370370
        k(   29) = (   0.3333333   0.0000000   0.3333333), wk =   0.0370370
        k(   30) = (   0.3333333   0.0000000  -0.5000000), wk =   0.0370370
        k(   31) = (   0.3333333   0.1619891   0.3333333), wk =   0.0740741
        k(   32) = (   0.3333333   0.1619891  -0.5000000), wk =   0.0740741
        k(   33) = (   0.3333333   0.3239783   0.3333333), wk =   0.0740741
        k(   34) = (   0.3333333   0.3239783  -0.5000000), wk =   0.0740741
        k(   35) = (   0.3333333  -0.4859674   0.3333333), wk =   0.0370370
        k(   36) = (   0.3333333  -0.4859674  -0.5000000), wk =   0.0370370
        k(   37) = (  -0.5000000   0.0000000  -0.5000000), wk =   0.0092593
        k(   38) = (  -0.5000000   0.1619891  -0.5000000), wk =   0.0185185
        k(   39) = (  -0.5000000   0.3239783  -0.5000000), wk =   0.0185185
        k(   40) = (  -0.5000000  -0.4859674  -0.5000000), wk =   0.0092593

     Initial potential from superposition of free atoms

     starting charge  367.99656, renormalised to  368.15000
     Starting wfc are  232 randomized atomic wfcs

     Self-consistent Calculation

     iteration #  1     ecut=   120.00 Ry     beta= 0.70
     Davidson diagonalization with overlap
     ethr =  1.00E-02,  avg # of iterations =  4.9

     total energy              =   -6253.87038192 Ry
     Harris-Foulkes estimate   =   -6264.41476337 Ry
     estimated scf accuracy    <      13.34006193 Ry

[...]

     total energy              =   -6260.96225302 Ry
     Harris-Foulkes estimate   =   -6260.96225302 Ry
     estimated scf accuracy    <       0.00000001 Ry

     iteration # 13     ecut=   120.00 Ry     beta= 0.70
     Davidson diagonalization with overlap
     ethr =  2.73E-12,  avg # of iterations =  2.2

     End of self-consistent calculation

          k = 0.0000 0.0000 0.0000 ( 61277 PWs)   bands (ev):

   -65.8014 -65.8008 -65.8005 -65.8005 -65.7999 -65.7999 -65.7996 -65.7989
   -30.2931 -30.2879 -30.2855 -30.2855 -30.2164 -30.2138 -30.2138 -30.1981
   -30.1691 -30.1557 -30.1557 -30.1429 -30.0985 -30.0937 -30.0937 -30.0884
   -30.0875 -30.0865 -30.0774 -30.0774 -30.0016 -30.0016 -29.9969 -29.9953
   -19.9536 -19.9534 -19.9532 -19.9532 -19.9530 -19.9530 -19.9527 -19.9526
   -19.9401 -19.9401 -19.9401 -19.9397 -19.9397 -19.9393 -19.9393 -19.9393
   -19.9350 -19.9345 -19.9345 -19.9344 -19.9306 -19.9300 -19.9300 -19.9294
   -19.9255 -19.9248 -19.9248 -19.9242 -19.9203 -19.9193 -19.9193 -19.9187
   -19.9186 -19.9186 -19.9186 -19.9185 -19.9170 -19.9170 -19.9166 -19.9157
   -19.9115 -19.9114 -19.9100 -19.9100 -19.9073 -19.9073 -19.9065 -19.9063
   -19.9032 -19.9029 -19.9026 -19.9026 -19.9003 -19.9003 -19.8999 -19.8995
    -9.6711  -9.3450  -9.2461  -9.2461  -8.8261  -8.8261  -8.7706  -8.6575
    -8.5762  -8.4757  -8.4584  -8.4584  -7.7690  -7.7036  -7.5911  -7.5911
    -7.4922  -7.4246  -7.4246  -7.3847  -7.3838  -7.3676  -7.2366  -7.2366
     1.6129   1.6544   1.6703   1.6703   1.8202   1.8713   1.8713   1.9195
     2.0260   2.0260   2.1268   2.3136   2.6577   2.7483   2.7881   2.9372
     2.9920   2.9921   4.4639   4.4639   4.8019   4.8030   4.8095   4.9570
     4.9570   5.0688   5.0688   5.0799   5.4193   5.4193   5.5489   5.6470
     5.6579   5.7438   5.7438   5.7892   5.9495   5.9495   6.0459   6.0506
     6.0691   6.0691   6.1016   6.1495   6.1495   6.2084   6.2826   6.3656
     6.4610   6.7065   6.7065   6.7137   6.7658   6.8040   7.1424   7.1424
     7.1455   7.2248   7.2308   7.2836   7.2836   7.3908   7.3908   7.4251
     7.7499   7.7499   7.9543   7.9953   8.1854   8.2678   8.2678   8.4281
    10.1499  10.2458  10.5261  10.5261  10.5270  10.5715  12.4776  12.4776
    12.5412  12.6178  12.6178  12.8328  12.9191  13.0652  13.0652  13.2546
    13.3637  13.5473  13.5473  13.5839  13.9714  14.0390  14.0390  14.2992
    14.9303  15.1130  15.1130  15.2130  15.6428  15.8532  16.0098  16.1957
    16.1957  16.9572  17.2078  17.2078  17.9369

[...]

          k = 0.3333-0.4860-0.5000 ( 61152 PWs)   bands (ev):

[...]

          k =-0.5000 0.0000-0.5000 ( 61084 PWs)   bands (ev):

[...]

          k =-0.5000-0.4860-0.5000 ( 61184 PWs)   bands (ev):

   -65.8002 -65.8002 -65.8002 -65.8002 -65.8002 -65.8002 -65.8002 -65.8002
   -30.2469 -30.2469 -30.2457 -30.2456 -30.2456 -30.2456 -30.2456 -30.2456
   -30.1286 -30.1286 -30.1285 -30.1285 -30.1285 -30.1285 -30.1275 -30.1275
   -30.0411 -30.0411 -30.0411 -30.0411 -30.0411 -30.0410 -30.0408 -30.0408
   -19.9531 -19.9531 -19.9531 -19.9531 -19.9531 -19.9531 -19.9531 -19.9530
   -19.9398 -19.9398 -19.9398 -19.9398 -19.9397 -19.9397 -19.9397 -19.9397
   -19.9322 -19.9322 -19.9322 -19.9322 -19.9322 -19.9322 -19.9321 -19.9320
   -19.9221 -19.9221 -19.9221 -19.9221 -19.9221 -19.9221 -19.9220 -19.9220
   -19.9178 -19.9178 -19.9178 -19.9178 -19.9177 -19.9177 -19.9177 -19.9177
   -19.9087 -19.9087 -19.9087 -19.9087 -19.9086 -19.9086 -19.9086 -19.9086
   -19.9017 -19.9017 -19.9017 -19.9017 -19.9016 -19.9016 -19.9015 -19.9015
    -8.7405  -8.7405  -8.6758  -8.6758  -8.6558  -8.6558  -8.6557  -8.6557
    -8.1924  -8.1924  -8.1023  -8.1022  -8.1022  -8.1022  -8.0631  -8.0631
    -7.9692  -7.9692  -7.9692  -7.9692  -7.8971  -7.8971  -7.8767  -7.8767
     3.1473   3.1473   3.1473   3.1473   3.1557   3.1557   3.2025   3.2025
     3.3591   3.3591   3.5044   3.5044   3.5044   3.5044   3.6119   3.6119
     3.6910   3.6910   3.8109   3.8109   3.8109   3.8109   3.8212   3.8212
     4.3878   4.3878   4.3990   4.3990   4.4892   4.4892   4.4892   4.4893
     4.6851   4.6851   4.6880   4.6880   4.6880   4.6880   4.7922   4.7922
     4.8442   4.8442   4.9222   4.9223   4.9239   4.9239   4.9239   4.9239
     7.2328   7.2329   7.3788   7.3788   7.3789   7.3789   7.5474   7.5474
     7.6322   7.6322   7.6322   7.6323   7.6820   7.6820   7.7746   7.7746
     7.8840   7.8840   7.8936   7.8936   7.8936   7.8936   7.9746   7.9746
    12.1629  12.1629  12.2136  12.2136  12.2136  12.2136  12.2509  12.2509
    12.5626  12.5626  12.5626  12.5626  12.5780  12.5780  12.7993  12.7993
    12.8436  12.8436  12.9854  12.9854  12.9854  12.9854  13.0163  13.0163
    17.1221  17.1221  17.1221  17.1221  17.2284  17.2284  17.2852  17.2852
    17.6114  17.6336  17.6341  17.6341  17.6341

     the Fermi energy is    10.3884 ev

!    total energy              =   -6260.96225302 Ry
     Harris-Foulkes estimate   =   -6260.96225302 Ry
     estimated scf accuracy    <          7.7E-10 Ry

     The total energy is the sum of the following terms:

     one-electron contribution =   -4627.29206103 Ry
     hartree contribution      =    2555.06456735 Ry
     xc contribution           =    -965.79681948 Ry
     ewald contribution        =   -3222.93793760 Ry
     smearing contrib. (-TS)   =      -0.00000225 Ry

     convergence has been achieved in  13 iterations

     Writing output data file Landau_32.save

     General routines

     Parallel routines

   This run was terminated on:  19:19: 7  10Sep2019

   JOB DONE.