     Program PWSCF v.6.2 (svn rev. 14038) starts on 26Mar2020 at  0:17:46

     K-points division:     npool     =      40
     Reading input from scf.in

     Current dimensions of program PWSCF are:
     Max number of different atomic species (ntypx) = 10
     Max number of k-points (npk) =  40000
     Max angular momentum in pseudopotentials (lmaxx) =  3

     Subspace diagonalization in iterative solution of the eigenvalue problem:
     a serial algorithm will be used

     bravais-lattice index     =            0
     lattice parameter (alat)  =      14.0745  a.u.
     unit-cell volume          =    2823.3471 (a.u.)^3
     number of atoms/cell      =           32
     number of atomic types    =            2
     number of electrons       =       369.00
     number of Kohn-Sham states=          222
     kinetic-energy cutoff     =     120.0000  Ry
     charge density cutoff     =     480.0000  Ry
     convergence threshold     =      1.0E-08
     mixing beta               =       0.7000
     number of iterations used =            8  plain     mixing
     Exchange-correlation      = SLA PW NOGX NOGC ( 1  4  0  0 0 0)

     celldm(1)=  14.074456  celldm(2)=   0.000000  celldm(3)=   0.000000
     celldm(4)=   0.000000  celldm(5)=   0.000000  celldm(6)=   0.000000

     crystal axes: (cart. coord. in units of alat)
               a(1) = (   1.000000   0.000000   0.000000 )
               a(2) = (   0.000000   1.008964   0.000000 )
               a(3) = (   0.000000   0.000000   1.003677 )

     reciprocal axes: (cart. coord. in units 2 pi/alat)
               b(1) = (  1.000000  0.000000  0.000000 )
               b(2) = (  0.000000  0.991116  0.000000 )
               b(3) = (  0.000000  0.000000  0.996337 )

     PseudoPot. # 1 for W  read from file:
     /cluster/scratch/mnoe/QE/pps/W_ONCV_LDA-4.0.upf
     MD5 check sum: ba0307d5d4cd419d6f1d13dc49d7c13a
     Pseudo is Norm-conserving + core correction, Zval = 28.0
     Generated using ONCVPSP code by D. R. Hamann
     Using radial grid of 1380 points,  8 beta functions with:
                l(1) =   0
                l(2) =   0
                l(3) =   1
                l(4) =   1
                l(5) =   2
                l(6) =   2
                l(7) =   3
                l(8) =   3

     PseudoPot. # 2 for O  read from file:
     /cluster/scratch/mnoe/QE/pps/O_ONCV_LDA-3.0.upf
     MD5 check sum: a1bd6164e7280c17a38c229939bfbd54
     Pseudo is Norm-conserving + core correction, Zval =  6.0
     Generated using ONCVPSP code by D. R. Hamann
     Using radial grid of  926 points,  5 beta functions with:
                l(1) =   0
                l(2) =   0
                l(3) =   1
                l(4) =   1
                l(5) =   2

     atomic species   valence    mass     pseudopotential
        W             28.00   183.84000     W ( 1.00)
        O              6.00    15.99940     O ( 1.00)

      4 Sym. Ops. (no inversion) found ( 3 have fractional translation)

   Cartesian axes

     site n.     atom                  positions (alat units)
         1           W   tau(   1) = (   0.2254974   0.2754952   0.0074347  )
         2           W   tau(   2) = (   0.7587973   0.7334686  -0.0241269  )
         3           W   tau(   3) = (   0.2745026   0.2289867   0.5092729  )
         4           W   tau(   4) = (   0.7412026   0.7799771   0.4777113  )
         5           W   tau(   5) = (   0.7745025   0.2754952   0.4944036  )
         6           W   tau(   6) = (   0.2412026   0.7334686   0.5259652  )
         7           W   tau(   7) = (   0.7254974   0.2289867  -0.0074346  )
         8           W   tau(   8) = (   0.2587974   0.7799771   0.0241269  )
         9           O   tau(   9) = (   0.2168423   0.0059723  -0.0104925  )
        10           O   tau(  10) = (   0.7782762  -0.0059723  -0.0203025  )
        11           O   tau(  11) = (   0.2831577   0.4985096   0.4913457  )
        12           O   tau(  12) = (   0.7217237   0.5104543   0.4815358  )
        13           O   tau(  13) = (   0.7831577   0.0059723   0.5123308  )
        14           O   tau(  14) = (   0.2217237  -0.0059723   0.5221407  )
        15           O   tau(  15) = (   0.7168422   0.4985096   0.0104925  )
        16           O   tau(  16) = (   0.2782763   0.5104543   0.0203025  )
        17           O   tau(  17) = (   0.5080016   0.2169846   0.4728200  )
        18           O   tau(  18) = (   0.4988936   0.7850495   0.5308567  )
        19           O   tau(  19) = (  -0.0080016   0.2874973   0.9746583  )
        20           O   tau(  20) = (   0.0011064   0.7283964   0.0290182  )
        21           O   tau(  21) = (   0.4919984   0.2169846   0.0290182  )
        22           O   tau(  22) = (   0.5011064   0.7850495   0.9746583  )
        23           O   tau(  23) = (   0.0080015   0.2874973   0.5308567  )
        24           O   tau(  24) = (  -0.0011065   0.7283964   0.4728200  )
        25           O   tau(  25) = (   0.7210880   0.2611810   0.7481118  )
        26           O   tau(  26) = (   0.2789120   0.7795383   0.2601303  )
        27           O   tau(  27) = (   0.7789121   0.2433009   0.2462736  )
        28           O   tau(  28) = (   0.2210880   0.7339076   0.7619685  )
        29           O   tau(  29) = (   0.2789120   0.2611810   0.7574030  )
        30           O   tau(  30) = (   0.7210880   0.7795383   0.2417080  )
        31           O   tau(  31) = (   0.2210880   0.2433009   0.2555647  )
        32           O   tau(  32) = (   0.7789121   0.7339076   0.7435462  )

     number of k points=    64  gaussian smearing, width (Ry)=  0.0007
                       cart. coord. in units 2pi/alat
        k(    1) = (   0.0000000   0.0000000   0.0000000), wk =   0.0092593
        k(    2) = (   0.0000000   0.0000000   0.1660562), wk =   0.0185185
        k(    3) = (   0.0000000   0.0000000   0.3321123), wk =   0.0185185
        k(    4) = (   0.0000000   0.0000000  -0.4981685), wk =   0.0092593
        k(    5) = (   0.0000000   0.1651860   0.0000000), wk =   0.0185185
        k(    6) = (   0.0000000   0.1651860   0.1660562), wk =   0.0370370
        k(    7) = (   0.0000000   0.1651860   0.3321123), wk =   0.0370370
        k(    8) = (   0.0000000   0.1651860  -0.4981685), wk =   0.0185185
        k(    9) = (   0.0000000   0.3303719   0.0000000), wk =   0.0185185
        k(   10) = (   0.0000000   0.3303719   0.1660562), wk =   0.0370370
        k(   11) = (   0.0000000   0.3303719   0.3321123), wk =   0.0370370
        k(   12) = (   0.0000000   0.3303719  -0.4981685), wk =   0.0185185
        k(   13) = (   0.0000000  -0.4955579   0.0000000), wk =   0.0092593
        k(   14) = (   0.0000000  -0.4955579   0.1660562), wk =   0.0185185
        k(   15) = (   0.0000000  -0.4955579   0.3321123), wk =   0.0185185
        k(   16) = (   0.0000000  -0.4955579  -0.4981685), wk =   0.0092593
        k(   17) = (   0.1666667   0.0000000   0.0000000), wk =   0.0185185
        k(   18) = (   0.1666667   0.0000000   0.1660562), wk =   0.0370370
        k(   19) = (   0.1666667   0.0000000   0.3321123), wk =   0.0370370
        k(   20) = (   0.1666667   0.0000000  -0.4981685), wk =   0.0185185
        k(   21) = (   0.1666667   0.1651860   0.0000000), wk =   0.0370370
        k(   22) = (   0.1666667   0.1651860   0.1660562), wk =   0.0740741
        k(   23) = (   0.1666667   0.1651860   0.3321123), wk =   0.0740741
        k(   24) = (   0.1666667   0.1651860  -0.4981685), wk =   0.0370370
        k(   25) = (   0.1666667   0.3303719   0.0000000), wk =   0.0370370
        k(   26) = (   0.1666667   0.3303719   0.1660562), wk =   0.0740741
        k(   27) = (   0.1666667   0.3303719   0.3321123), wk =   0.0740741
        k(   28) = (   0.1666667   0.3303719  -0.4981685), wk =   0.0370370
        k(   29) = (   0.1666667  -0.4955579   0.0000000), wk =   0.0185185
        k(   30) = (   0.1666667  -0.4955579   0.1660562), wk =   0.0370370
        k(   31) = (   0.1666667  -0.4955579   0.3321123), wk =   0.0370370
        k(   32) = (   0.1666667  -0.4955579  -0.4981685), wk =   0.0185185
        k(   33) = (   0.3333333   0.0000000   0.0000000), wk =   0.0185185
        k(   34) = (   0.3333333   0.0000000   0.1660562), wk =   0.0370370
        k(   35) = (   0.3333333   0.0000000   0.3321123), wk =   0.0370370
        k(   36) = (   0.3333333   0.0000000  -0.4981685), wk =   0.0185185
        k(   37) = (   0.3333333   0.1651860   0.0000000), wk =   0.0370370
        k(   38) = (   0.3333333   0.1651860   0.1660562), wk =   0.0740741
        k(   39) = (   0.3333333   0.1651860   0.3321123), wk =   0.0740741
        k(   40) = (   0.3333333   0.1651860  -0.4981685), wk =   0.0370370
        k(   41) = (   0.3333333   0.3303719   0.0000000), wk =   0.0370370
        k(   42) = (   0.3333333   0.3303719   0.1660562), wk =   0.0740741
        k(   43) = (   0.3333333   0.3303719   0.3321123), wk =   0.0740741
        k(   44) = (   0.3333333   0.3303719  -0.4981685), wk =   0.0370370
        k(   45) = (   0.3333333  -0.4955579   0.0000000), wk =   0.0185185
        k(   46) = (   0.3333333  -0.4955579   0.1660562), wk =   0.0370370
        k(   47) = (   0.3333333  -0.4955579   0.3321123), wk =   0.0370370
        k(   48) = (   0.3333333  -0.4955579  -0.4981685), wk =   0.0185185
        k(   49) = (  -0.5000000   0.0000000   0.0000000), wk =   0.0092593
        k(   50) = (  -0.5000000   0.0000000   0.1660562), wk =   0.0185185
        k(   51) = (  -0.5000000   0.0000000   0.3321123), wk =   0.0185185
        k(   52) = (  -0.5000000   0.0000000  -0.4981685), wk =   0.0092593
        k(   53) = (  -0.5000000   0.1651860   0.0000000), wk =   0.0185185
        k(   54) = (  -0.5000000   0.1651860   0.1660562), wk =   0.0370370
        k(   55) = (  -0.5000000   0.1651860   0.3321123), wk =   0.0370370
        k(   56) = (  -0.5000000   0.1651860  -0.4981685), wk =   0.0185185
        k(   57) = (  -0.5000000   0.3303719   0.0000000), wk =   0.0185185
        k(   58) = (  -0.5000000   0.3303719   0.1660562), wk =   0.0370370
        k(   59) = (  -0.5000000   0.3303719   0.3321123), wk =   0.0370370
        k(   60) = (  -0.5000000   0.3303719  -0.4981685), wk =   0.0185185
        k(   61) = (  -0.5000000  -0.4955579   0.0000000), wk =   0.0092593
        k(   62) = (  -0.5000000  -0.4955579   0.1660562), wk =   0.0185185
        k(   63) = (  -0.5000000  -0.4955579   0.3321123), wk =   0.0185185
        k(   64) = (  -0.5000000  -0.4955579  -0.4981685), wk =   0.0092593

     Initial potential from superposition of free atoms

     starting charge  367.99656, renormalised to  369.00000
     Starting wfc are  232 randomized atomic wfcs

     Self-consistent Calculation

     iteration #  1     ecut=   120.00 Ry     beta= 0.70
     Davidson diagonalization with overlap
     ethr =  1.00E-02,  avg # of iterations =  5.6

     total energy              =   -6253.07207953 Ry
     Harris-Foulkes estimate   =   -6264.04517992 Ry
     estimated scf accuracy    <      13.77781890 Ry

[...]

     total energy              =   -6260.37693494 Ry
     Harris-Foulkes estimate   =   -6260.37693496 Ry
     estimated scf accuracy    <       0.00000003 Ry

     iteration # 14     ecut=   120.00 Ry     beta= 0.70
     Davidson diagonalization with overlap
     ethr =  8.03E-12,  avg # of iterations =  2.0

     End of self-consistent calculation

          k = 0.0000 0.0000 0.0000 ( 62681 PWs)   bands (ev):

   -66.0591 -66.0584 -66.0583 -66.0581 -66.0576 -66.0574 -66.0573 -66.0566
   -30.5112 -30.5058 -30.5019 -30.4994 -30.4538 -30.4495 -30.4487 -30.4378
   -30.4193 -30.4130 -30.4045 -30.3944 -30.3869 -30.3813 -30.3731 -30.3686
   -30.3534 -30.3493 -30.3479 -30.3478 -30.2985 -30.2950 -30.2904 -30.2850
   -20.2018 -20.2017 -20.2008 -20.2008 -20.2004 -20.2001 -20.2001 -20.1999
   -20.1949 -20.1948 -20.1921 -20.1920 -20.1898 -20.1890 -20.1890 -20.1878
   -20.1857 -20.1853 -20.1837 -20.1836 -20.1824 -20.1823 -20.1821 -20.1820
   -20.1815 -20.1814 -20.1806 -20.1799 -20.1791 -20.1786 -20.1780 -20.1773
   -20.1766 -20.1761 -20.1753 -20.1741 -20.1738 -20.1738 -20.1728 -20.1725
   -20.1686 -20.1674 -20.1659 -20.1655 -20.1648 -20.1646 -20.1612 -20.1608
   -20.1603 -20.1595 -20.1590 -20.1582 -20.1579 -20.1566 -20.1553 -20.1540
    -9.9857  -9.6424  -9.6207  -9.6087  -9.2510  -9.2385  -9.2171  -9.0347
    -8.9734  -8.9255  -8.9251  -8.9036  -7.9566  -7.9048  -7.8633  -7.8471
    -7.7936  -7.7471  -7.7337  -7.7057  -7.6955  -7.6919  -7.6433  -7.6262
     1.1894   1.2339   1.2369   1.2651   1.3210   1.3627   1.4041   1.4073
     1.5368   1.5668   1.5952   1.7923   2.4268   2.4511   2.5406   2.5752
     2.5826   2.6563   4.2405   4.3026   4.4498   4.4981   4.5446   4.5689
     4.6001   4.6448   4.6483   4.7238   4.8552   4.9131   5.2420   5.3180
     5.3643   5.4092   5.4662   5.5882   5.5920   5.6026   5.6381   5.6591
     5.6818   5.7284   5.8415   5.9352   5.9362   5.9641   5.9886   6.0553
     6.1227   6.2818   6.2921   6.3465   6.5002   6.5415   6.8306   6.8530
     6.8896   6.9425   6.9609   6.9651   7.0278   7.0340   7.0432   7.0439
     7.1808   7.2220   7.9138   7.9225   8.0105   8.0221   8.1037   8.1400
     9.6243   9.6835   9.7733   9.8077   9.8272   9.8837  12.2774  12.3790
    12.4280  12.5127  12.5174  12.6637  12.7203  12.7930  12.8286  12.8532
    13.0134  13.0377  13.2613  13.5267  13.5282  13.7208  13.8875  14.0684
    14.6720  14.7199  14.7328  14.9342  15.0166  15.1325  15.8035  15.8712
    15.9179  16.8548  16.9274  17.0335  17.1266  17.5873

[...]

          k = 0.3333-0.4956-0.4982 ( 62640 PWs)   bands (ev):

[...]

          k =-0.5000 0.0000 0.0000 ( 62606 PWs)   bands (ev):

[...]

          k =-0.5000-0.4956-0.4982 ( 62680 PWs)   bands (ev):

   -66.0582 -66.0582 -66.0582 -66.0582 -66.0576 -66.0575 -66.0575 -66.0575
   -30.4677 -30.4677 -30.4674 -30.4673 -30.4622 -30.4622 -30.4621 -30.4621
   -30.3940 -30.3939 -30.3937 -30.3937 -30.3923 -30.3923 -30.3920 -30.3920
   -30.3378 -30.3378 -30.3372 -30.3372 -30.3276 -30.3276 -30.3271 -30.3271
   -20.2011 -20.2011 -20.2011 -20.2011 -20.2002 -20.2001 -20.2001 -20.2001
   -20.1933 -20.1932 -20.1932 -20.1932 -20.1889 -20.1889 -20.1889 -20.1889
   -20.1833 -20.1833 -20.1832 -20.1832 -20.1828 -20.1828 -20.1828 -20.1827
   -20.1808 -20.1808 -20.1805 -20.1805 -20.1780 -20.1780 -20.1778 -20.1778
   -20.1766 -20.1766 -20.1762 -20.1762 -20.1739 -20.1739 -20.1739 -20.1739
   -20.1669 -20.1669 -20.1668 -20.1667 -20.1632 -20.1632 -20.1629 -20.1629
   -20.1597 -20.1597 -20.1595 -20.1595 -20.1561 -20.1561 -20.1561 -20.1560
    -9.0192  -9.0192  -8.9900  -8.9900  -8.9800  -8.9800  -8.9791  -8.9791
    -8.5150  -8.5149  -8.4692  -8.4692  -8.4486  -8.4485  -8.4303  -8.4303
    -8.3713  -8.3713  -8.3514  -8.3513  -8.3405  -8.3405  -8.3220  -8.3220
     2.8690   2.8690   2.8948   2.8949   2.9350   2.9351   2.9474   2.9474
     3.0794   3.0794   3.1356   3.1356   3.1822   3.1822   3.2315   3.2315
     3.3146   3.3147   3.3698   3.3698   3.4878   3.4878   3.4976   3.4976
     4.0487   4.0487   4.1090   4.1090   4.1228   4.1228   4.1377   4.1377
     4.2159   4.2159   4.2706   4.2706   4.3047   4.3047   4.3262   4.3263
     4.4113   4.4113   4.4276   4.4276   4.4797   4.4797   4.5186   4.5186
     7.0406   7.0406   7.0904   7.0904   7.1481   7.1481   7.2121   7.2121
     7.2463   7.2463   7.2618   7.2618   7.3459   7.3459   7.3893   7.3893
     7.5124   7.5125   7.5133   7.5133   7.5435   7.5435   7.5842   7.5842
    11.8642  11.8642  11.8947  11.8947  11.9523  11.9523  11.9606  11.9606
    12.1245  12.1245  12.1509  12.1509  12.2496  12.2497  12.3061  12.3061
    12.3570  12.3570  12.4191  12.4191  12.4979  12.4979  12.5113  12.5113
    16.9497  16.9497  17.0099  17.0100  17.0190  17.0191  17.1528  17.1529
    17.5146  17.5146  17.5538  17.5538  17.5582  17.5582

     the Fermi energy is    10.0107 ev

!    total energy              =   -6260.37693495 Ry
     Harris-Foulkes estimate   =   -6260.37693495 Ry
     estimated scf accuracy    <          3.2E-09 Ry

     The total energy is the sum of the following terms:

     one-electron contribution =   -4743.05683968 Ry
     hartree contribution      =    2609.75462889 Ry
     xc contribution           =    -966.76345742 Ry
     ewald contribution        =   -3160.31123571 Ry
     smearing contrib. (-TS)   =      -0.00003103 Ry

     convergence has been achieved in  14 iterations

     Writing output data file Landau_18.save

     General routines

     Parallel routines

   This run was terminated on:   0:53: 6  26Mar2020

   JOB DONE.