     Program PWSCF v.6.2 (svn rev. 14038) starts on 25Mar2020 at 20:43: 6

     K-points division:     npool     =      40
     Reading input from scf.in

     Current dimensions of program PWSCF are:
     Max number of different atomic species (ntypx) = 10
     Max number of k-points (npk) =  40000
     Max angular momentum in pseudopotentials (lmaxx) =  3

     Subspace diagonalization in iterative solution of the eigenvalue problem:
     a serial algorithm will be used

     bravais-lattice index     =            0
     lattice parameter (alat)  =      13.9313  a.u.
     unit-cell volume          =    2824.4243 (a.u.)^3
     number of atoms/cell      =           32
     number of atomic types    =            2
     number of electrons       =       368.60
     number of Kohn-Sham states=          221
     kinetic-energy cutoff     =     120.0000  Ry
     charge density cutoff     =     480.0000  Ry
     convergence threshold     =      1.0E-08
     mixing beta               =       0.7000
     number of iterations used =            8  plain     mixing
     Exchange-correlation      = SLA PW NOGX NOGC ( 1  4  0  0 0 0)

     celldm(1)=  13.931282  celldm(2)=   0.000000  celldm(3)=   0.000000
     celldm(4)=   0.000000  celldm(5)=   0.000000  celldm(6)=   0.000000

     crystal axes: (cart. coord. in units of alat)
               a(1) = (   1.000000   0.000000   0.000000 )
               a(2) = (   0.000000   1.044103   0.000000 )
               a(3) = (   0.000000   0.000000   1.000492 )

     reciprocal axes: (cart. coord. in units 2 pi/alat)
               b(1) = (  1.000000  0.000000  0.000000 )
               b(2) = (  0.000000  0.957760  0.000000 )
               b(3) = (  0.000000  0.000000  0.999509 )

     PseudoPot. # 1 for W  read from file:
     /cluster/scratch/mnoe/QE/pps/W_ONCV_LDA-4.0.upf
     MD5 check sum: ba0307d5d4cd419d6f1d13dc49d7c13a
     Pseudo is Norm-conserving + core correction, Zval = 28.0
     Generated using ONCVPSP code by D. R. Hamann
     Using radial grid of 1380 points,  8 beta functions with:
                l(1) =   0
                l(2) =   0
                l(3) =   1
                l(4) =   1
                l(5) =   2
                l(6) =   2
                l(7) =   3
                l(8) =   3

     PseudoPot. # 2 for O  read from file:
     /cluster/scratch/mnoe/QE/pps/O_ONCV_LDA-3.0.upf
     MD5 check sum: a1bd6164e7280c17a38c229939bfbd54
     Pseudo is Norm-conserving + core correction, Zval =  6.0
     Generated using ONCVPSP code by D. R. Hamann
     Using radial grid of  926 points,  5 beta functions with:
                l(1) =   0
                l(2) =   0
                l(3) =   1
                l(4) =   1
                l(5) =   2

     atomic species   valence    mass     pseudopotential
        W             28.00   183.84000     W ( 1.00)
        O              6.00    15.99940     O ( 1.00)

      4 Sym. Ops. (no inversion) found ( 3 have fractional translation)

   Cartesian axes

     site n.     atom                  positions (alat units)
         1           W   tau(   1) = (   0.2418325   0.2912238   0.0024704  )
         2           W   tau(   2) = (   0.7529324   0.7528790  -0.0080168  )
         3           W   tau(   3) = (   0.2581675   0.2308276   0.5027161  )
         4           W   tau(   4) = (   0.7470675   0.8132752   0.4922290  )
         5           W   tau(   5) = (   0.7581675   0.2912238   0.4977754  )
         6           W   tau(   6) = (   0.2470675   0.7528790   0.5082626  )
         7           W   tau(   7) = (   0.7418325   0.2308276  -0.0024704  )
         8           W   tau(   8) = (   0.2529325   0.8132752   0.0080168  )
         9           O   tau(   9) = (   0.2389474   0.0078514  -0.0034864  )
        10           O   tau(  10) = (   0.7594254  -0.0078514  -0.0067460  )
        11           O   tau(  11) = (   0.2610526   0.5142000   0.4967594  )
        12           O   tau(  12) = (   0.7405746   0.5299028   0.4934998  )
        13           O   tau(  13) = (   0.7610526   0.0078514   0.5037322  )
        14           O   tau(  14) = (   0.2405746  -0.0078514   0.5069918  )
        15           O   tau(  15) = (   0.7389474   0.5142000   0.0034864  )
        16           O   tau(  16) = (   0.2594254   0.5299028   0.0067460  )
        17           O   tau(  17) = (   0.5026672   0.2488643   0.4569472  )
        18           O   tau(  18) = (   0.4996312   0.7928482   0.5435444  )
        19           O   tau(  19) = (  -0.0026672   0.2731871   0.9571930  )
        20           O   tau(  20) = (   0.0003688   0.7733061   0.0432986  )
        21           O   tau(  21) = (   0.4973328   0.2488643   0.0432986  )
        22           O   tau(  22) = (   0.5003688   0.7928482   0.9571930  )
        23           O   tau(  23) = (   0.0026672   0.2731871   0.5435444  )
        24           O   tau(  24) = (  -0.0003688   0.7733061   0.4569472  )
        25           O   tau(  25) = (   0.7067227   0.2641095   0.7488250  )
        26           O   tau(  26) = (   0.2932773   0.7909471   0.2531835  )
        27           O   tau(  27) = (   0.7932774   0.2579419   0.2485793  )
        28           O   tau(  28) = (   0.2067227   0.7752072   0.7534293  )
        29           O   tau(  29) = (   0.2932773   0.2641095   0.7519123  )
        30           O   tau(  30) = (   0.7067227   0.7909471   0.2470623  )
        31           O   tau(  31) = (   0.2067227   0.2579419   0.2516665  )
        32           O   tau(  32) = (   0.7932774   0.7752072   0.7473080  )

     number of k points=    64  gaussian smearing, width (Ry)=  0.0007
                       cart. coord. in units 2pi/alat
        k(    1) = (   0.0000000   0.0000000   0.0000000), wk =   0.0092593
        k(    2) = (   0.0000000   0.0000000   0.1665848), wk =   0.0185185
        k(    3) = (   0.0000000   0.0000000   0.3331696), wk =   0.0185185
        k(    4) = (   0.0000000   0.0000000  -0.4997543), wk =   0.0092593
        k(    5) = (   0.0000000   0.1596267   0.0000000), wk =   0.0185185
        k(    6) = (   0.0000000   0.1596267   0.1665848), wk =   0.0370370
        k(    7) = (   0.0000000   0.1596267   0.3331696), wk =   0.0370370
        k(    8) = (   0.0000000   0.1596267  -0.4997543), wk =   0.0185185
        k(    9) = (   0.0000000   0.3192534   0.0000000), wk =   0.0185185
        k(   10) = (   0.0000000   0.3192534   0.1665848), wk =   0.0370370
        k(   11) = (   0.0000000   0.3192534   0.3331696), wk =   0.0370370
        k(   12) = (   0.0000000   0.3192534  -0.4997543), wk =   0.0185185
        k(   13) = (   0.0000000  -0.4788800   0.0000000), wk =   0.0092593
        k(   14) = (   0.0000000  -0.4788800   0.1665848), wk =   0.0185185
        k(   15) = (   0.0000000  -0.4788800   0.3331696), wk =   0.0185185
        k(   16) = (   0.0000000  -0.4788800  -0.4997543), wk =   0.0092593
        k(   17) = (   0.1666667   0.0000000   0.0000000), wk =   0.0185185
        k(   18) = (   0.1666667   0.0000000   0.1665848), wk =   0.0370370
        k(   19) = (   0.1666667   0.0000000   0.3331696), wk =   0.0370370
        k(   20) = (   0.1666667   0.0000000  -0.4997543), wk =   0.0185185
        k(   21) = (   0.1666667   0.1596267   0.0000000), wk =   0.0370370
        k(   22) = (   0.1666667   0.1596267   0.1665848), wk =   0.0740741
        k(   23) = (   0.1666667   0.1596267   0.3331696), wk =   0.0740741
        k(   24) = (   0.1666667   0.1596267  -0.4997543), wk =   0.0370370
        k(   25) = (   0.1666667   0.3192534   0.0000000), wk =   0.0370370
        k(   26) = (   0.1666667   0.3192534   0.1665848), wk =   0.0740741
        k(   27) = (   0.1666667   0.3192534   0.3331696), wk =   0.0740741
        k(   28) = (   0.1666667   0.3192534  -0.4997543), wk =   0.0370370
        k(   29) = (   0.1666667  -0.4788800   0.0000000), wk =   0.0185185
        k(   30) = (   0.1666667  -0.4788800   0.1665848), wk =   0.0370370
        k(   31) = (   0.1666667  -0.4788800   0.3331696), wk =   0.0370370
        k(   32) = (   0.1666667  -0.4788800  -0.4997543), wk =   0.0185185
        k(   33) = (   0.3333333   0.0000000   0.0000000), wk =   0.0185185
        k(   34) = (   0.3333333   0.0000000   0.1665848), wk =   0.0370370
        k(   35) = (   0.3333333   0.0000000   0.3331696), wk =   0.0370370
        k(   36) = (   0.3333333   0.0000000  -0.4997543), wk =   0.0185185
        k(   37) = (   0.3333333   0.1596267   0.0000000), wk =   0.0370370
        k(   38) = (   0.3333333   0.1596267   0.1665848), wk =   0.0740741
        k(   39) = (   0.3333333   0.1596267   0.3331696), wk =   0.0740741
        k(   40) = (   0.3333333   0.1596267  -0.4997543), wk =   0.0370370
        k(   41) = (   0.3333333   0.3192534   0.0000000), wk =   0.0370370
        k(   42) = (   0.3333333   0.3192534   0.1665848), wk =   0.0740741
        k(   43) = (   0.3333333   0.3192534   0.3331696), wk =   0.0740741
        k(   44) = (   0.3333333   0.3192534  -0.4997543), wk =   0.0370370
        k(   45) = (   0.3333333  -0.4788800   0.0000000), wk =   0.0185185
        k(   46) = (   0.3333333  -0.4788800   0.1665848), wk =   0.0370370
        k(   47) = (   0.3333333  -0.4788800   0.3331696), wk =   0.0370370
        k(   48) = (   0.3333333  -0.4788800  -0.4997543), wk =   0.0185185
        k(   49) = (  -0.5000000   0.0000000   0.0000000), wk =   0.0092593
        k(   50) = (  -0.5000000   0.0000000   0.1665848), wk =   0.0185185
        k(   51) = (  -0.5000000   0.0000000   0.3331696), wk =   0.0185185
        k(   52) = (  -0.5000000   0.0000000  -0.4997543), wk =   0.0092593
        k(   53) = (  -0.5000000   0.1596267   0.0000000), wk =   0.0185185
        k(   54) = (  -0.5000000   0.1596267   0.1665848), wk =   0.0370370
        k(   55) = (  -0.5000000   0.1596267   0.3331696), wk =   0.0370370
        k(   56) = (  -0.5000000   0.1596267  -0.4997543), wk =   0.0185185
        k(   57) = (  -0.5000000   0.3192534   0.0000000), wk =   0.0185185
        k(   58) = (  -0.5000000   0.3192534   0.1665848), wk =   0.0370370
        k(   59) = (  -0.5000000   0.3192534   0.3331696), wk =   0.0370370
        k(   60) = (  -0.5000000   0.3192534  -0.4997543), wk =   0.0185185
        k(   61) = (  -0.5000000  -0.4788800   0.0000000), wk =   0.0092593
        k(   62) = (  -0.5000000  -0.4788800   0.1665848), wk =   0.0185185
        k(   63) = (  -0.5000000  -0.4788800   0.3331696), wk =   0.0185185
        k(   64) = (  -0.5000000  -0.4788800  -0.4997543), wk =   0.0092593

     Initial potential from superposition of free atoms

     starting charge  367.99656, renormalised to  368.60000
     Starting wfc are  232 randomized atomic wfcs

     Self-consistent Calculation

     iteration #  1     ecut=   120.00 Ry     beta= 0.70
     Davidson diagonalization with overlap
     ethr =  1.00E-02,  avg # of iterations =  5.1

     total energy              =   -6253.43837570 Ry
     Harris-Foulkes estimate   =   -6264.28563594 Ry
     estimated scf accuracy    <      13.66430856 Ry

[...]

     total energy              =   -6260.69094866 Ry
     Harris-Foulkes estimate   =   -6260.69094868 Ry
     estimated scf accuracy    <       0.00000003 Ry

     iteration # 14     ecut=   120.00 Ry     beta= 0.70
     Davidson diagonalization with overlap
     ethr =  9.22E-12,  avg # of iterations =  3.0

     End of self-consistent calculation

          k = 0.0000 0.0000 0.0000 ( 62759 PWs)   bands (ev):

   -66.1596 -66.1591 -66.1587 -66.1587 -66.1582 -66.1582 -66.1578 -66.1573
   -30.5905 -30.5862 -30.5860 -30.5820 -30.5319 -30.5256 -30.5252 -30.5190
   -30.5053 -30.4990 -30.4975 -30.4959 -30.4926 -30.4890 -30.4883 -30.4848
   -30.4094 -30.4068 -30.4057 -30.4033 -30.3972 -30.3945 -30.3924 -30.3901
   -20.3110 -20.3109 -20.3106 -20.3105 -20.3104 -20.3103 -20.3102 -20.3101
   -20.3093 -20.3091 -20.3089 -20.3088 -20.3044 -20.3040 -20.3040 -20.3035
   -20.3001 -20.2999 -20.2999 -20.2994 -20.2991 -20.2987 -20.2982 -20.2981
   -20.2973 -20.2972 -20.2970 -20.2966 -20.2961 -20.2957 -20.2955 -20.2953
   -20.2870 -20.2868 -20.2865 -20.2861 -20.2861 -20.2859 -20.2856 -20.2854
   -20.2612 -20.2611 -20.2604 -20.2600 -20.2597 -20.2593 -20.2592 -20.2585
   -20.2555 -20.2550 -20.2549 -20.2542 -20.2541 -20.2539 -20.2532 -20.2528
   -10.0136  -9.7117  -9.6072  -9.6069  -9.3127  -9.3078  -9.2150  -9.0971
    -9.0821  -8.9955  -8.9662  -8.9648  -7.9384  -7.8764  -7.8733  -7.8259
    -7.8216  -7.8210  -7.7900  -7.7814  -7.7071  -7.7045  -7.6708  -7.6688
     1.1276   1.1310   1.1945   1.1997   1.2328   1.2423   1.2471   1.4621
     1.4940   1.5006   1.5313   1.7407   2.3797   2.4659   2.4801   2.4942
     2.6230   2.6291   4.1213   4.1326   4.3244   4.3440   4.6807   4.7141
     4.7214   4.7226   4.7527   4.7528   4.8923   4.8933   5.0321   5.3787
     5.3852   5.3969   5.3988   5.4797   5.4841   5.5123   5.5261   5.7496
     5.7534   5.7799   5.7940   5.7967   5.8932   6.0242   6.0314   6.0530
     6.0560   6.2290   6.2388   6.4191   6.4217   6.7533   6.7559   6.7688
     6.8015   6.8119   6.9369   6.9600   6.9978   7.0068   7.2385   7.2489
     7.2890   7.2993   7.8511   7.8654   7.9927   8.0105   8.0542   8.0811
     9.2307   9.2431   9.8051   9.8138   9.8153   9.8210  12.2541  12.2572
    12.3060  12.3147  12.3752  12.3845  12.4650  12.4923  12.8432  12.9649
    13.1195  13.2293  13.2329  13.2428  13.7503  13.9699  14.0487  14.0743
    14.1908  14.3681  14.4373  14.7424  15.2647  15.2771  15.4853  15.9658
    15.9792  16.8102  16.9986  17.0134  17.2069

[...]

          k = 0.3333-0.4789-0.4998 ( 62684 PWs)   bands (ev):

[...]

          k =-0.5000 0.0000 0.0000 ( 62712 PWs)   bands (ev):

[...]

          k =-0.5000-0.4789-0.4998 ( 62648 PWs)   bands (ev):

   -66.1585 -66.1585 -66.1585 -66.1585 -66.1584 -66.1584 -66.1584 -66.1584
   -30.5555 -30.5555 -30.5553 -30.5553 -30.5551 -30.5551 -30.5550 -30.5550
   -30.4555 -30.4555 -30.4549 -30.4549 -30.4542 -30.4542 -30.4536 -30.4536
   -30.4418 -30.4418 -30.4412 -30.4412 -30.4402 -30.4402 -30.4397 -30.4397
   -20.3104 -20.3104 -20.3104 -20.3104 -20.3103 -20.3103 -20.3103 -20.3103
   -20.3069 -20.3069 -20.3069 -20.3069 -20.3067 -20.3067 -20.3067 -20.3067
   -20.2985 -20.2985 -20.2984 -20.2984 -20.2983 -20.2983 -20.2983 -20.2983
   -20.2973 -20.2973 -20.2972 -20.2972 -20.2970 -20.2970 -20.2968 -20.2968
   -20.2862 -20.2862 -20.2862 -20.2862 -20.2860 -20.2860 -20.2860 -20.2860
   -20.2579 -20.2579 -20.2578 -20.2578 -20.2578 -20.2578 -20.2577 -20.2577
   -20.2568 -20.2568 -20.2567 -20.2567 -20.2564 -20.2564 -20.2564 -20.2564
    -9.0129  -9.0129  -9.0044  -9.0044  -9.0001  -9.0001  -8.9996  -8.9996
    -8.5011  -8.5011  -8.4792  -8.4792  -8.4754  -8.4754  -8.4720  -8.4720
    -8.4418  -8.4418  -8.4356  -8.4356  -8.4267  -8.4267  -8.4169  -8.4169
     2.9214   2.9214   2.9231   2.9231   2.9488   2.9488   2.9537   2.9537
     3.0846   3.0846   3.0853   3.0853   3.1202   3.1202   3.1319   3.1319
     3.2968   3.2968   3.3537   3.3537   3.3979   3.3979   3.4273   3.4273
     4.0669   4.0669   4.0806   4.0806   4.0863   4.0863   4.0887   4.0887
     4.2454   4.2454   4.2586   4.2586   4.2618   4.2618   4.2775   4.2775
     4.3486   4.3487   4.3683   4.3683   4.3824   4.3824   4.3871   4.3871
     7.0547   7.0547   7.0967   7.0967   7.1402   7.1402   7.1991   7.1991
     7.2556   7.2556   7.2615   7.2615   7.2692   7.2692   7.2724   7.2724
     7.5092   7.5092   7.5167   7.5167   7.5315   7.5315   7.5478   7.5478
    11.8000  11.8000  11.8005  11.8005  11.8077  11.8077  11.8126  11.8126
    12.1048  12.1048  12.1412  12.1412  12.1858  12.1858  12.2417  12.2417
    12.3786  12.3786  12.4072  12.4072  12.4302  12.4302  12.4430  12.4430
    17.0481  17.0481  17.0680  17.0680  17.0953  17.0953  17.1225  17.1225
    17.3768  17.3771  17.3913  17.3941  17.3941

     the Fermi energy is     9.7992 ev

!    total energy              =   -6260.69094867 Ry
     Harris-Foulkes estimate   =   -6260.69094867 Ry
     estimated scf accuracy    <          4.8E-09 Ry

     The total energy is the sum of the following terms:

     one-electron contribution =   -4750.97865530 Ry
     hartree contribution      =    2612.41338690 Ry
     xc contribution           =    -966.33015112 Ry
     ewald contribution        =   -3155.79550585 Ry
     smearing contrib. (-TS)   =      -0.00002330 Ry

     convergence has been achieved in  14 iterations

     Writing output data file Landau_6.save

     General routines

     Parallel routines

   This run was terminated on:  21:13:51  25Mar2020

   JOB DONE.