     Program PWSCF v.6.4.1 starts on  3Dec2019 at 16:42:13

     K-points division:     npool     =      40
     Reading input from scf.in

     Current dimensions of program PWSCF are:
     Max number of different atomic species (ntypx) = 10
     Max number of k-points (npk) =  40000
     Max angular momentum in pseudopotentials (lmaxx) =  3

     Subspace diagonalization in iterative solution of the eigenvalue problem:
     a serial algorithm will be used

     Message from routine setup:
     using ibrav=0 with symmetry is DISCOURAGED, use correct ibrav instead

     bravais-lattice index     =            0
     lattice parameter (alat)  =      13.9386  a.u.
     unit-cell volume          =    2838.4807 (a.u.)^3
     number of atoms/cell      =           32
     number of atomic types    =            2
     number of electrons       =       368.70
     number of Kohn-Sham states=          221
     kinetic-energy cutoff     =     120.0000  Ry
     charge density cutoff     =     480.0000  Ry
     convergence threshold     =      1.0E-08
     mixing beta               =       0.7000
     number of iterations used =            8  plain     mixing
     Exchange-correlation      = SLA PW NOGX NOGC ( 1  4  0  0 0 0)

     celldm(1)=  13.938622  celldm(2)=   0.000000  celldm(3)=   0.000000
     celldm(4)=   0.000000  celldm(5)=   0.000000  celldm(6)=   0.000000

     crystal axes: (cart. coord. in units of alat)
               a(1) = (   1.000000   0.000000   0.000000 )
               a(2) = (   0.000000   1.048936   0.000000 )
               a(3) = (   0.000000   0.000000   0.999257 )

     reciprocal axes: (cart. coord. in units 2 pi/alat)
               b(1) = (  1.000000  0.000000  0.000000 )
               b(2) = (  0.000000  0.953347  0.000000 )
               b(3) = (  0.000000  0.000000  1.000743 )

     PseudoPot. # 1 for W  read from file:
     /cluster/scratch/mnoe/QE/pps/W_ONCV_LDA-4.0.upf
     MD5 check sum: ba0307d5d4cd419d6f1d13dc49d7c13a
     Pseudo is Norm-conserving + core correction, Zval = 28.0
     Generated using ONCVPSP code by D. R. Hamann
     Using radial grid of 1380 points,  8 beta functions with:
                l(1) =   0
                l(2) =   0
                l(3) =   1
                l(4) =   1
                l(5) =   2
                l(6) =   2
                l(7) =   3
                l(8) =   3

     PseudoPot. # 2 for O  read from file:
     /cluster/scratch/mnoe/QE/pps/O_ONCV_LDA-3.0.upf
     MD5 check sum: b55cdb4f45ae2203d24ad12cf8d61a31
     Pseudo is Norm-conserving + core correction, Zval =  6.0
     Generated using ONCVPSP code by D. R. Hamann
     Using radial grid of  926 points,  5 beta functions with:
                l(1) =   0
                l(2) =   0
                l(3) =   1
                l(4) =   1
                l(5) =   2

     atomic species   valence    mass     pseudopotential
        W             28.00   183.84000     W ( 1.00)
        O              6.00    15.99940     O ( 1.00)

      8 Sym. Ops., with inversion, found ( 6 have fractional translation)

   Cartesian axes

     site n.     atom                  positions (alat units)
         1           W   tau(   1) = (   0.2379800   0.2956532   0.0113516  )
         2           W   tau(   2) = (   0.7620200   0.7532831   0.9879058  )
         3           W   tau(   3) = (   0.2620200   0.2288150   0.5109802  )
         4           W   tau(   4) = (   0.7379800   0.8201213   0.4882771  )
         5           W   tau(   5) = (   0.7620200   0.2956532   0.4882771  )
         6           W   tau(   6) = (   0.2379800   0.7532831   0.5109802  )
         7           W   tau(   7) = (   0.7379800   0.2288150   0.9879058  )
         8           W   tau(   8) = (   0.2620200   0.8201213   0.0113516  )
         9           O   tau(   9) = (   0.2278200   0.0087271   0.0035274  )
        10           O   tau(  10) = (   0.7721800   1.0402091   0.9957299  )
        11           O   tau(  11) = (   0.2721800   0.5157410   0.5031561  )
        12           O   tau(  12) = (   0.7278200   0.5331953   0.4961013  )
        13           O   tau(  13) = (   0.7721800   0.0087271   0.4961013  )
        14           O   tau(  14) = (   0.2278200   1.0402091   0.5031561  )
        15           O   tau(  15) = (   0.7278200   0.5157410   0.9957299  )
        16           O   tau(  16) = (   0.2721800   0.5331953   0.0035274  )
        17           O   tau(  17) = (   0.5032900   0.2383603   0.4492062  )
        18           O   tau(  18) = (   0.4967100   0.8105760   0.5500512  )
        19           O   tau(  19) = (   0.9967100   0.2861079   0.9488349  )
        20           O   tau(  20) = (   0.0032899   0.7628284   0.0504225  )
        21           O   tau(  21) = (   0.4967100   0.2383603   0.0504225  )
        22           O   tau(  22) = (   0.5032900   0.8105760   0.9488349  )
        23           O   tau(  23) = (   0.0032899   0.2861079   0.5500512  )
        24           O   tau(  24) = (   0.9967100   0.7628284   0.4492062  )
        25           O   tau(  25) = (   0.6995400   0.2570209   0.7444567  )
        26           O   tau(  26) = (   0.3004600   0.7919154   0.2548006  )
        27           O   tau(  27) = (   0.8004600   0.2674473   0.2448281  )
        28           O   tau(  28) = (   0.1995400   0.7814890   0.7544293  )
        29           O   tau(  29) = (   0.3004600   0.2570209   0.7544293  )
        30           O   tau(  30) = (   0.6995400   0.7919154   0.2448281  )
        31           O   tau(  31) = (   0.1995400   0.2674473   0.2548006  )
        32           O   tau(  32) = (   0.8004600   0.7814890   0.7444567  )

     number of k points=    64  gaussian smearing, width (Ry)=  0.0007
                       cart. coord. in units 2pi/alat
        k(    1) = (   0.0000000   0.0000000   0.0000000), wk =   0.0092593
        k(    2) = (   0.0000000   0.0000000   0.1667905), wk =   0.0185185
        k(    3) = (   0.0000000   0.0000000   0.3335811), wk =   0.0185185
        k(    4) = (   0.0000000   0.0000000  -0.5003716), wk =   0.0092593
        k(    5) = (   0.0000000   0.1588911   0.0000000), wk =   0.0185185
        k(    6) = (   0.0000000   0.1588911   0.1667905), wk =   0.0370370
        k(    7) = (   0.0000000   0.1588911   0.3335811), wk =   0.0370370
        k(    8) = (   0.0000000   0.1588911  -0.5003716), wk =   0.0185185
        k(    9) = (   0.0000000   0.3177823   0.0000000), wk =   0.0185185
        k(   10) = (   0.0000000   0.3177823   0.1667905), wk =   0.0370370
        k(   11) = (   0.0000000   0.3177823   0.3335811), wk =   0.0370370
        k(   12) = (   0.0000000   0.3177823  -0.5003716), wk =   0.0185185
        k(   13) = (   0.0000000  -0.4766734   0.0000000), wk =   0.0092593
        k(   14) = (   0.0000000  -0.4766734   0.1667905), wk =   0.0185185
        k(   15) = (   0.0000000  -0.4766734   0.3335811), wk =   0.0185185
        k(   16) = (   0.0000000  -0.4766734  -0.5003716), wk =   0.0092593
        k(   17) = (   0.1666667   0.0000000   0.0000000), wk =   0.0185185
        k(   18) = (   0.1666667   0.0000000   0.1667905), wk =   0.0370370
        k(   19) = (   0.1666667   0.0000000   0.3335811), wk =   0.0370370
        k(   20) = (   0.1666667   0.0000000  -0.5003716), wk =   0.0185185
        k(   21) = (   0.1666667   0.1588911   0.0000000), wk =   0.0370370
        k(   22) = (   0.1666667   0.1588911   0.1667905), wk =   0.0740741
        k(   23) = (   0.1666667   0.1588911   0.3335811), wk =   0.0740741
        k(   24) = (   0.1666667   0.1588911  -0.5003716), wk =   0.0370370
        k(   25) = (   0.1666667   0.3177823   0.0000000), wk =   0.0370370
        k(   26) = (   0.1666667   0.3177823   0.1667905), wk =   0.0740741
        k(   27) = (   0.1666667   0.3177823   0.3335811), wk =   0.0740741
        k(   28) = (   0.1666667   0.3177823  -0.5003716), wk =   0.0370370
        k(   29) = (   0.1666667  -0.4766734   0.0000000), wk =   0.0185185
        k(   30) = (   0.1666667  -0.4766734   0.1667905), wk =   0.0370370
        k(   31) = (   0.1666667  -0.4766734   0.3335811), wk =   0.0370370
        k(   32) = (   0.1666667  -0.4766734  -0.5003716), wk =   0.0185185
        k(   33) = (   0.3333333   0.0000000   0.0000000), wk =   0.0185185
        k(   34) = (   0.3333333   0.0000000   0.1667905), wk =   0.0370370
        k(   35) = (   0.3333333   0.0000000   0.3335811), wk =   0.0370370
        k(   36) = (   0.3333333   0.0000000  -0.5003716), wk =   0.0185185
        k(   37) = (   0.3333333   0.1588911   0.0000000), wk =   0.0370370
        k(   38) = (   0.3333333   0.1588911   0.1667905), wk =   0.0740741
        k(   39) = (   0.3333333   0.1588911   0.3335811), wk =   0.0740741
        k(   40) = (   0.3333333   0.1588911  -0.5003716), wk =   0.0370370
        k(   41) = (   0.3333333   0.3177823   0.0000000), wk =   0.0370370
        k(   42) = (   0.3333333   0.3177823   0.1667905), wk =   0.0740741
        k(   43) = (   0.3333333   0.3177823   0.3335811), wk =   0.0740741
        k(   44) = (   0.3333333   0.3177823  -0.5003716), wk =   0.0370370
        k(   45) = (   0.3333333  -0.4766734   0.0000000), wk =   0.0185185
        k(   46) = (   0.3333333  -0.4766734   0.1667905), wk =   0.0370370
        k(   47) = (   0.3333333  -0.4766734   0.3335811), wk =   0.0370370
        k(   48) = (   0.3333333  -0.4766734  -0.5003716), wk =   0.0185185
        k(   49) = (  -0.5000000   0.0000000   0.0000000), wk =   0.0092593
        k(   50) = (  -0.5000000   0.0000000   0.1667905), wk =   0.0185185
        k(   51) = (  -0.5000000   0.0000000   0.3335811), wk =   0.0185185
        k(   52) = (  -0.5000000   0.0000000  -0.5003716), wk =   0.0092593
        k(   53) = (  -0.5000000   0.1588911   0.0000000), wk =   0.0185185
        k(   54) = (  -0.5000000   0.1588911   0.1667905), wk =   0.0370370
        k(   55) = (  -0.5000000   0.1588911   0.3335811), wk =   0.0370370
        k(   56) = (  -0.5000000   0.1588911  -0.5003716), wk =   0.0185185
        k(   57) = (  -0.5000000   0.3177823   0.0000000), wk =   0.0185185
        k(   58) = (  -0.5000000   0.3177823   0.1667905), wk =   0.0370370
        k(   59) = (  -0.5000000   0.3177823   0.3335811), wk =   0.0370370
        k(   60) = (  -0.5000000   0.3177823  -0.5003716), wk =   0.0185185
        k(   61) = (  -0.5000000  -0.4766734   0.0000000), wk =   0.0092593
        k(   62) = (  -0.5000000  -0.4766734   0.1667905), wk =   0.0185185
        k(   63) = (  -0.5000000  -0.4766734   0.3335811), wk =   0.0185185
        k(   64) = (  -0.5000000  -0.4766734  -0.5003716), wk =   0.0092593

     Initial potential from superposition of free atoms

     starting charge  367.99656, renormalised to  368.70000
     Starting wfcs are  232 randomized atomic wfcs

     Self-consistent Calculation

     iteration #  1     ecut=   120.00 Ry     beta= 0.70
     Davidson diagonalization with overlap
     ethr =  1.00E-02,  avg # of iterations =  5.2

     total energy              =   -6253.18481024 Ry
     Harris-Foulkes estimate   =   -6264.21438085 Ry
     estimated scf accuracy    <      13.85595076 Ry

[...]

     iteration #  7     ecut=   120.00 Ry     beta= 0.70
     Davidson diagonalization with overlap
     c_bands:  1 eigenvalues not converged
     ethr =  2.08E-06,  avg # of iterations =  5.8

[...]

     total energy              =   -6260.60797578 Ry
     Harris-Foulkes estimate   =   -6260.60797580 Ry
     estimated scf accuracy    <       0.00000003 Ry

     iteration # 13     ecut=   120.00 Ry     beta= 0.70
     Davidson diagonalization with overlap
     ethr =  8.40E-12,  avg # of iterations =  2.4

     End of self-consistent calculation

          k = 0.0000 0.0000 0.0000 ( 63075 PWs)   bands (ev):

   -66.2397 -66.2393 -66.2388 -66.2388 -66.2384 -66.2384 -66.2379 -66.2375
   -30.6489 -30.6435 -30.6432 -30.6381 -30.6026 -30.5958 -30.5910 -30.5824
   -30.5702 -30.5686 -30.5643 -30.5581 -30.5432 -30.5410 -30.5334 -30.5319
   -30.4790 -30.4783 -30.4778 -30.4761 -30.4568 -30.4529 -30.4527 -30.4487
   -20.4050 -20.4049 -20.4044 -20.4043 -20.4035 -20.4034 -20.4028 -20.4027
   -20.3959 -20.3957 -20.3955 -20.3953 -20.3937 -20.3935 -20.3929 -20.3926
   -20.3926 -20.3919 -20.3914 -20.3914 -20.3912 -20.3904 -20.3895 -20.3893
   -20.3887 -20.3885 -20.3881 -20.3875 -20.3875 -20.3871 -20.3869 -20.3867
   -20.3760 -20.3758 -20.3756 -20.3755 -20.3745 -20.3743 -20.3741 -20.3739
   -20.3519 -20.3519 -20.3507 -20.3507 -20.3469 -20.3469 -20.3466 -20.3466
   -20.3455 -20.3455 -20.3454 -20.3453 -20.3423 -20.3423 -20.3411 -20.3410
   -10.0097  -9.7114  -9.5957  -9.5476  -9.3242  -9.2182  -9.1634  -9.0729
    -9.0492  -8.9491  -8.9335  -8.8941  -8.0352  -7.9610  -7.9554  -7.9385
    -7.9255  -7.8922  -7.8845  -7.8800  -7.8124  -7.7849  -7.7598  -7.7384
     1.2423   1.2480   1.2683   1.2699   1.3697   1.3827   1.3975   1.5635
     1.5738   1.6075   1.6353   1.8102   2.3722   2.4577   2.5223   2.5415
     2.6770   2.6872   4.0150   4.1210   4.2445   4.4206   4.6102   4.7229
     4.7298   4.7462   4.7536   4.7886   4.9692   5.0001   5.0448   5.3003
     5.3533   5.3868   5.4115   5.4249   5.4637   5.4701   5.5700   5.6856
     5.6998   5.7101   5.7180   5.7600   5.7939   5.8300   5.9247   5.9383
     5.9628   6.1321   6.1501   6.3817   6.4456   6.6438   6.6778   6.6924
     6.7571   6.7600   6.7693   6.8325   6.8505   6.9258   7.1201   7.1626
     7.2306   7.2739   7.6038   7.6221   7.8346   7.8935   7.9205   7.9806
     9.3898   9.4059   9.9116   9.9319   9.9505   9.9746  11.9828  12.0407
    12.1547  12.1736  12.2346  12.2351  12.3451  12.3454  12.4045  12.5584
    13.0134  13.0392  13.0517  13.1546  13.3853  13.5404  13.8509  13.8559
    14.1107  14.1816  14.3740  14.6429  15.1290  15.1577  15.1886  15.6794
    15.7054  16.4067  16.6015  16.6557  17.3311

[...]

          k = 0.3333-0.4767-0.5004 ( 62992 PWs)   bands (ev):

[...]

          k =-0.5000 0.0000 0.0000 ( 63044 PWs)   bands (ev):

[...]

          k =-0.5000-0.4767-0.5004 ( 62904 PWs)   bands (ev):

   -66.2386 -66.2386 -66.2386 -66.2386 -66.2386 -66.2386 -66.2386 -66.2386
   -30.6163 -30.6163 -30.6163 -30.6163 -30.6158 -30.6158 -30.6157 -30.6157
   -30.5256 -30.5256 -30.5256 -30.5256 -30.5239 -30.5239 -30.5239 -30.5239
   -30.4956 -30.4956 -30.4955 -30.4955 -30.4938 -30.4938 -30.4938 -30.4938
   -20.4038 -20.4038 -20.4038 -20.4038 -20.4037 -20.4037 -20.4037 -20.4037
   -20.3945 -20.3945 -20.3945 -20.3945 -20.3944 -20.3944 -20.3944 -20.3943
   -20.3911 -20.3911 -20.3911 -20.3911 -20.3909 -20.3909 -20.3909 -20.3908
   -20.3879 -20.3879 -20.3879 -20.3879 -20.3876 -20.3876 -20.3876 -20.3876
   -20.3750 -20.3750 -20.3750 -20.3750 -20.3749 -20.3749 -20.3749 -20.3748
   -20.3488 -20.3488 -20.3488 -20.3488 -20.3487 -20.3487 -20.3487 -20.3487
   -20.3441 -20.3441 -20.3441 -20.3440 -20.3439 -20.3439 -20.3439 -20.3439
    -9.0457  -9.0457  -9.0457  -9.0457  -9.0196  -9.0196  -9.0196  -9.0196
    -8.5240  -8.5240  -8.5240  -8.5240  -8.4833  -8.4833  -8.4833  -8.4833
    -8.4526  -8.4526  -8.4526  -8.4526  -8.4002  -8.4002  -8.4001  -8.4001
     2.8205   2.8205   2.8205   2.8205   2.9171   2.9171   2.9171   2.9171
     3.0624   3.0624   3.0624   3.0624   3.1844   3.1844   3.1844   3.1844
     3.2593   3.2593   3.2593   3.2593   3.4507   3.4507   3.4507   3.4508
     4.0807   4.0807   4.0807   4.0807   4.0990   4.0990   4.0990   4.0990
     4.2723   4.2723   4.2723   4.2723   4.3358   4.3358   4.3358   4.3358
     4.3904   4.3904   4.3904   4.3904   4.4598   4.4598   4.4598   4.4598
     6.9538   6.9538   6.9538   6.9538   7.1159   7.1159   7.1159   7.1159
     7.1769   7.1769   7.1769   7.1769   7.2455   7.2455   7.2455   7.2455
     7.4147   7.4147   7.4147   7.4147   7.4888   7.4888   7.4888   7.4888
    11.6800  11.6800  11.6800  11.6800  11.6999  11.6999  11.6999  11.6999
    11.9869  11.9869  11.9869  11.9869  12.1583  12.1583  12.1583  12.1583
    12.3229  12.3229  12.3229  12.3229  12.4072  12.4072  12.4072  12.4072
    16.7547  16.7547  16.7547  16.7547  16.8019  16.8019  16.8019  16.8019
    17.0240  17.0241  17.0241  17.0241  17.0924

     the Fermi energy is     9.9039 ev

!    total energy              =   -6260.60797578 Ry
     Harris-Foulkes estimate   =   -6260.60797579 Ry
     estimated scf accuracy    <          3.6E-09 Ry

     The total energy is the sum of the following terms:

     one-electron contribution =   -4722.07214497 Ry
     hartree contribution      =    2597.04344332 Ry
     xc contribution           =    -965.89277124 Ry
     ewald contribution        =   -3169.68649427 Ry
     smearing contrib. (-TS)   =      -0.00000863 Ry

     convergence has been achieved in  13 iterations

     Writing output data file chempot_7.save/

     General routines

     Parallel routines

   This run was terminated on:  17:15: 7   3Dec2019

   JOB DONE.