     Program PWSCF v.6.2 (svn rev. 14038) starts on  8Mar2020 at 20:29:30

     K-points division:     npool     =      40
     Reading input from rscf.in

     Current dimensions of program PWSCF are:
     Max number of different atomic species (ntypx) = 10
     Max number of k-points (npk) =  40000
     Max angular momentum in pseudopotentials (lmaxx) =  3

     Subspace diagonalization in iterative solution of the eigenvalue problem:
     a serial algorithm will be used

     Found symmetry operation: I + ( -0.5000 -0.5000  0.0000)
     This is a supercell, fractional translations are disabled

     bravais-lattice index     =            0
     lattice parameter (alat)  =      13.8397  a.u.
     unit-cell volume          =    2804.9816 (a.u.)^3
     number of atoms/cell      =           32
     number of atomic types    =            2
     number of electrons       =       368.00
     number of Kohn-Sham states=          221
     kinetic-energy cutoff     =     120.0000  Ry
     charge density cutoff     =     480.0000  Ry
     convergence threshold     =      1.0E-08
     mixing beta               =       0.7000
     number of iterations used =            8  plain     mixing
     Exchange-correlation      = SLA PW NOGX NOGC ( 1  4  0  0 0 0)
     nstep                     =           50

     celldm(1)=  13.839685  celldm(2)=   0.000000  celldm(3)=   0.000000
     celldm(4)=   0.000000  celldm(5)=   0.000000  celldm(6)=   0.000000

     crystal axes: (cart. coord. in units of alat)
               a(1) = (   1.000000   0.000000   0.000000 )
               a(2) = (   0.000000   1.000000   0.000000 )
               a(3) = (   0.000000   0.000000   1.058160 )

     reciprocal axes: (cart. coord. in units 2 pi/alat)
               b(1) = (  1.000000  0.000000  0.000000 )
               b(2) = (  0.000000  1.000000  0.000000 )
               b(3) = (  0.000000  0.000000  0.945037 )

     PseudoPot. # 1 for W  read from file:
     /cluster/scratch/mnoe/QE/pps/W_ONCV_LDA-4.0.upf
     MD5 check sum: ba0307d5d4cd419d6f1d13dc49d7c13a
     Pseudo is Norm-conserving + core correction, Zval = 28.0
     Generated using ONCVPSP code by D. R. Hamann
     Using radial grid of 1380 points,  8 beta functions with:
                l(1) =   0
                l(2) =   0
                l(3) =   1
                l(4) =   1
                l(5) =   2
                l(6) =   2
                l(7) =   3
                l(8) =   3

     PseudoPot. # 2 for O  read from file:
     /cluster/scratch/mnoe/QE/pps/O_ONCV_LDA-3.0.upf
     MD5 check sum: a1bd6164e7280c17a38c229939bfbd54
     Pseudo is Norm-conserving + core correction, Zval =  6.0
     Generated using ONCVPSP code by D. R. Hamann
     Using radial grid of  926 points,  5 beta functions with:
                l(1) =   0
                l(2) =   0
                l(3) =   1
                l(4) =   1
                l(5) =   2

     atomic species   valence    mass     pseudopotential
        W             28.00   183.84000     W ( 1.00)
        O              6.00    15.99940     O ( 1.00)

      4 Sym. Ops. (no inversion) found

   Cartesian axes

     site n.     atom                  positions (alat units)
         1           W   tau(   1) = (   0.2500000   0.2500000   0.2308059  )
         2           W   tau(   2) = (   0.7500000   0.7500000   0.2308059  )
         3           W   tau(   3) = (   0.2500000   0.7500000   0.8273542  )
         4           W   tau(   4) = (   0.7500000   0.2500000   0.8273542  )
         5           W   tau(   5) = (   0.2500000   0.7500000   0.2982742  )
         6           W   tau(   6) = (   0.7500000   0.2500000   0.2982742  )
         7           W   tau(   7) = (   0.2500000   0.2500000   0.7598859  )
         8           W   tau(   8) = (   0.7500000   0.7500000   0.7598859  )
         9           O   tau(   9) = (   0.2500000   0.2500000   0.5202656  )
        10           O   tau(  10) = (   0.7500000   0.7500000   0.5202656  )
        11           O   tau(  11) = (   0.2500000   0.7500000   0.5378945  )
        12           O   tau(  12) = (   0.7500000   0.2500000   0.5378945  )
        13           O   tau(  13) = (   0.2500000   0.7500000   0.0088145  )
        14           O   tau(  14) = (   0.7500000   0.2500000   0.0088145  )
        15           O   tau(  15) = (   0.2500000   0.2500000   1.0493456  )
        16           O   tau(  16) = (   0.7500000   0.7500000   1.0493456  )
        17           O   tau(  17) = (   0.1994100   0.5000000   0.2645400  )
        18           O   tau(  18) = (   0.8005900   0.5000000   0.2645400  )
        19           O   tau(  19) = (   0.5000000   0.8005900   0.7936201  )
        20           O   tau(  20) = (   0.5000000   0.1994100   0.7936201  )
        21           O   tau(  21) = (   0.3005900   0.0000000   0.2645400  )
        22           O   tau(  22) = (   0.6994100   0.0000000   0.2645400  )
        23           O   tau(  23) = (   0.0000000   0.3005900   0.7936201  )
        24           O   tau(  24) = (   0.0000000   0.6994100   0.7936201  )
        25           O   tau(  25) = (   0.0000000   0.1994100   0.2645400  )
        26           O   tau(  26) = (   0.0000000   0.8005900   0.2645400  )
        27           O   tau(  27) = (   0.1994100   0.0000000   0.7936201  )
        28           O   tau(  28) = (   0.8005900   0.0000000   0.7936201  )
        29           O   tau(  29) = (   0.5000000   0.6994100   0.2645400  )
        30           O   tau(  30) = (   0.5000000   0.3005900   0.2645400  )
        31           O   tau(  31) = (   0.3005900   0.5000000   0.7936201  )
        32           O   tau(  32) = (   0.6994100   0.5000000   0.7936201  )

     number of k points=    44  gaussian smearing, width (Ry)=  0.0007
                       cart. coord. in units 2pi/alat
        k(    1) = (   0.0000000   0.0000000   0.0000000), wk =   0.0092593
        k(    2) = (   0.0000000   0.0000000   0.1575061), wk =   0.0185185
        k(    3) = (   0.0000000   0.0000000   0.3150122), wk =   0.0185185
        k(    4) = (   0.0000000   0.0000000  -0.4725183), wk =   0.0092593
        k(    5) = (   0.0000000   0.1666667   0.0000000), wk =   0.0370370
        k(    6) = (   0.0000000   0.1666667   0.1575061), wk =   0.0740741
        k(    7) = (   0.0000000   0.1666667   0.3150122), wk =   0.0740741
        k(    8) = (   0.0000000   0.1666667  -0.4725183), wk =   0.0370370
        k(    9) = (   0.0000000   0.3333333   0.0000000), wk =   0.0370370
        k(   10) = (   0.0000000   0.3333333   0.1575061), wk =   0.0740741
        k(   11) = (   0.0000000   0.3333333   0.3150122), wk =   0.0740741
        k(   12) = (   0.0000000   0.3333333  -0.4725183), wk =   0.0370370
        k(   13) = (   0.0000000  -0.5000000   0.0000000), wk =   0.0185185
        k(   14) = (   0.0000000  -0.5000000   0.1575061), wk =   0.0370370
        k(   15) = (   0.0000000  -0.5000000   0.3150122), wk =   0.0370370
        k(   16) = (   0.0000000  -0.5000000  -0.4725183), wk =   0.0185185
        k(   17) = (   0.1666667   0.1666667   0.0000000), wk =   0.0370370
        k(   18) = (   0.1666667   0.1666667   0.1575061), wk =   0.0740741
        k(   19) = (   0.1666667   0.1666667   0.3150122), wk =   0.0740741
        k(   20) = (   0.1666667   0.1666667  -0.4725183), wk =   0.0370370
        k(   21) = (   0.1666667   0.3333333   0.0000000), wk =   0.0370370
        k(   22) = (   0.1666667   0.3333333   0.1575061), wk =   0.0740741
        k(   23) = (   0.1666667   0.3333333   0.3150122), wk =   0.0740741
        k(   24) = (   0.1666667   0.3333333  -0.4725183), wk =   0.0370370
        k(   25) = (   0.1666667  -0.5000000   0.0000000), wk =   0.0370370
        k(   26) = (   0.1666667  -0.5000000   0.1575061), wk =   0.0740741
        k(   27) = (   0.1666667  -0.5000000   0.3150122), wk =   0.0740741
        k(   28) = (   0.1666667  -0.5000000  -0.4725183), wk =   0.0370370
        k(   29) = (   0.3333333   0.3333333   0.0000000), wk =   0.0370370
        k(   30) = (   0.3333333   0.3333333   0.1575061), wk =   0.0740741
        k(   31) = (   0.3333333   0.3333333   0.3150122), wk =   0.0740741
        k(   32) = (   0.3333333   0.3333333  -0.4725183), wk =   0.0370370
        k(   33) = (   0.3333333  -0.5000000   0.0000000), wk =   0.0370370
        k(   34) = (   0.3333333  -0.5000000   0.1575061), wk =   0.0740741
        k(   35) = (   0.3333333  -0.5000000   0.3150122), wk =   0.0740741
        k(   36) = (   0.3333333  -0.5000000  -0.4725183), wk =   0.0370370
        k(   37) = (  -0.5000000  -0.5000000   0.0000000), wk =   0.0092593
        k(   38) = (  -0.5000000  -0.5000000   0.1575061), wk =   0.0185185
        k(   39) = (  -0.5000000  -0.5000000   0.3150122), wk =   0.0185185
        k(   40) = (  -0.5000000  -0.5000000  -0.4725183), wk =   0.0092593
        k(   41) = (   0.3333333   0.1666667   0.0000000), wk =   0.0370370
        k(   42) = (   0.3333333   0.1666667  -0.1575061), wk =   0.0740741
        k(   43) = (   0.3333333   0.1666667  -0.3150122), wk =   0.0740741
        k(   44) = (   0.3333333   0.1666667   0.4725183), wk =   0.0370370

     Initial potential from superposition of free atoms

     starting charge  367.99656, renormalised to  368.00000
     Starting wfc are  232 randomized atomic wfcs

     Self-consistent Calculation

     iteration #  1     ecut=   120.00 Ry     beta= 0.70
     Davidson diagonalization with overlap
     ethr =  1.00E-02,  avg # of iterations =  5.0

     total energy              =   -6253.97628099 Ry
     Harris-Foulkes estimate   =   -6264.58685968 Ry
     estimated scf accuracy    <      13.43473966 Ry

[...]

     End of self-consistent calculation

          k = 0.0000 0.0000 0.0000 ( 62239 PWs)   bands (ev):

   -66.1763 -66.1759 -66.1753 -66.1753 -66.1749 -66.1749 -66.1743 -66.1739
   -30.5702 -30.5670 -30.5670 -30.5638 -30.5204 -30.5204 -30.5170 -30.5170
   -30.5150 -30.5150 -30.5118 -30.5118 -30.5111 -30.5085 -30.5085 -30.5059
   -30.4197 -30.4197 -30.4170 -30.4170 -30.4153 -30.4153 -30.4126 -30.4126
   -20.3367 -20.3366 -20.3366 -20.3366 -20.3365 -20.3365 -20.3365 -20.3364
   -20.3191 -20.3188 -20.3188 -20.3186 -20.3139 -20.3139 -20.3136 -20.3134
   -20.3134 -20.3134 -20.3134 -20.3133 -20.3133 -20.3130 -20.3128 -20.3128
   -20.3123 -20.3123 -20.3121 -20.3121 -20.3117 -20.3117 -20.3113 -20.3113
   -20.3046 -20.3046 -20.3042 -20.3042 -20.3038 -20.3038 -20.3036 -20.3036
   -20.3033 -20.3032 -20.3029 -20.3029 -20.3027 -20.3027 -20.3025 -20.3024
   -20.2966 -20.2966 -20.2961 -20.2961 -20.2960 -20.2960 -20.2955 -20.2955
    -9.9505  -9.6748  -9.5083  -9.5083  -9.2422  -9.2422  -9.0737  -9.0543
    -9.0424  -8.8768  -8.8505  -8.8505  -7.8553  -7.7964  -7.7964  -7.7827
    -7.7827  -7.7570  -7.7570  -7.7449  -7.6265  -7.6265  -7.6056  -7.6056
     1.1853   1.1859   1.2674   1.2674   1.2853   1.2853   1.3673   1.6286
     1.6286   1.6351   1.6384   1.8564   2.3876   2.4604   2.5801   2.5801
     2.7283   2.7283   4.1321   4.1321   4.3533   4.3533   4.8364   4.8364
     4.8459   4.8459   4.8726   4.8726   5.0340   5.0340   5.0659   5.4403
[...]
W        0.250000000   0.250000000   0.718119976    0   0   0
W        0.750000016   0.750000016   0.718119976    0   0   0
O        0.250000000   0.250000000   0.491670026    0   0   0
O        0.750000016   0.750000016   0.491670026    0   0   0
O        0.250000000   0.750000016   0.508329974    0   0   0
O        0.750000016   0.250000000   0.508329974    0   0   0
O        0.250000000   0.750000016   0.008329987    0   0   0
O        0.750000016   0.250000000   0.008329987    0   0   0
O        0.250000000   0.250000000   0.991670026    0   0   0
O        0.750000016   0.750000016   0.991670026    0   0   0
O        0.199410008   0.500000000   0.250000000    0   0   0
O        0.800589976   0.500000000   0.250000000    0   0   0
O        0.500000000   0.800589976   0.750000000    0   0   0
O        0.500000000   0.199410008   0.750000000    0   0   0
O        0.300589976   0.000000000   0.250000000    0   0   0
O        0.699409992   0.000000000   0.250000000    0   0   0
O       -0.000000000   0.300589976   0.750000000    0   0   0
O       -0.000000000   0.699409992   0.750000000    0   0   0
O       -0.000000000   0.199410008   0.250000000    0   0   0
O       -0.000000000   0.800589976   0.250000000    0   0   0
O        0.199410008   0.000000000   0.750000000    0   0   0
O        0.800589976   0.000000000   0.750000000    0   0   0
O        0.500000000   0.699409992   0.250000000    0   0   0
O        0.500000000   0.300589976   0.250000000    0   0   0
O        0.300589976   0.500000000   0.750000000    0   0   0
O        0.699409992   0.500000000   0.750000000    0   0   0
End final coordinates

     A final scf calculation at the relaxed structure.
     The G-vectors are recalculated for the final unit cell
     Results may differ from those at the preceding step.

     bravais-lattice index     =            0
     lattice parameter (alat)  =      13.8397  a.u.
     unit-cell volume          =    2804.3686 (a.u.)^3
     number of atoms/cell      =           32
     number of atomic types    =            2
     number of electrons       =       368.00
     number of Kohn-Sham states=          221
     kinetic-energy cutoff     =     120.0000  Ry
     charge density cutoff     =     480.0000  Ry
     convergence threshold     =      1.0E-10
     mixing beta               =       0.7000
     number of iterations used =            8  plain     mixing
     Exchange-correlation      = SLA PW NOGX NOGC ( 1  4  0  0 0 0)

     celldm(1)=  13.839685  celldm(2)=   0.000000  celldm(3)=   0.000000
     celldm(4)=   0.000000  celldm(5)=   0.000000  celldm(6)=   0.000000

     crystal axes: (cart. coord. in units of alat)
               a(1) = (   0.999887   0.000000   0.000000 )
               a(2) = (  -0.000000   0.999887   0.000000 )
               a(3) = (   0.000000   0.000000   1.058167 )

     reciprocal axes: (cart. coord. in units 2 pi/alat)
               b(1) = (  1.000113  0.000000  0.000000 )
               b(2) = ( -0.000000  1.000113  0.000000 )
               b(3) = (  0.000000  0.000000  0.945030 )

     PseudoPot. # 1 for W  read from file:
     /cluster/scratch/mnoe/QE/pps/W_ONCV_LDA-4.0.upf
     MD5 check sum: ba0307d5d4cd419d6f1d13dc49d7c13a
     Pseudo is Norm-conserving + core correction, Zval = 28.0
     Generated using ONCVPSP code by D. R. Hamann
     Using radial grid of 1380 points,  8 beta functions with:
                l(1) =   0
                l(2) =   0
                l(3) =   1
                l(4) =   1
                l(5) =   2
                l(6) =   2
                l(7) =   3
                l(8) =   3

     PseudoPot. # 2 for O  read from file:
     /cluster/scratch/mnoe/QE/pps/O_ONCV_LDA-3.0.upf
     MD5 check sum: a1bd6164e7280c17a38c229939bfbd54
     Pseudo is Norm-conserving + core correction, Zval =  6.0
     Generated using ONCVPSP code by D. R. Hamann
     Using radial grid of  926 points,  5 beta functions with:
                l(1) =   0
                l(2) =   0
                l(3) =   1
                l(4) =   1
                l(5) =   2

     atomic species   valence    mass     pseudopotential
        W             28.00   183.84000     W ( 1.00)
        O              6.00    15.99940     O ( 1.00)

      4 Sym. Ops. (no inversion) found

   Cartesian axes

     site n.     atom                  positions (alat units)
         1           W   tau(   1) = (   0.2499719   0.2499719   0.2308074  )
         2           W   tau(   2) = (   0.7499156   0.7499156   0.2308074  )
         3           W   tau(   3) = (   0.2499719   0.7499156   0.8273597  )
         4           W   tau(   4) = (   0.7499156   0.2499719   0.8273597  )
         5           W   tau(   5) = (   0.2499719   0.7499156   0.2982762  )
         6           W   tau(   6) = (   0.7499156   0.2499719   0.2982762  )
         7           W   tau(   7) = (   0.2499719   0.2499719   0.7598909  )
         8           W   tau(   8) = (   0.7499156   0.7499156   0.7598909  )
         9           O   tau(   9) = (   0.2499719   0.2499719   0.5202690  )
        10           O   tau(  10) = (   0.7499156   0.7499156   0.5202690  )
        11           O   tau(  11) = (   0.2499719   0.7499156   0.5378980  )
        12           O   tau(  12) = (   0.7499156   0.2499719   0.5378980  )
        13           O   tau(  13) = (   0.2499719   0.7499156   0.0088145  )
        14           O   tau(  14) = (   0.7499156   0.2499719   0.0088145  )
        15           O   tau(  15) = (   0.2499719   0.2499719   1.0493526  )
        16           O   tau(  16) = (   0.7499156   0.7499156   1.0493526  )
        17           O   tau(  17) = (   0.1993876   0.4999437   0.2645418  )
        18           O   tau(  18) = (   0.8004998   0.4999437   0.2645418  )
        19           O   tau(  19) = (   0.4999437   0.8004998   0.7936253  )
        20           O   tau(  20) = (   0.4999437   0.1993876   0.7936253  )
        21           O   tau(  21) = (   0.3005561   0.0000000   0.2645418  )
        22           O   tau(  22) = (   0.6993313   0.0000000   0.2645418  )
        23           O   tau(  23) = (  -0.0000000   0.3005561   0.7936253  )
        24           O   tau(  24) = (  -0.0000000   0.6993313   0.7936253  )
        25           O   tau(  25) = (  -0.0000000   0.1993876   0.2645418  )
        26           O   tau(  26) = (  -0.0000000   0.8004998   0.2645418  )
        27           O   tau(  27) = (   0.1993876   0.0000000   0.7936253  )
        28           O   tau(  28) = (   0.8004998   0.0000000   0.7936253  )
        29           O   tau(  29) = (   0.4999437   0.6993313   0.2645418  )
        30           O   tau(  30) = (   0.4999437   0.3005561   0.2645418  )
        31           O   tau(  31) = (   0.3005561   0.4999437   0.7936253  )
        32           O   tau(  32) = (   0.6993313   0.4999437   0.7936253  )

     number of k points=    44  gaussian smearing, width (Ry)=  0.0007
                       cart. coord. in units 2pi/alat
        k(    1) = (   0.0000000   0.0000000   0.0000000), wk =   0.0092593
        k(    2) = (   0.0000000   0.0000000   0.1575051), wk =   0.0185185
        k(    3) = (   0.0000000   0.0000000   0.3150101), wk =   0.0185185
        k(    4) = (   0.0000000   0.0000000  -0.4725152), wk =   0.0092593
        k(    5) = (  -0.0000000   0.1666854   0.0000000), wk =   0.0370370
        k(    6) = (  -0.0000000   0.1666854   0.1575051), wk =   0.0740741
        k(    7) = (  -0.0000000   0.1666854   0.3150101), wk =   0.0740741
        k(    8) = (  -0.0000000   0.1666854  -0.4725152), wk =   0.0370370
        k(    9) = (  -0.0000000   0.3333709   0.0000000), wk =   0.0370370
        k(   10) = (  -0.0000000   0.3333709   0.1575051), wk =   0.0740741
        k(   11) = (  -0.0000000   0.3333709   0.3150101), wk =   0.0740741
        k(   12) = (  -0.0000000   0.3333709  -0.4725152), wk =   0.0370370
        k(   13) = (   0.0000000  -0.5000563   0.0000000), wk =   0.0185185
        k(   14) = (   0.0000000  -0.5000563   0.1575051), wk =   0.0370370
        k(   15) = (   0.0000000  -0.5000563   0.3150101), wk =   0.0370370
        k(   16) = (   0.0000000  -0.5000563  -0.4725152), wk =   0.0185185
        k(   17) = (   0.1666854   0.1666854   0.0000000), wk =   0.0370370
        k(   18) = (   0.1666854   0.1666854   0.1575051), wk =   0.0740741
        k(   19) = (   0.1666854   0.1666854   0.3150101), wk =   0.0740741
        k(   20) = (   0.1666854   0.1666854  -0.4725152), wk =   0.0370370
        k(   21) = (   0.1666854   0.3333709   0.0000000), wk =   0.0370370
        k(   22) = (   0.1666854   0.3333709   0.1575051), wk =   0.0740741
        k(   23) = (   0.1666854   0.3333709   0.3150101), wk =   0.0740741
        k(   24) = (   0.1666854   0.3333709  -0.4725152), wk =   0.0370370
        k(   25) = (   0.1666854  -0.5000563   0.0000000), wk =   0.0370370
        k(   26) = (   0.1666854  -0.5000563   0.1575051), wk =   0.0740741
        k(   27) = (   0.1666854  -0.5000563   0.3150101), wk =   0.0740741
        k(   28) = (   0.1666854  -0.5000563  -0.4725152), wk =   0.0370370
        k(   29) = (   0.3333709   0.3333709   0.0000000), wk =   0.0370370
        k(   30) = (   0.3333709   0.3333709   0.1575051), wk =   0.0740741
        k(   31) = (   0.3333709   0.3333709   0.3150101), wk =   0.0740741
        k(   32) = (   0.3333709   0.3333709  -0.4725152), wk =   0.0370370
        k(   33) = (   0.3333709  -0.5000563   0.0000000), wk =   0.0370370
        k(   34) = (   0.3333709  -0.5000563   0.1575051), wk =   0.0740741
        k(   35) = (   0.3333709  -0.5000563   0.3150101), wk =   0.0740741
        k(   36) = (   0.3333709  -0.5000563  -0.4725152), wk =   0.0370370
        k(   37) = (  -0.5000563  -0.5000563   0.0000000), wk =   0.0092593
        k(   38) = (  -0.5000563  -0.5000563   0.1575051), wk =   0.0185185
        k(   39) = (  -0.5000563  -0.5000563   0.3150101), wk =   0.0185185
        k(   40) = (  -0.5000563  -0.5000563  -0.4725152), wk =   0.0092593
        k(   41) = (   0.3333709   0.1666854   0.0000000), wk =   0.0370370
        k(   42) = (   0.3333709   0.1666854  -0.1575051), wk =   0.0740741
        k(   43) = (   0.3333709   0.1666854  -0.3150101), wk =   0.0740741
        k(   44) = (   0.3333709   0.1666854   0.4725152), wk =   0.0370370

     Initial potential from superposition of free atoms

     starting charge  367.99656, renormalised to  368.00000
     Starting wfc are  232 randomized atomic wfcs

     Writing output data file Landau_0.save

     Self-consistent Calculation

[...]

     total energy              =   -6261.10937550 Ry
     Harris-Foulkes estimate   =   -6261.10937550 Ry
     estimated scf accuracy    <          4.5E-10 Ry

     iteration # 16     ecut=   120.00 Ry     beta= 0.70
     Davidson diagonalization with overlap
     ethr =  1.22E-13,  avg # of iterations =  2.0

     End of self-consistent calculation

[...]

          k =-0.5001-0.5001-0.4725 ( 62256 PWs)   bands (ev):

[...]

          k = 0.3334 0.1667 0.4725 ( 62246 PWs)   bands (ev):

   -66.1716 -66.1716 -66.1711 -66.1711 -66.1707 -66.1707 -66.1702 -66.1702
   -30.5369 -30.5369 -30.5351 -30.5351 -30.5342 -30.5342 -30.5323 -30.5323
   -30.5066 -30.5066 -30.5041 -30.5041 -30.4889 -30.4889 -30.4847 -30.4847
   -30.4392 -30.4392 -30.4352 -30.4352 -30.4201 -30.4201 -30.4179 -30.4179
   -20.3322 -20.3322 -20.3321 -20.3321 -20.3321 -20.3321 -20.3321 -20.3321
   -20.3120 -20.3120 -20.3118 -20.3118 -20.3117 -20.3117 -20.3116 -20.3116
   -20.3089 -20.3089 -20.3087 -20.3087 -20.3087 -20.3087 -20.3083 -20.3083
   -20.3079 -20.3079 -20.3076 -20.3076 -20.3075 -20.3075 -20.3074 -20.3074
   -20.2999 -20.2999 -20.2997 -20.2997 -20.2994 -20.2994 -20.2987 -20.2987
   -20.2986 -20.2986 -20.2983 -20.2983 -20.2969 -20.2969 -20.2967 -20.2967
   -20.2936 -20.2936 -20.2932 -20.2932 -20.2923 -20.2922 -20.2920 -20.2920
    -9.5306  -9.5306  -9.3006  -9.3004  -9.0127  -9.0123  -8.8400  -8.8400
    -8.5437  -8.5429  -8.4642  -8.4625  -8.4242  -8.4232  -8.4128  -8.4128
    -8.1676  -8.1669  -8.0658  -8.0652  -7.8493  -7.8489  -7.7741  -7.7737
     1.5656   1.5667   1.5841   1.5854   2.2276   2.2282   2.4132   2.4144
     2.8786   2.8835   3.2242   3.2248   3.2260   3.2293   3.2334   3.2446
     3.2759   3.3088   3.4274   3.4740   3.4862   3.5189   3.6577   3.6683
     3.7584   3.7729   3.8821   3.9499   4.4566   4.5081   4.6124   4.6125
     4.6703   4.7325   4.7416   4.7826   4.9820   4.9940   5.0018   5.0685
     5.1457   5.2027   5.3252   5.4010   5.7726   5.7886   6.2008   6.2015
     6.6117   6.6195   6.7051   6.7195   6.8657   6.8727   7.0173   7.0833
     7.1004   7.1242   7.1764   7.2017   7.2142   7.2170   7.4275   7.4396
     7.4567   7.4687   7.4714   7.4971   7.4980   7.5356   7.7652   7.7686
    10.4853  10.4888  11.3742  11.3908  11.4070  11.4208  11.7523  11.7610
    11.7677  11.7809  11.8574  11.9097  12.3932  12.4469  12.7079  12.7319
    12.9232  12.9521  13.0969  13.1745  13.4047  13.4323  13.4562  13.5083
    15.6313  15.6498  15.8359  15.8534  16.2388  16.2654  16.6043  16.6302
    16.8505  16.8547  17.4285  17.4695  17.9487

     the Fermi energy is     8.5432 ev

!    total energy              =   -6261.10937550 Ry
     Harris-Foulkes estimate   =   -6261.10937550 Ry
     estimated scf accuracy    <          8.9E-11 Ry

     The total energy is the sum of the following terms:

     one-electron contribution =   -4720.92631825 Ry
     hartree contribution      =    2597.20820844 Ry
     xc contribution           =    -965.66829865 Ry
     ewald contribution        =   -3171.72296703 Ry
     smearing contrib. (-TS)   =      -0.00000000 Ry

     convergence has been achieved in  16 iterations

     Forces acting on atoms (cartesian axes, Ry/au):

     atom    1 type  1   force =    -0.00000115   -0.00000334   -0.00001215
     atom    2 type  1   force =     0.00000115    0.00000334   -0.00001215
     atom    3 type  1   force =    -0.00000334    0.00000115    0.00001215
     atom    4 type  1   force =     0.00000334   -0.00000115    0.00001215
     atom    5 type  1   force =    -0.00000263    0.00000519    0.00000874
     atom    6 type  1   force =     0.00000263   -0.00000519    0.00000874
     atom    7 type  1   force =    -0.00000519   -0.00000263   -0.00000874
     atom    8 type  1   force =     0.00000519    0.00000263   -0.00000874
     atom    9 type  2   force =     0.00000001    0.00000003    0.00003352
     atom   10 type  2   force =    -0.00000001   -0.00000003    0.00003352
     atom   11 type  2   force =     0.00000003   -0.00000001   -0.00003352
     atom   12 type  2   force =    -0.00000003    0.00000001   -0.00003352
     atom   13 type  2   force =    -0.00000006    0.00000006   -0.00003332
     atom   14 type  2   force =     0.00000006   -0.00000006   -0.00003332
     atom   15 type  2   force =    -0.00000006   -0.00000006    0.00003332
     atom   16 type  2   force =     0.00000006    0.00000006    0.00003332
     atom   17 type  2   force =     0.00001418    0.00000003   -0.00000003
     atom   18 type  2   force =    -0.00001418   -0.00000003   -0.00000003
     atom   19 type  2   force =     0.00000003   -0.00001418    0.00000003
     atom   20 type  2   force =    -0.00000003    0.00001418    0.00000003
     atom   21 type  2   force =    -0.00001406   -0.00000002   -0.00000001
     atom   22 type  2   force =     0.00001406    0.00000002   -0.00000001
     atom   23 type  2   force =     0.00000002   -0.00001406    0.00000001
     atom   24 type  2   force =    -0.00000002    0.00001406    0.00000001
     atom   25 type  2   force =    -0.00000002    0.00001400   -0.00000000
     atom   26 type  2   force =     0.00000002   -0.00001400   -0.00000000
     atom   27 type  2   force =     0.00001400    0.00000002    0.00000000
     atom   28 type  2   force =    -0.00001400   -0.00000002    0.00000000
     atom   29 type  2   force =    -0.00000003    0.00001440    0.00000001
     atom   30 type  2   force =     0.00000003   -0.00001440    0.00000001
     atom   31 type  2   force =    -0.00001440   -0.00000003   -0.00000001
     atom   32 type  2   force =     0.00001440    0.00000003   -0.00000001

     Total force =     0.000000     Total SCF correction =     0.000000

     Computing stress (Cartesian axis) and pressure

          total   stress  (Ry/bohr**3)                   (kbar)     P=   -0.13
  -0.00000092  -0.00000000   0.00000000         -0.13     -0.00      0.00
   0.00000000  -0.00000092   0.00000000          0.00     -0.13      0.00
   0.00000000   0.00000000  -0.00000087          0.00      0.00     -0.13

     Writing output data file Landau_0.save

     General routines

     Parallel routines

   This run was terminated on:  23:25:38   8Mar2020

   JOB DONE.