     Program PWSCF v.6.2 (svn rev. 14038) starts on 19Mar2020 at 20: 3: 5

     K-points division:     npool     =      40
     Reading input from rscf.in

     Current dimensions of program PWSCF are:
     Max number of different atomic species (ntypx) = 10
     Max number of k-points (npk) =  40000
     Max angular momentum in pseudopotentials (lmaxx) =  3

     Subspace diagonalization in iterative solution of the eigenvalue problem:
     a serial algorithm will be used

     bravais-lattice index     =            0
     lattice parameter (alat)  =      13.8397  a.u.
     unit-cell volume          =    2804.9816 (a.u.)^3
     number of atoms/cell      =           32
     number of atomic types    =            2
     number of electrons       =       368.00
     number of Kohn-Sham states=          221
     kinetic-energy cutoff     =     120.0000  Ry
     charge density cutoff     =     480.0000  Ry
     convergence threshold     =      1.0E-08
     mixing beta               =       0.7000
     number of iterations used =            8  plain     mixing
     Exchange-correlation      = SLA PW NOGX NOGC ( 1  4  0  0 0 0)
     nstep                     =           50

     celldm(1)=  13.839685  celldm(2)=   0.000000  celldm(3)=   0.000000
     celldm(4)=   0.000000  celldm(5)=   0.000000  celldm(6)=   0.000000

     crystal axes: (cart. coord. in units of alat)
               a(1) = (   1.000000   0.000000   0.000000 )
               a(2) = (   0.000000   1.058160   0.000000 )
               a(3) = (   0.000000   0.000000   1.000000 )

     reciprocal axes: (cart. coord. in units 2 pi/alat)
               b(1) = (  1.000000  0.000000  0.000000 )
               b(2) = (  0.000000  0.945037  0.000000 )
               b(3) = (  0.000000  0.000000  1.000000 )

     PseudoPot. # 1 for W  read from file:
     /cluster/scratch/mnoe/QE/pps/W_ONCV_LDA-4.0.upf
     MD5 check sum: ba0307d5d4cd419d6f1d13dc49d7c13a
     Pseudo is Norm-conserving + core correction, Zval = 28.0
     Generated using ONCVPSP code by D. R. Hamann
     Using radial grid of 1380 points,  8 beta functions with:
                l(1) =   0
                l(2) =   0
                l(3) =   1
                l(4) =   1
                l(5) =   2
                l(6) =   2
                l(7) =   3
                l(8) =   3

     PseudoPot. # 2 for O  read from file:
     /cluster/scratch/mnoe/QE/pps/O_ONCV_LDA-3.0.upf
     MD5 check sum: a1bd6164e7280c17a38c229939bfbd54
     Pseudo is Norm-conserving + core correction, Zval =  6.0
     Generated using ONCVPSP code by D. R. Hamann
     Using radial grid of  926 points,  5 beta functions with:
                l(1) =   0
                l(2) =   0
                l(3) =   1
                l(4) =   1
                l(5) =   2

     atomic species   valence    mass     pseudopotential
        W             28.00   183.84000     W ( 1.00)
        O              6.00    15.99940     O ( 1.00)

      8 Sym. Ops., with inversion, found ( 6 have fractional translation)

   Cartesian axes

     site n.     atom                  positions (alat units)
         1           W   tau(   1) = (   0.2461887   0.2845399   0.0035991  )
         2           W   tau(   2) = (   0.7538112   0.7736202  -0.0035991  )
         3           W   tau(   3) = (   0.2538113   0.2445401   0.5035991  )
         4           W   tau(   4) = (   0.7461886   0.8136201   0.4964009  )
         5           W   tau(   5) = (   0.7538112   0.2845399   0.4964009  )
         6           W   tau(   6) = (   0.2461887   0.7736202   0.5035991  )
         7           W   tau(   7) = (   0.7461886   0.2445401  -0.0035991  )
         8           W   tau(   8) = (   0.2538113   0.8136201   0.0035991  )
         9           O   tau(   9) = (   0.2429687   0.0050680   0.0011187  )
        10           O   tau(  10) = (   0.7570313  -0.0050681  -0.0011187  )
        11           O   tau(  11) = (   0.2570313   0.5240120   0.5011187  )
        12           O   tau(  12) = (   0.7429686   0.5341482   0.4988813  )
        13           O   tau(  13) = (   0.7570313   0.0050680   0.4988813  )
        14           O   tau(  14) = (   0.2429687  -0.0050681   0.5011187  )
        15           O   tau(  15) = (   0.7429686   0.5240120  -0.0011187  )
        16           O   tau(  16) = (   0.2570313   0.5341482   0.0011187  )
        17           O   tau(  17) = (   0.5010424   0.2569079   0.4812282  )
        18           O   tau(  18) = (   0.4989576   0.8012522   0.5187719  )
        19           O   tau(  19) = (  -0.0010425   0.2721721   0.9812282  )
        20           O   tau(  20) = (   0.0010424   0.7859880   0.0187717  )
        21           O   tau(  21) = (   0.4989576   0.2569079   0.0187717  )
        22           O   tau(  22) = (   0.5010424   0.8012522   0.9812282  )
        23           O   tau(  23) = (   0.0010424   0.2721721   0.5187719  )
        24           O   tau(  24) = (  -0.0010425   0.7859880   0.4812282  )
        25           O   tau(  25) = (   0.7312282   0.2628745   0.7484198  )
        26           O   tau(  26) = (   0.2687717   0.7952856   0.2515801  )
        27           O   tau(  27) = (   0.7687720   0.2662055   0.2484199  )
        28           O   tau(  28) = (   0.2312282   0.7919546   0.7515801  )
        29           O   tau(  29) = (   0.2687717   0.2628745   0.7515801  )
        30           O   tau(  30) = (   0.7312282   0.7952856   0.2484199  )
        31           O   tau(  31) = (   0.2312282   0.2662055   0.2515801  )
        32           O   tau(  32) = (   0.7687720   0.7919546   0.7484198  )

     number of k points=    64  gaussian smearing, width (Ry)=  0.0007
                       cart. coord. in units 2pi/alat
        k(    1) = (   0.0000000   0.0000000   0.0000000), wk =   0.0092593
        k(    2) = (   0.0000000   0.0000000   0.1666667), wk =   0.0185185
        k(    3) = (   0.0000000   0.0000000   0.3333333), wk =   0.0185185
        k(    4) = (   0.0000000   0.0000000  -0.5000000), wk =   0.0092593
        k(    5) = (   0.0000000   0.1575061   0.0000000), wk =   0.0185185
        k(    6) = (   0.0000000   0.1575061   0.1666667), wk =   0.0370370
        k(    7) = (   0.0000000   0.1575061   0.3333333), wk =   0.0370370
        k(    8) = (   0.0000000   0.1575061  -0.5000000), wk =   0.0185185
        k(    9) = (   0.0000000   0.3150122   0.0000000), wk =   0.0185185
        k(   10) = (   0.0000000   0.3150122   0.1666667), wk =   0.0370370
        k(   11) = (   0.0000000   0.3150122   0.3333333), wk =   0.0370370
        k(   12) = (   0.0000000   0.3150122  -0.5000000), wk =   0.0185185
        k(   13) = (   0.0000000  -0.4725183   0.0000000), wk =   0.0092593
        k(   14) = (   0.0000000  -0.4725183   0.1666667), wk =   0.0185185
        k(   15) = (   0.0000000  -0.4725183   0.3333333), wk =   0.0185185
        k(   16) = (   0.0000000  -0.4725183  -0.5000000), wk =   0.0092593
        k(   17) = (   0.1666667   0.0000000   0.1666667), wk =   0.0370370
        k(   18) = (   0.1666667   0.0000000   0.3333333), wk =   0.0370370
        k(   19) = (   0.1666667   0.0000000  -0.5000000), wk =   0.0185185
        k(   20) = (   0.1666667   0.1575061   0.1666667), wk =   0.0740741
        k(   21) = (   0.1666667   0.1575061   0.3333333), wk =   0.0740741
        k(   22) = (   0.1666667   0.1575061  -0.5000000), wk =   0.0370370
        k(   23) = (   0.1666667   0.3150122   0.1666667), wk =   0.0740741
        k(   24) = (   0.1666667   0.3150122   0.3333333), wk =   0.0740741
        k(   25) = (   0.1666667   0.3150122  -0.5000000), wk =   0.0370370
        k(   26) = (   0.1666667  -0.4725183   0.1666667), wk =   0.0370370
        k(   27) = (   0.1666667  -0.4725183   0.3333333), wk =   0.0370370
        k(   28) = (   0.1666667  -0.4725183  -0.5000000), wk =   0.0185185
        k(   29) = (   0.3333333   0.0000000   0.3333333), wk =   0.0370370
        k(   30) = (   0.3333333   0.0000000  -0.5000000), wk =   0.0185185
        k(   31) = (   0.3333333   0.1575061   0.3333333), wk =   0.0740741
        k(   32) = (   0.3333333   0.1575061  -0.5000000), wk =   0.0370370
        k(   33) = (   0.3333333   0.3150122   0.3333333), wk =   0.0740741
        k(   34) = (   0.3333333   0.3150122  -0.5000000), wk =   0.0370370
        k(   35) = (   0.3333333  -0.4725183   0.3333333), wk =   0.0370370
        k(   36) = (   0.3333333  -0.4725183  -0.5000000), wk =   0.0185185
        k(   37) = (  -0.5000000   0.0000000  -0.5000000), wk =   0.0092593
        k(   38) = (  -0.5000000   0.1575061  -0.5000000), wk =   0.0185185
        k(   39) = (  -0.5000000   0.3150122  -0.5000000), wk =   0.0185185
        k(   40) = (  -0.5000000  -0.4725183  -0.5000000), wk =   0.0092593
        k(   41) = (   0.1666667   0.0000000   0.0000000), wk =   0.0185185
        k(   42) = (   0.3333333   0.0000000   0.0000000), wk =   0.0185185
        k(   43) = (  -0.5000000   0.0000000   0.0000000), wk =   0.0092593
        k(   44) = (   0.1666667  -0.1575061   0.0000000), wk =   0.0370370
        k(   45) = (   0.3333333  -0.1575061   0.0000000), wk =   0.0370370
        k(   46) = (  -0.5000000  -0.1575061   0.0000000), wk =   0.0185185
        k(   47) = (   0.1666667  -0.3150122   0.0000000), wk =   0.0370370
        k(   48) = (   0.3333333  -0.3150122   0.0000000), wk =   0.0370370
        k(   49) = (  -0.5000000  -0.3150122   0.0000000), wk =   0.0185185
        k(   50) = (   0.1666667   0.4725183   0.0000000), wk =   0.0185185
        k(   51) = (   0.3333333   0.4725183   0.0000000), wk =   0.0185185
        k(   52) = (  -0.5000000   0.4725183   0.0000000), wk =   0.0092593
        k(   53) = (   0.3333333   0.0000000   0.1666667), wk =   0.0370370
        k(   54) = (  -0.5000000   0.0000000   0.1666667), wk =   0.0185185
        k(   55) = (   0.3333333  -0.1575061   0.1666667), wk =   0.0740741
        k(   56) = (  -0.5000000  -0.1575061   0.1666667), wk =   0.0370370
        k(   57) = (   0.3333333  -0.3150122   0.1666667), wk =   0.0740741
        k(   58) = (  -0.5000000  -0.3150122   0.1666667), wk =   0.0370370
        k(   59) = (   0.3333333   0.4725183   0.1666667), wk =   0.0370370
        k(   60) = (  -0.5000000   0.4725183   0.1666667), wk =   0.0185185
        k(   61) = (  -0.5000000   0.0000000   0.3333333), wk =   0.0185185
        k(   62) = (  -0.5000000  -0.1575061   0.3333333), wk =   0.0370370
        k(   63) = (  -0.5000000  -0.3150122   0.3333333), wk =   0.0370370
        k(   64) = (  -0.5000000   0.4725183   0.3333333), wk =   0.0185185

     Initial potential from superposition of free atoms

     starting charge  367.99656, renormalised to  368.00000
     Starting wfc are  232 randomized atomic wfcs

     Self-consistent Calculation

     iteration #  1     ecut=   120.00 Ry     beta= 0.70
     Davidson diagonalization with overlap
     ethr =  1.00E-02,  avg # of iterations =  5.2

     total energy              =   -6254.01911059 Ry
     Harris-Foulkes estimate   =   -6264.52714808 Ry
     estimated scf accuracy    <      13.34677659 Ry

[...]

     End of self-consistent calculation

[...]
End final coordinates

     A final scf calculation at the relaxed structure.
     The G-vectors are recalculated for the final unit cell
     Results may differ from those at the preceding step.

     bravais-lattice index     =            0
     lattice parameter (alat)  =      13.8397  a.u.
     unit-cell volume          =    2883.5558 (a.u.)^3
     number of atoms/cell      =           32
     number of atomic types    =            2
     number of electrons       =       368.00
     number of Kohn-Sham states=          221
     kinetic-energy cutoff     =     120.0000  Ry
     charge density cutoff     =     480.0000  Ry
     convergence threshold     =      1.0E-10
     mixing beta               =       0.7000
     number of iterations used =            8  plain     mixing
     Exchange-correlation      = SLA PW NOGX NOGC ( 1  4  0  0 0 0)

     celldm(1)=  13.839685  celldm(2)=   0.000000  celldm(3)=   0.000000
     celldm(4)=   0.000000  celldm(5)=   0.000000  celldm(6)=   0.000000

     crystal axes: (cart. coord. in units of alat)
               a(1) = (   1.022949   0.000000   0.000000 )
               a(2) = (   0.000000   1.039343   0.000000 )
               a(3) = (   0.000000   0.000000   1.023144 )

     reciprocal axes: (cart. coord. in units 2 pi/alat)
               b(1) = (  0.977566  0.000000  0.000000 )
               b(2) = (  0.000000  0.962146  0.000000 )
               b(3) = (  0.000000  0.000000  0.977379 )

     PseudoPot. # 1 for W  read from file:
     /cluster/scratch/mnoe/QE/pps/W_ONCV_LDA-4.0.upf
     MD5 check sum: ba0307d5d4cd419d6f1d13dc49d7c13a
     Pseudo is Norm-conserving + core correction, Zval = 28.0
     Generated using ONCVPSP code by D. R. Hamann
     Using radial grid of 1380 points,  8 beta functions with:
                l(1) =   0
                l(2) =   0
                l(3) =   1
                l(4) =   1
                l(5) =   2
                l(6) =   2
                l(7) =   3
                l(8) =   3

     PseudoPot. # 2 for O  read from file:
     /cluster/scratch/mnoe/QE/pps/O_ONCV_LDA-3.0.upf
     MD5 check sum: a1bd6164e7280c17a38c229939bfbd54
     Pseudo is Norm-conserving + core correction, Zval =  6.0
     Generated using ONCVPSP code by D. R. Hamann
     Using radial grid of  926 points,  5 beta functions with:
                l(1) =   0
                l(2) =   0
                l(3) =   1
                l(4) =   1
                l(5) =   2

     atomic species   valence    mass     pseudopotential
        W             28.00   183.84000     W ( 1.00)
        O              6.00    15.99940     O ( 1.00)

      8 Sym. Ops., with inversion, found ( 6 have fractional translation)

   Cartesian axes

     site n.     atom                  positions (alat units)
         1           W   tau(   1) = (   0.2518385   0.2794799   0.0036824  )
         2           W   tau(   2) = (   0.7711105   0.7598629  -0.0036824  )
         3           W   tau(   3) = (   0.2596360   0.2401915   0.5152545  )
         4           W   tau(   4) = (   0.7633130   0.7991515   0.5078897  )
         5           W   tau(   5) = (   0.7711105   0.2794799   0.5078897  )
         6           W   tau(   6) = (   0.2518385   0.7598629   0.5152545  )
         7           W   tau(   7) = (   0.7633130   0.2401915  -0.0036824  )
         8           W   tau(   8) = (   0.2596360   0.7991515   0.0036824  )
         9           O   tau(   9) = (   0.2485446   0.0049779   0.0011446  )
        10           O   tau(  10) = (   0.7744045  -0.0049780  -0.0011446  )
        11           O   tau(  11) = (   0.2629300   0.5146935   0.5127167  )
        12           O   tau(  12) = (   0.7600191   0.5246494   0.5104276  )
        13           O   tau(  13) = (   0.7744045   0.0049779   0.5104276  )
        14           O   tau(  14) = (   0.2485446  -0.0049780   0.5127167  )
        15           O   tau(  15) = (   0.7600191   0.5146935  -0.0011446  )
        16           O   tau(  16) = (   0.2629300   0.5246494   0.0011446  )
        17           O   tau(  17) = (   0.5125409   0.2523393   0.4923659  )
        18           O   tau(  18) = (   0.5104082   0.7870036   0.5307785  )
        19           O   tau(  19) = (  -0.0010664   0.2673321   1.0039380  )
        20           O   tau(  20) = (   0.0010664   0.7720108   0.0192061  )
        21           O   tau(  21) = (   0.5104082   0.2523393   0.0192061  )
        22           O   tau(  22) = (   0.5125409   0.7870036   1.0039380  )
        23           O   tau(  23) = (   0.0010664   0.2673321   0.5307785  )
        24           O   tau(  24) = (  -0.0010664   0.7720108   0.4923659  )
        25           O   tau(  25) = (   0.7480092   0.2581998   0.7657414  )
        26           O   tau(  26) = (   0.2749398   0.7811431   0.2574028  )
        27           O   tau(  27) = (   0.7864146   0.2614716   0.2541694  )
        28           O   tau(  28) = (   0.2365347   0.7778713   0.7689748  )
        29           O   tau(  29) = (   0.2749398   0.2581998   0.7689748  )
        30           O   tau(  30) = (   0.7480092   0.7811431   0.2541694  )
        31           O   tau(  31) = (   0.2365347   0.2614716   0.2574028  )
        32           O   tau(  32) = (   0.7864146   0.7778713   0.7657414  )

     number of k points=    64  gaussian smearing, width (Ry)=  0.0007
                       cart. coord. in units 2pi/alat
        k(    1) = (   0.0000000   0.0000000   0.0000000), wk =   0.0092593
        k(    2) = (   0.0000000   0.0000000   0.1628965), wk =   0.0185185
        k(    3) = (   0.0000000   0.0000000   0.3257931), wk =   0.0185185
        k(    4) = (   0.0000000   0.0000000  -0.4886896), wk =   0.0092593
        k(    5) = (   0.0000000   0.1603577   0.0000000), wk =   0.0185185
        k(    6) = (   0.0000000   0.1603577   0.1628965), wk =   0.0370370
        k(    7) = (   0.0000000   0.1603577   0.3257931), wk =   0.0370370
        k(    8) = (   0.0000000   0.1603577  -0.4886896), wk =   0.0185185
        k(    9) = (   0.0000000   0.3207155   0.0000000), wk =   0.0185185
        k(   10) = (   0.0000000   0.3207155   0.1628965), wk =   0.0370370
        k(   11) = (   0.0000000   0.3207155   0.3257931), wk =   0.0370370
        k(   12) = (   0.0000000   0.3207155  -0.4886896), wk =   0.0185185
        k(   13) = (   0.0000000  -0.4810732   0.0000000), wk =   0.0092593
        k(   14) = (   0.0000000  -0.4810732   0.1628965), wk =   0.0185185
        k(   15) = (   0.0000000  -0.4810732   0.3257931), wk =   0.0185185
        k(   16) = (   0.0000000  -0.4810732  -0.4886896), wk =   0.0092593
        k(   17) = (   0.1629276   0.0000000   0.1628965), wk =   0.0370370
        k(   18) = (   0.1629276   0.0000000   0.3257931), wk =   0.0370370
        k(   19) = (   0.1629276   0.0000000  -0.4886896), wk =   0.0185185
        k(   20) = (   0.1629276   0.1603577   0.1628965), wk =   0.0740741
        k(   21) = (   0.1629276   0.1603577   0.3257931), wk =   0.0740741
        k(   22) = (   0.1629276   0.1603577  -0.4886896), wk =   0.0370370
        k(   23) = (   0.1629276   0.3207155   0.1628965), wk =   0.0740741
        k(   24) = (   0.1629276   0.3207155   0.3257931), wk =   0.0740741
        k(   25) = (   0.1629276   0.3207155  -0.4886896), wk =   0.0370370
        k(   26) = (   0.1629276  -0.4810732   0.1628965), wk =   0.0370370
        k(   27) = (   0.1629276  -0.4810732   0.3257931), wk =   0.0370370
        k(   28) = (   0.1629276  -0.4810732  -0.4886896), wk =   0.0185185
        k(   29) = (   0.3258552   0.0000000   0.3257931), wk =   0.0370370
        k(   30) = (   0.3258552   0.0000000  -0.4886896), wk =   0.0185185
        k(   31) = (   0.3258552   0.1603577   0.3257931), wk =   0.0740741
        k(   32) = (   0.3258552   0.1603577  -0.4886896), wk =   0.0370370
        k(   33) = (   0.3258552   0.3207155   0.3257931), wk =   0.0740741
        k(   34) = (   0.3258552   0.3207155  -0.4886896), wk =   0.0370370
        k(   35) = (   0.3258552  -0.4810732   0.3257931), wk =   0.0370370
        k(   36) = (   0.3258552  -0.4810732  -0.4886896), wk =   0.0185185
        k(   37) = (  -0.4887829   0.0000000  -0.4886896), wk =   0.0092593
        k(   38) = (  -0.4887829   0.1603577  -0.4886896), wk =   0.0185185
        k(   39) = (  -0.4887829   0.3207155  -0.4886896), wk =   0.0185185
        k(   40) = (  -0.4887829  -0.4810732  -0.4886896), wk =   0.0092593
        k(   41) = (   0.1629276   0.0000000   0.0000000), wk =   0.0185185
        k(   42) = (   0.3258552   0.0000000   0.0000000), wk =   0.0185185
        k(   43) = (  -0.4887829   0.0000000   0.0000000), wk =   0.0092593
        k(   44) = (   0.1629276  -0.1603577   0.0000000), wk =   0.0370370
        k(   45) = (   0.3258552  -0.1603577   0.0000000), wk =   0.0370370
        k(   46) = (  -0.4887829  -0.1603577   0.0000000), wk =   0.0185185
        k(   47) = (   0.1629276  -0.3207155   0.0000000), wk =   0.0370370
        k(   48) = (   0.3258552  -0.3207155   0.0000000), wk =   0.0370370
        k(   49) = (  -0.4887829  -0.3207155   0.0000000), wk =   0.0185185
        k(   50) = (   0.1629276   0.4810732   0.0000000), wk =   0.0185185
        k(   51) = (   0.3258552   0.4810732   0.0000000), wk =   0.0185185
        k(   52) = (  -0.4887829   0.4810732   0.0000000), wk =   0.0092593
        k(   53) = (   0.3258552   0.0000000   0.1628965), wk =   0.0370370
        k(   54) = (  -0.4887829   0.0000000   0.1628965), wk =   0.0185185
        k(   55) = (   0.3258552  -0.1603577   0.1628965), wk =   0.0740741
        k(   56) = (  -0.4887829  -0.1603577   0.1628965), wk =   0.0370370
        k(   57) = (   0.3258552  -0.3207155   0.1628965), wk =   0.0740741
        k(   58) = (  -0.4887829  -0.3207155   0.1628965), wk =   0.0370370
        k(   59) = (   0.3258552   0.4810732   0.1628965), wk =   0.0370370
        k(   60) = (  -0.4887829   0.4810732   0.1628965), wk =   0.0185185
        k(   61) = (  -0.4887829   0.0000000   0.3257931), wk =   0.0185185
        k(   62) = (  -0.4887829  -0.1603577   0.3257931), wk =   0.0370370
        k(   63) = (  -0.4887829  -0.3207155   0.3257931), wk =   0.0370370
        k(   64) = (  -0.4887829   0.4810732   0.3257931), wk =   0.0185185

     Initial potential from superposition of free atoms

     starting charge  367.99656, renormalised to  368.00000
     Starting wfc are  232 randomized atomic wfcs

     Writing output data file Landau_33.save

     Self-consistent Calculation

[...]

     total energy              =   -6261.08647680 Ry
     Harris-Foulkes estimate   =   -6261.08647680 Ry
     estimated scf accuracy    <          1.8E-10 Ry

     iteration # 15     ecut=   120.00 Ry     beta= 0.70
     Davidson diagonalization with overlap
     ethr =  1.00E-13,  avg # of iterations =  3.0

     End of self-consistent calculation

[...]

          k = 0.3259 0.4811 0.1629 ( 64024 PWs)   bands (ev):

[...]

          k =-0.4888 0.4811 0.3258 ( 64000 PWs)   bands (ev):

   -66.6849 -66.6849 -66.6849 -66.6849 -66.6846 -66.6846 -66.6845 -66.6845
   -30.9999 -30.9999 -30.9996 -30.9996 -30.9967 -30.9967 -30.9962 -30.9962
   -30.9910 -30.9910 -30.9908 -30.9908 -30.9720 -30.9720 -30.9715 -30.9715
   -30.9700 -30.9700 -30.9695 -30.9695 -30.9494 -30.9494 -30.9493 -30.9493
   -20.8597 -20.8597 -20.8597 -20.8597 -20.8597 -20.8597 -20.8596 -20.8596
   -20.8312 -20.8312 -20.8311 -20.8311 -20.8307 -20.8306 -20.8306 -20.8306
   -20.8297 -20.8297 -20.8297 -20.8297 -20.8296 -20.8296 -20.8296 -20.8296
   -20.8281 -20.8281 -20.8281 -20.8281 -20.8277 -20.8277 -20.8277 -20.8277
   -20.8254 -20.8254 -20.8254 -20.8254 -20.8250 -20.8250 -20.8249 -20.8249
   -20.8233 -20.8233 -20.8232 -20.8232 -20.8216 -20.8216 -20.8216 -20.8216
   -20.8212 -20.8212 -20.8211 -20.8211 -20.8194 -20.8194 -20.8194 -20.8194
    -9.5901  -9.5901  -9.5883  -9.5883  -9.2152  -9.2151  -9.2100  -9.2100
    -8.9907  -8.9906  -8.9863  -8.9863  -8.8453  -8.8453  -8.8380  -8.8379
    -8.8250  -8.8249  -8.8182  -8.8181  -8.5311  -8.5311  -8.5308  -8.5308
     1.7745   1.7745   1.7770   1.7770   2.6374   2.6375   2.6648   2.6648
     2.6987   2.6987   2.7177   2.7178   2.8534   2.8534   2.8976   2.8976
     2.9517   2.9517   2.9693   2.9694   3.2446   3.2446   3.2758   3.2758
     3.3356   3.3357   3.3844   3.3844   3.7401   3.7401   3.7609   3.7609
     3.8211   3.8212   3.8459   3.8459   3.9049   3.9049   3.9237   3.9237
     4.2215   4.2216   4.2651   4.2651   4.5865   4.5865   4.5920   4.5920
     6.6560   6.6560   6.6914   6.6915   6.7300   6.7301   6.7369   6.7369
     6.9290   6.9290   6.9738   6.9738   6.9819   6.9820   7.0177   7.0177
     7.0991   7.0991   7.1359   7.1359   7.2771   7.2771   7.2950   7.2950
    10.9281  10.9281  10.9596  10.9596  11.1255  11.1255  11.1746  11.1746
    11.5883  11.5883  11.6325  11.6325  11.6378  11.6379  11.6719  11.6719
    12.0125  12.0125  12.1012  12.1012  12.2370  12.2370  12.3052  12.3052
    16.2439  16.2439  16.2676  16.2676  16.6037  16.6038  16.6112  16.6112
    17.1011  17.1012  17.1637  17.1637  17.3671

     the Fermi energy is     8.4406 ev

!    total energy              =   -6261.08647680 Ry
     Harris-Foulkes estimate   =   -6261.08647680 Ry
     estimated scf accuracy    <          5.9E-11 Ry

     The total energy is the sum of the following terms:

     one-electron contribution =   -4842.56555789 Ry
     hartree contribution      =    2651.63351644 Ry
     xc contribution           =    -965.67910833 Ry
     ewald contribution        =   -3104.47532702 Ry
     smearing contrib. (-TS)   =      -0.00000000 Ry

     convergence has been achieved in  15 iterations

     Forces acting on atoms (cartesian axes, Ry/au):

     atom    1 type  1   force =    -0.00524208    0.02086257    0.00463647
     atom    2 type  1   force =     0.00524208   -0.02086257   -0.00463647
     atom    3 type  1   force =     0.00524208   -0.02086257    0.00463647
     atom    4 type  1   force =    -0.00524208    0.02086257   -0.00463647
     atom    5 type  1   force =     0.00524208    0.02086257   -0.00463647
     atom    6 type  1   force =    -0.00524208   -0.02086257    0.00463647
     atom    7 type  1   force =    -0.00524208   -0.02086257   -0.00463647
     atom    8 type  1   force =     0.00524208    0.02086257    0.00463647
     atom    9 type  2   force =    -0.00003530   -0.01135027   -0.00048239
     atom   10 type  2   force =     0.00003530    0.01135027    0.00048239
     atom   11 type  2   force =     0.00003530    0.01135027   -0.00048239
     atom   12 type  2   force =    -0.00003530   -0.01135027    0.00048239
     atom   13 type  2   force =     0.00003530   -0.01135027    0.00048239
     atom   14 type  2   force =    -0.00003530    0.01135027   -0.00048239
     atom   15 type  2   force =    -0.00003530    0.01135027    0.00048239
     atom   16 type  2   force =     0.00003530   -0.01135027   -0.00048239
     atom   17 type  2   force =    -0.00304056   -0.00049479   -0.00104710
     atom   18 type  2   force =     0.00304056    0.00049479    0.00104710
     atom   19 type  2   force =     0.00304056    0.00049479   -0.00104710
     atom   20 type  2   force =    -0.00304056   -0.00049479    0.00104710
     atom   21 type  2   force =     0.00304056   -0.00049479    0.00104710
     atom   22 type  2   force =    -0.00304056    0.00049479   -0.00104710
     atom   23 type  2   force =    -0.00304056    0.00049479    0.00104710
     atom   24 type  2   force =     0.00304056   -0.00049479   -0.00104710
     atom   25 type  2   force =    -0.00130299    0.00122344    0.00375980
     atom   26 type  2   force =     0.00130299   -0.00122344   -0.00375980
     atom   27 type  2   force =     0.00130299   -0.00122344    0.00375980
     atom   28 type  2   force =    -0.00130299    0.00122344   -0.00375980
     atom   29 type  2   force =     0.00130299    0.00122344   -0.00375980
     atom   30 type  2   force =    -0.00130299   -0.00122344    0.00375980
     atom   31 type  2   force =    -0.00130299   -0.00122344   -0.00375980
     atom   32 type  2   force =     0.00130299    0.00122344    0.00375980

     Total force =     0.000000     Total SCF correction =     0.000000

     Computing stress (Cartesian axis) and pressure

          total   stress  (Ry/bohr**3)                   (kbar)     P=    1.66
   0.00001603   0.00000000   0.00000000          2.36      0.00      0.00
   0.00000000   0.00000174   0.00000000          0.00      0.26      0.00
   0.00000000   0.00000000   0.00001618          0.00      0.00      2.38

     Writing output data file Landau_33.save

     General routines

     Parallel routines

   This run was terminated on:  22:54: 0  19Mar2020

   JOB DONE.