     Program PWSCF v.6.2 (svn rev. 14038) starts on 29Apr2019 at 16:53:26

     K-points division:     npool     =      64
     Reading input from rscf.in

     Current dimensions of program PWSCF are:
     Max number of different atomic species (ntypx) = 10
     Max number of k-points (npk) =  40000
     Max angular momentum in pseudopotentials (lmaxx) =  3

     Subspace diagonalization in iterative solution of the eigenvalue problem:
     a serial algorithm will be used

     bravais-lattice index     =            0
     lattice parameter (alat)  =      13.8397  a.u.
     unit-cell volume          =    2804.9816 (a.u.)^3
     number of atoms/cell      =           32
     number of atomic types    =            2
     number of electrons       =       368.00
     number of Kohn-Sham states=          221
     kinetic-energy cutoff     =     120.0000  Ry
     charge density cutoff     =     480.0000  Ry
     convergence threshold     =      1.0E-08
     mixing beta               =       0.7000
     number of iterations used =            8  plain     mixing
     Exchange-correlation      = SLA PW NOGX NOGC ( 1  4  0  0 0 0)
     nstep                     =           50

     celldm(1)=  13.839685  celldm(2)=   0.000000  celldm(3)=   0.000000
     celldm(4)=   0.000000  celldm(5)=   0.000000  celldm(6)=   0.000000

     crystal axes: (cart. coord. in units of alat)
               a(1) = (   1.000000   0.000000   0.000000 )
               a(2) = (   0.000000   1.058160   0.000000 )
               a(3) = (   0.000000   0.000000   1.000000 )

     reciprocal axes: (cart. coord. in units 2 pi/alat)
               b(1) = (  1.000000  0.000000  0.000000 )
               b(2) = (  0.000000  0.945037  0.000000 )
               b(3) = (  0.000000  0.000000  1.000000 )

     PseudoPot. # 1 for W  read from file:
     /cluster/scratch/mnoe/QE/pps/W_ONCV_LDA-4.0.upf
     MD5 check sum: ba0307d5d4cd419d6f1d13dc49d7c13a
     Pseudo is Norm-conserving + core correction, Zval = 28.0
     Generated using ONCVPSP code by D. R. Hamann
     Using radial grid of 1380 points,  8 beta functions with:
                l(1) =   0
                l(2) =   0
                l(3) =   1
                l(4) =   1
                l(5) =   2
                l(6) =   2
                l(7) =   3
                l(8) =   3

     PseudoPot. # 2 for O  read from file:
     /cluster/scratch/mnoe/QE/pps/O_ONCV_LDA-3.0.upf
     MD5 check sum: a1bd6164e7280c17a38c229939bfbd54
     Pseudo is Norm-conserving + core correction, Zval =  6.0
     Generated using ONCVPSP code by D. R. Hamann
     Using radial grid of  926 points,  5 beta functions with:
                l(1) =   0
                l(2) =   0
                l(3) =   1
                l(4) =   1
                l(5) =   2

     atomic species   valence    mass     pseudopotential
        W             28.00   183.84000     W ( 1.00)
        O              6.00    15.99940     O ( 1.00)

      8 Sym. Ops., with inversion, found ( 6 have fractional translation)

   Cartesian axes

     site n.     atom                  positions (alat units)
         1           W   tau(   1) = (   0.2495400   0.2982530   0.0004400  )
         2           W   tau(   2) = (   0.7504600   0.7599071   0.9995600  )
         3           W   tau(   3) = (   0.2504600   0.2308271   0.5004400  )
         4           W   tau(   4) = (   0.7495400   0.8273330   0.4995600  )
         5           W   tau(   5) = (   0.7504600   0.2982530   0.4995600  )
         6           W   tau(   6) = (   0.2495400   0.7599071   0.5004400  )
         7           W   tau(   7) = (   0.7495400   0.2308271   0.9995600  )
         8           W   tau(   8) = (   0.2504600   0.8273330   0.0004400  )
         9           O   tau(   9) = (   0.2491500   0.0088039   0.0001400  )
        10           O   tau(  10) = (   0.7508500   1.0493562   0.9998600  )
        11           O   tau(  11) = (   0.2508500   0.5202761   0.5001400  )
        12           O   tau(  12) = (   0.7491500   0.5378839   0.4998600  )
        13           O   tau(  13) = (   0.7508500   0.0088039   0.4998600  )
        14           O   tau(  14) = (   0.2491500   1.0493562   0.5001400  )
        15           O   tau(  15) = (   0.7491500   0.5202761   0.9998600  )
        16           O   tau(  16) = (   0.2508500   0.5378839   0.0001400  )
        17           O   tau(  17) = (   0.5001300   0.2636088   0.4495400  )
        18           O   tau(  18) = (   0.4998700   0.7945513   0.5504600  )
        19           O   tau(  19) = (   0.9998700   0.2654712   0.9495400  )
        20           O   tau(  20) = (   0.0001299   0.7926889   0.0504600  )
        21           O   tau(  21) = (   0.4998700   0.2636088   0.0504600  )
        22           O   tau(  22) = (   0.5001300   0.7945513   0.9495400  )
        23           O   tau(  23) = (   0.0001299   0.2654712   0.5504600  )
        24           O   tau(  24) = (   0.9998700   0.7926889   0.4495400  )
        25           O   tau(  25) = (   0.6995400   0.2643390   0.7498100  )
        26           O   tau(  26) = (   0.3004600   0.7938211   0.2501900  )
        27           O   tau(  27) = (   0.8004600   0.2647411   0.2498100  )
        28           O   tau(  28) = (   0.1995400   0.7934190   0.7501900  )
        29           O   tau(  29) = (   0.3004600   0.2643390   0.7501900  )
        30           O   tau(  30) = (   0.6995400   0.7938211   0.2498100  )
        31           O   tau(  31) = (   0.1995400   0.2647411   0.2501900  )
        32           O   tau(  32) = (   0.8004600   0.7934190   0.7498100  )

     number of k points=    64  gaussian smearing, width (Ry)=  0.0007
                       cart. coord. in units 2pi/alat
        k(    1) = (   0.0000000   0.0000000   0.0000000), wk =   0.0092593
        k(    2) = (   0.0000000   0.0000000   0.1666667), wk =   0.0185185
        k(    3) = (   0.0000000   0.0000000   0.3333333), wk =   0.0185185
        k(    4) = (   0.0000000   0.0000000  -0.5000000), wk =   0.0092593
        k(    5) = (   0.0000000   0.1575061   0.0000000), wk =   0.0185185
        k(    6) = (   0.0000000   0.1575061   0.1666667), wk =   0.0370370
        k(    7) = (   0.0000000   0.1575061   0.3333333), wk =   0.0370370
        k(    8) = (   0.0000000   0.1575061  -0.5000000), wk =   0.0185185
        k(    9) = (   0.0000000   0.3150122   0.0000000), wk =   0.0185185
        k(   10) = (   0.0000000   0.3150122   0.1666667), wk =   0.0370370
        k(   11) = (   0.0000000   0.3150122   0.3333333), wk =   0.0370370
        k(   12) = (   0.0000000   0.3150122  -0.5000000), wk =   0.0185185
        k(   13) = (   0.0000000  -0.4725183   0.0000000), wk =   0.0092593
        k(   14) = (   0.0000000  -0.4725183   0.1666667), wk =   0.0185185
        k(   15) = (   0.0000000  -0.4725183   0.3333333), wk =   0.0185185
        k(   16) = (   0.0000000  -0.4725183  -0.5000000), wk =   0.0092593
        k(   17) = (   0.1666667   0.0000000   0.1666667), wk =   0.0370370
        k(   18) = (   0.1666667   0.0000000   0.3333333), wk =   0.0370370
        k(   19) = (   0.1666667   0.0000000  -0.5000000), wk =   0.0185185
        k(   20) = (   0.1666667   0.1575061   0.1666667), wk =   0.0740741
        k(   21) = (   0.1666667   0.1575061   0.3333333), wk =   0.0740741
        k(   22) = (   0.1666667   0.1575061  -0.5000000), wk =   0.0370370
        k(   23) = (   0.1666667   0.3150122   0.1666667), wk =   0.0740741
        k(   24) = (   0.1666667   0.3150122   0.3333333), wk =   0.0740741
        k(   25) = (   0.1666667   0.3150122  -0.5000000), wk =   0.0370370
        k(   26) = (   0.1666667  -0.4725183   0.1666667), wk =   0.0370370
        k(   27) = (   0.1666667  -0.4725183   0.3333333), wk =   0.0370370
        k(   28) = (   0.1666667  -0.4725183  -0.5000000), wk =   0.0185185
        k(   29) = (   0.3333333   0.0000000   0.3333333), wk =   0.0370370
        k(   30) = (   0.3333333   0.0000000  -0.5000000), wk =   0.0185185
        k(   31) = (   0.3333333   0.1575061   0.3333333), wk =   0.0740741
        k(   32) = (   0.3333333   0.1575061  -0.5000000), wk =   0.0370370
        k(   33) = (   0.3333333   0.3150122   0.3333333), wk =   0.0740741
        k(   34) = (   0.3333333   0.3150122  -0.5000000), wk =   0.0370370
        k(   35) = (   0.3333333  -0.4725183   0.3333333), wk =   0.0370370
        k(   36) = (   0.3333333  -0.4725183  -0.5000000), wk =   0.0185185
        k(   37) = (  -0.5000000   0.0000000  -0.5000000), wk =   0.0092593
        k(   38) = (  -0.5000000   0.1575061  -0.5000000), wk =   0.0185185
        k(   39) = (  -0.5000000   0.3150122  -0.5000000), wk =   0.0185185
        k(   40) = (  -0.5000000  -0.4725183  -0.5000000), wk =   0.0092593
        k(   41) = (   0.1666667   0.0000000   0.0000000), wk =   0.0185185
        k(   42) = (   0.3333333   0.0000000   0.0000000), wk =   0.0185185
        k(   43) = (  -0.5000000   0.0000000   0.0000000), wk =   0.0092593
        k(   44) = (   0.1666667  -0.1575061   0.0000000), wk =   0.0370370
        k(   45) = (   0.3333333  -0.1575061   0.0000000), wk =   0.0370370
        k(   46) = (  -0.5000000  -0.1575061   0.0000000), wk =   0.0185185
        k(   47) = (   0.1666667  -0.3150122   0.0000000), wk =   0.0370370
        k(   48) = (   0.3333333  -0.3150122   0.0000000), wk =   0.0370370
        k(   49) = (  -0.5000000  -0.3150122   0.0000000), wk =   0.0185185
        k(   50) = (   0.1666667   0.4725183   0.0000000), wk =   0.0185185
        k(   51) = (   0.3333333   0.4725183   0.0000000), wk =   0.0185185
        k(   52) = (  -0.5000000   0.4725183   0.0000000), wk =   0.0092593
        k(   53) = (   0.3333333   0.0000000   0.1666667), wk =   0.0370370
        k(   54) = (  -0.5000000   0.0000000   0.1666667), wk =   0.0185185
        k(   55) = (   0.3333333  -0.1575061   0.1666667), wk =   0.0740741
        k(   56) = (  -0.5000000  -0.1575061   0.1666667), wk =   0.0370370
        k(   57) = (   0.3333333  -0.3150122   0.1666667), wk =   0.0740741
        k(   58) = (  -0.5000000  -0.3150122   0.1666667), wk =   0.0370370
        k(   59) = (   0.3333333   0.4725183   0.1666667), wk =   0.0370370
        k(   60) = (  -0.5000000   0.4725183   0.1666667), wk =   0.0185185
        k(   61) = (  -0.5000000   0.0000000   0.3333333), wk =   0.0185185
        k(   62) = (  -0.5000000  -0.1575061   0.3333333), wk =   0.0370370
        k(   63) = (  -0.5000000  -0.3150122   0.3333333), wk =   0.0370370
        k(   64) = (  -0.5000000   0.4725183   0.3333333), wk =   0.0185185

     Initial potential from superposition of free atoms

     starting charge  367.99656, renormalised to  368.00000
     Starting wfc are  232 randomized atomic wfcs

     Self-consistent Calculation

     iteration #  1     ecut=   120.00 Ry     beta= 0.70
     Davidson diagonalization with overlap
     ethr =  1.00E-02,  avg # of iterations =  5.0

     total energy              =   -6253.97795899 Ry
     Harris-Foulkes estimate   =   -6264.58675296 Ry
     estimated scf accuracy    <      13.43282624 Ry

[...]

     End of self-consistent calculation

[...]
End final coordinates

     A final scf calculation at the relaxed structure.
     The G-vectors are recalculated for the final unit cell
     Results may differ from those at the preceding step.

     bravais-lattice index     =            0
     lattice parameter (alat)  =      13.8397  a.u.
     unit-cell volume          =    2804.9816 (a.u.)^3
     number of atoms/cell      =           32
     number of atomic types    =            2
     number of electrons       =       368.00
     number of Kohn-Sham states=          221
     kinetic-energy cutoff     =     120.0000  Ry
     charge density cutoff     =     480.0000  Ry
     convergence threshold     =      1.0E-08
     mixing beta               =       0.7000
     number of iterations used =            8  plain     mixing
     Exchange-correlation      = SLA PW NOGX NOGC ( 1  4  0  0 0 0)

     celldm(1)=  13.839685  celldm(2)=   0.000000  celldm(3)=   0.000000
     celldm(4)=   0.000000  celldm(5)=   0.000000  celldm(6)=   0.000000

     crystal axes: (cart. coord. in units of alat)
               a(1) = (   1.000000   0.000000   0.000000 )
               a(2) = (   0.000000   1.058160   0.000000 )
               a(3) = (   0.000000   0.000000   1.000000 )

     reciprocal axes: (cart. coord. in units 2 pi/alat)
               b(1) = (  1.000000  0.000000  0.000000 )
               b(2) = (  0.000000  0.945037  0.000000 )
               b(3) = (  0.000000  0.000000  1.000000 )

     PseudoPot. # 1 for W  read from file:
     /cluster/scratch/mnoe/QE/pps/W_ONCV_LDA-4.0.upf
     MD5 check sum: ba0307d5d4cd419d6f1d13dc49d7c13a
     Pseudo is Norm-conserving + core correction, Zval = 28.0
     Generated using ONCVPSP code by D. R. Hamann
     Using radial grid of 1380 points,  8 beta functions with:
                l(1) =   0
                l(2) =   0
                l(3) =   1
                l(4) =   1
                l(5) =   2
                l(6) =   2
                l(7) =   3
                l(8) =   3

     PseudoPot. # 2 for O  read from file:
     /cluster/scratch/mnoe/QE/pps/O_ONCV_LDA-3.0.upf
     MD5 check sum: a1bd6164e7280c17a38c229939bfbd54
     Pseudo is Norm-conserving + core correction, Zval =  6.0
     Generated using ONCVPSP code by D. R. Hamann
     Using radial grid of  926 points,  5 beta functions with:
                l(1) =   0
                l(2) =   0
                l(3) =   1
                l(4) =   1
                l(5) =   2

     atomic species   valence    mass     pseudopotential
        W             28.00   183.84000     W ( 1.00)
        O              6.00    15.99940     O ( 1.00)

      8 Sym. Ops., with inversion, found ( 6 have fractional translation)

   Cartesian axes

     site n.     atom                  positions (alat units)
         1           W   tau(   1) = (   0.2495400   0.2982530   0.0004400  )
         2           W   tau(   2) = (   0.7504600   0.7599071   0.9995600  )
         3           W   tau(   3) = (   0.2504600   0.2308271   0.5004400  )
         4           W   tau(   4) = (   0.7495400   0.8273330   0.4995600  )
         5           W   tau(   5) = (   0.7504600   0.2982530   0.4995600  )
         6           W   tau(   6) = (   0.2495400   0.7599071   0.5004400  )
         7           W   tau(   7) = (   0.7495400   0.2308271   0.9995600  )
         8           W   tau(   8) = (   0.2504600   0.8273330   0.0004400  )
         9           O   tau(   9) = (   0.2491500   0.0088039   0.0001400  )
        10           O   tau(  10) = (   0.7508500   1.0493562   0.9998600  )
        11           O   tau(  11) = (   0.2508500   0.5202761   0.5001400  )
        12           O   tau(  12) = (   0.7491500   0.5378839   0.4998600  )
        13           O   tau(  13) = (   0.7508500   0.0088039   0.4998600  )
        14           O   tau(  14) = (   0.2491500   1.0493562   0.5001400  )
        15           O   tau(  15) = (   0.7491500   0.5202761   0.9998600  )
        16           O   tau(  16) = (   0.2508500   0.5378839   0.0001400  )
        17           O   tau(  17) = (   0.5001300   0.2636088   0.4495400  )
        18           O   tau(  18) = (   0.4998700   0.7945513   0.5504600  )
        19           O   tau(  19) = (   0.9998700   0.2654712   0.9495400  )
        20           O   tau(  20) = (   0.0001299   0.7926889   0.0504600  )
        21           O   tau(  21) = (   0.4998700   0.2636088   0.0504600  )
        22           O   tau(  22) = (   0.5001300   0.7945513   0.9495400  )
        23           O   tau(  23) = (   0.0001299   0.2654712   0.5504600  )
        24           O   tau(  24) = (   0.9998700   0.7926889   0.4495400  )
        25           O   tau(  25) = (   0.6995400   0.2643390   0.7498100  )
        26           O   tau(  26) = (   0.3004600   0.7938211   0.2501900  )
        27           O   tau(  27) = (   0.8004600   0.2647411   0.2498100  )
        28           O   tau(  28) = (   0.1995400   0.7934190   0.7501900  )
        29           O   tau(  29) = (   0.3004600   0.2643390   0.7501900  )
        30           O   tau(  30) = (   0.6995400   0.7938211   0.2498100  )
        31           O   tau(  31) = (   0.1995400   0.2647411   0.2501900  )
        32           O   tau(  32) = (   0.8004600   0.7934190   0.7498100  )

     number of k points=    64  gaussian smearing, width (Ry)=  0.0007
                       cart. coord. in units 2pi/alat
        k(    1) = (   0.0000000   0.0000000   0.0000000), wk =   0.0092593
        k(    2) = (   0.0000000   0.0000000   0.1666667), wk =   0.0185185
        k(    3) = (   0.0000000   0.0000000   0.3333333), wk =   0.0185185
        k(    4) = (   0.0000000   0.0000000  -0.5000000), wk =   0.0092593
        k(    5) = (   0.0000000   0.1575061   0.0000000), wk =   0.0185185
        k(    6) = (   0.0000000   0.1575061   0.1666667), wk =   0.0370370
        k(    7) = (   0.0000000   0.1575061   0.3333333), wk =   0.0370370
        k(    8) = (   0.0000000   0.1575061  -0.5000000), wk =   0.0185185
        k(    9) = (   0.0000000   0.3150122   0.0000000), wk =   0.0185185
        k(   10) = (   0.0000000   0.3150122   0.1666667), wk =   0.0370370
        k(   11) = (   0.0000000   0.3150122   0.3333333), wk =   0.0370370
        k(   12) = (   0.0000000   0.3150122  -0.5000000), wk =   0.0185185
        k(   13) = (   0.0000000  -0.4725183   0.0000000), wk =   0.0092593
        k(   14) = (   0.0000000  -0.4725183   0.1666667), wk =   0.0185185
        k(   15) = (   0.0000000  -0.4725183   0.3333333), wk =   0.0185185
        k(   16) = (   0.0000000  -0.4725183  -0.5000000), wk =   0.0092593
        k(   17) = (   0.1666667   0.0000000   0.1666667), wk =   0.0370370
        k(   18) = (   0.1666667   0.0000000   0.3333333), wk =   0.0370370
        k(   19) = (   0.1666667   0.0000000  -0.5000000), wk =   0.0185185
        k(   20) = (   0.1666667   0.1575061   0.1666667), wk =   0.0740741
        k(   21) = (   0.1666667   0.1575061   0.3333333), wk =   0.0740741
        k(   22) = (   0.1666667   0.1575061  -0.5000000), wk =   0.0370370
        k(   23) = (   0.1666667   0.3150122   0.1666667), wk =   0.0740741
        k(   24) = (   0.1666667   0.3150122   0.3333333), wk =   0.0740741
        k(   25) = (   0.1666667   0.3150122  -0.5000000), wk =   0.0370370
        k(   26) = (   0.1666667  -0.4725183   0.1666667), wk =   0.0370370
        k(   27) = (   0.1666667  -0.4725183   0.3333333), wk =   0.0370370
        k(   28) = (   0.1666667  -0.4725183  -0.5000000), wk =   0.0185185
        k(   29) = (   0.3333333   0.0000000   0.3333333), wk =   0.0370370
        k(   30) = (   0.3333333   0.0000000  -0.5000000), wk =   0.0185185
        k(   31) = (   0.3333333   0.1575061   0.3333333), wk =   0.0740741
        k(   32) = (   0.3333333   0.1575061  -0.5000000), wk =   0.0370370
        k(   33) = (   0.3333333   0.3150122   0.3333333), wk =   0.0740741
        k(   34) = (   0.3333333   0.3150122  -0.5000000), wk =   0.0370370
        k(   35) = (   0.3333333  -0.4725183   0.3333333), wk =   0.0370370
        k(   36) = (   0.3333333  -0.4725183  -0.5000000), wk =   0.0185185
        k(   37) = (  -0.5000000   0.0000000  -0.5000000), wk =   0.0092593
        k(   38) = (  -0.5000000   0.1575061  -0.5000000), wk =   0.0185185
        k(   39) = (  -0.5000000   0.3150122  -0.5000000), wk =   0.0185185
        k(   40) = (  -0.5000000  -0.4725183  -0.5000000), wk =   0.0092593
        k(   41) = (   0.1666667   0.0000000   0.0000000), wk =   0.0185185
        k(   42) = (   0.3333333   0.0000000   0.0000000), wk =   0.0185185
        k(   43) = (  -0.5000000   0.0000000   0.0000000), wk =   0.0092593
        k(   44) = (   0.1666667  -0.1575061   0.0000000), wk =   0.0370370
        k(   45) = (   0.3333333  -0.1575061   0.0000000), wk =   0.0370370
        k(   46) = (  -0.5000000  -0.1575061   0.0000000), wk =   0.0185185
        k(   47) = (   0.1666667  -0.3150122   0.0000000), wk =   0.0370370
        k(   48) = (   0.3333333  -0.3150122   0.0000000), wk =   0.0370370
        k(   49) = (  -0.5000000  -0.3150122   0.0000000), wk =   0.0185185
        k(   50) = (   0.1666667   0.4725183   0.0000000), wk =   0.0185185
        k(   51) = (   0.3333333   0.4725183   0.0000000), wk =   0.0185185
        k(   52) = (  -0.5000000   0.4725183   0.0000000), wk =   0.0092593
        k(   53) = (   0.3333333   0.0000000   0.1666667), wk =   0.0370370
        k(   54) = (  -0.5000000   0.0000000   0.1666667), wk =   0.0185185
        k(   55) = (   0.3333333  -0.1575061   0.1666667), wk =   0.0740741
        k(   56) = (  -0.5000000  -0.1575061   0.1666667), wk =   0.0370370
        k(   57) = (   0.3333333  -0.3150122   0.1666667), wk =   0.0740741
        k(   58) = (  -0.5000000  -0.3150122   0.1666667), wk =   0.0370370
        k(   59) = (   0.3333333   0.4725183   0.1666667), wk =   0.0370370
        k(   60) = (  -0.5000000   0.4725183   0.1666667), wk =   0.0185185
        k(   61) = (  -0.5000000   0.0000000   0.3333333), wk =   0.0185185
        k(   62) = (  -0.5000000  -0.1575061   0.3333333), wk =   0.0370370
        k(   63) = (  -0.5000000  -0.3150122   0.3333333), wk =   0.0370370
        k(   64) = (  -0.5000000   0.4725183   0.3333333), wk =   0.0185185

     Initial potential from superposition of free atoms

     starting charge  367.99656, renormalised to  368.00000
     Starting wfc are  232 randomized atomic wfcs

     Writing output data file Landau_1.save

     Self-consistent Calculation

[...]

     total energy              =   -6261.10938600 Ry
     Harris-Foulkes estimate   =   -6261.10938601 Ry
     estimated scf accuracy    <       0.00000002 Ry

     iteration # 13     ecut=   120.00 Ry     beta= 0.70
     Davidson diagonalization with overlap
     ethr =  6.14E-12,  avg # of iterations =  2.6

     End of self-consistent calculation

[...]

          k = 0.3333 0.4725 0.1667 ( 62252 PWs)   bands (ev):

[...]

          k =-0.5000 0.4725 0.3333 ( 62200 PWs)   bands (ev):

   -66.1749 -66.1749 -66.1749 -66.1749 -66.1744 -66.1744 -66.1744 -66.1744
   -30.5395 -30.5395 -30.5395 -30.5395 -30.5377 -30.5377 -30.5377 -30.5377
   -30.4906 -30.4906 -30.4906 -30.4906 -30.4669 -30.4669 -30.4669 -30.4669
   -30.4645 -30.4645 -30.4645 -30.4645 -30.4410 -30.4410 -30.4410 -30.4410
   -20.3360 -20.3360 -20.3359 -20.3359 -20.3359 -20.3359 -20.3359 -20.3359
   -20.3157 -20.3157 -20.3157 -20.3157 -20.3156 -20.3155 -20.3155 -20.3155
   -20.3123 -20.3123 -20.3123 -20.3123 -20.3120 -20.3120 -20.3120 -20.3120
   -20.3118 -20.3118 -20.3118 -20.3118 -20.3115 -20.3115 -20.3115 -20.3115
   -20.3036 -20.3036 -20.3036 -20.3036 -20.3030 -20.3030 -20.3030 -20.3030
   -20.3010 -20.3010 -20.3010 -20.3010 -20.2992 -20.2991 -20.2991 -20.2991
   -20.2988 -20.2988 -20.2988 -20.2987 -20.2972 -20.2972 -20.2972 -20.2971
    -9.1849  -9.1849  -9.1844  -9.1843  -8.7829  -8.7829  -8.7812  -8.7812
    -8.5499  -8.5499  -8.5462  -8.5462  -8.3867  -8.3867  -8.3809  -8.3808
    -8.3386  -8.3385  -8.3337  -8.3336  -8.1080  -8.1080  -8.1067  -8.1067
     2.2617   2.2617   2.2644   2.2644   2.9945   2.9945   3.0017   3.0017
     3.1226   3.1226   3.1322   3.1322   3.2639   3.2639   3.2949   3.2949
     3.3691   3.3691   3.3992   3.3992   3.6460   3.6460   3.6502   3.6502
     3.7718   3.7718   3.8123   3.8123   4.2514   4.2515   4.2836   4.2836
     4.3390   4.3390   4.3957   4.3957   4.4609   4.4609   4.5702   4.5702
     4.6540   4.6540   4.8094   4.8094   5.0678   5.0678   5.0808   5.0808
     7.0388   7.0388   7.0604   7.0604   7.1907   7.1907   7.1935   7.1935
     7.2721   7.2722   7.3188   7.3188   7.3305   7.3305   7.4020   7.4020
     7.4832   7.4832   7.5452   7.5452   7.6083   7.6083   7.6268   7.6268
    11.4063  11.4063  11.4351  11.4351  11.7494  11.7494  11.8147  11.8147
    12.1713  12.1713  12.2115  12.2115  12.3329  12.3329  12.3376  12.3376
    12.4926  12.4926  12.5874  12.5874  12.9782  12.9782  13.0531  13.0531
    16.4622  16.4622  16.5076  16.5076  17.0861  17.0861  17.0929  17.0929
    17.3189  17.3190  17.3592  17.3593  17.3780

     the Fermi energy is     8.5396 ev

!    total energy              =   -6261.10938600 Ry
     Harris-Foulkes estimate   =   -6261.10938600 Ry
     estimated scf accuracy    <          5.6E-10 Ry

     The total energy is the sum of the following terms:

     one-electron contribution =   -4721.68437398 Ry
     hartree contribution      =    2597.53802101 Ry
     xc contribution           =    -965.66686265 Ry
     ewald contribution        =   -3171.29617038 Ry
     smearing contrib. (-TS)   =      -0.00000000 Ry

     convergence has been achieved in  13 iterations

     Forces acting on atoms (cartesian axes, Ry/au):

     atom    1 type  1   force =    -0.00019851    0.00008443    0.00012000
     atom    2 type  1   force =     0.00019851   -0.00008443   -0.00012000
     atom    3 type  1   force =     0.00019851   -0.00008443    0.00012000
     atom    4 type  1   force =    -0.00019851    0.00008443   -0.00012000
     atom    5 type  1   force =     0.00019851    0.00008443   -0.00012000
     atom    6 type  1   force =    -0.00019851   -0.00008443    0.00012000
     atom    7 type  1   force =    -0.00019851   -0.00008443   -0.00012000
     atom    8 type  1   force =     0.00019851    0.00008443    0.00012000
     atom    9 type  2   force =    -0.00004551   -0.00010353    0.00001162
     atom   10 type  2   force =     0.00004551    0.00010353   -0.00001162
     atom   11 type  2   force =     0.00004551    0.00010353    0.00001162
     atom   12 type  2   force =    -0.00004551   -0.00010353   -0.00001162
     atom   13 type  2   force =     0.00004551   -0.00010353   -0.00001162
     atom   14 type  2   force =    -0.00004551    0.00010353    0.00001162
     atom   15 type  2   force =    -0.00004551    0.00010353   -0.00001162
     atom   16 type  2   force =     0.00004551   -0.00010353    0.00001162
     atom   17 type  2   force =    -0.00011903    0.00002110   -0.00000284
     atom   18 type  2   force =     0.00011903   -0.00002110    0.00000284
     atom   19 type  2   force =     0.00011903   -0.00002110   -0.00000284
     atom   20 type  2   force =    -0.00011903    0.00002110    0.00000284
     atom   21 type  2   force =     0.00011903    0.00002110    0.00000284
     atom   22 type  2   force =    -0.00011903   -0.00002110   -0.00000284
     atom   23 type  2   force =    -0.00011903   -0.00002110    0.00000284
     atom   24 type  2   force =     0.00011903    0.00002110   -0.00000284
     atom   25 type  2   force =    -0.00000707   -0.00008592    0.00004933
     atom   26 type  2   force =     0.00000707    0.00008592   -0.00004933
     atom   27 type  2   force =     0.00000707    0.00008592    0.00004933
     atom   28 type  2   force =    -0.00000707   -0.00008592   -0.00004933
     atom   29 type  2   force =     0.00000707   -0.00008592   -0.00004933
     atom   30 type  2   force =    -0.00000707    0.00008592    0.00004933
     atom   31 type  2   force =    -0.00000707    0.00008592   -0.00004933
     atom   32 type  2   force =     0.00000707   -0.00008592    0.00004933

     Total force =     0.000000     Total SCF correction =     0.000000

     Computing stress (Cartesian axis) and pressure

          total   stress  (Ry/bohr**3)                   (kbar)     P=   -0.26
  -0.00000158   0.00000000   0.00000000         -0.23      0.00      0.00
   0.00000000  -0.00000244   0.00000000          0.00     -0.36      0.00
   0.00000000   0.00000000  -0.00000136          0.00      0.00     -0.20

     Writing output data file Landau_1.save

     General routines

     Parallel routines

   This run was terminated on:  17:36: 2  29Apr2019

   JOB DONE.