     Program PWSCF v.6.2 (svn rev. 14038) starts on  5Mar2020 at 18:36: 3

     K-points division:     npool     =      64
     Reading input from rscf.in

     Current dimensions of program PWSCF are:
     Max number of different atomic species (ntypx) = 10
     Max number of k-points (npk) =  40000
     Max angular momentum in pseudopotentials (lmaxx) =  3

     Subspace diagonalization in iterative solution of the eigenvalue problem:
     a serial algorithm will be used

     bravais-lattice index     =            0
     lattice parameter (alat)  =      13.8397  a.u.
     unit-cell volume          =    2804.9816 (a.u.)^3
     number of atoms/cell      =           32
     number of atomic types    =            2
     number of electrons       =       368.00
     number of Kohn-Sham states=          221
     kinetic-energy cutoff     =     120.0000  Ry
     charge density cutoff     =     480.0000  Ry
     convergence threshold     =      1.0E-08
     mixing beta               =       0.7000
     number of iterations used =            8  plain     mixing
     Exchange-correlation      = SLA PW NOGX NOGC ( 1  4  0  0 0 0)
     nstep                     =           50

     celldm(1)=  13.839685  celldm(2)=   0.000000  celldm(3)=   0.000000
     celldm(4)=   0.000000  celldm(5)=   0.000000  celldm(6)=   0.000000

     crystal axes: (cart. coord. in units of alat)
               a(1) = (   1.000000   0.000000   0.000000 )
               a(2) = (   0.000000   1.058160   0.000000 )
               a(3) = (   0.000000   0.000000   1.000000 )

     reciprocal axes: (cart. coord. in units 2 pi/alat)
               b(1) = (  1.000000  0.000000  0.000000 )
               b(2) = (  0.000000  0.945037  0.000000 )
               b(3) = (  0.000000  0.000000  1.000000 )

     PseudoPot. # 1 for W  read from file:
     /cluster/scratch/mnoe/QE/pps/W_ONCV_LDA-4.0.upf
     MD5 check sum: ba0307d5d4cd419d6f1d13dc49d7c13a
     Pseudo is Norm-conserving + core correction, Zval = 28.0
     Generated using ONCVPSP code by D. R. Hamann
     Using radial grid of 1380 points,  8 beta functions with:
                l(1) =   0
                l(2) =   0
                l(3) =   1
                l(4) =   1
                l(5) =   2
                l(6) =   2
                l(7) =   3
                l(8) =   3

     PseudoPot. # 2 for O  read from file:
     /cluster/scratch/mnoe/QE/pps/O_ONCV_LDA-3.0.upf
     MD5 check sum: a1bd6164e7280c17a38c229939bfbd54
     Pseudo is Norm-conserving + core correction, Zval =  6.0
     Generated using ONCVPSP code by D. R. Hamann
     Using radial grid of  926 points,  5 beta functions with:
                l(1) =   0
                l(2) =   0
                l(3) =   1
                l(4) =   1
                l(5) =   2

     atomic species   valence    mass     pseudopotential
        W             28.00   183.84000     W ( 1.00)
        O              6.00    15.99940     O ( 1.00)

      8 Sym. Ops., with inversion, found ( 6 have fractional translation)

   Cartesian axes

     site n.     atom                  positions (alat units)
         1           W   tau(   1) = (   0.2342800   0.3046150   0.0148500  )
         2           W   tau(   2) = (   0.7657200   0.7535451   0.9851500  )
         3           W   tau(   3) = (   0.2657200   0.2244651   0.5148500  )
         4           W   tau(   4) = (   0.7342800   0.8336950   0.4851500  )
         5           W   tau(   5) = (   0.7657200   0.3046150   0.4851500  )
         6           W   tau(   6) = (   0.2342800   0.7535451   0.5148500  )
         7           W   tau(   7) = (   0.7342800   0.2244651   0.9851500  )
         8           W   tau(   8) = (   0.2657200   0.8336950   0.0148500  )
         9           O   tau(   9) = (   0.2209900   0.0208422   0.0046200  )
        10           O   tau(  10) = (   0.7790100   1.0373179   0.9953800  )
        11           O   tau(  11) = (   0.2790100   0.5082378   0.5046200  )
        12           O   tau(  12) = (   0.7209900   0.5499222   0.4953800  )
        13           O   tau(  13) = (   0.7790100   0.0208422   0.4953800  )
        14           O   tau(  14) = (   0.2209900   1.0373179   0.5046200  )
        15           O   tau(  15) = (   0.7209900   0.5082378   0.9953800  )
        16           O   tau(  16) = (   0.2790100   0.5499222   0.0046200  )
        17           O   tau(  17) = (   0.5043000   0.2330492   0.4806160  )
        18           O   tau(  18) = (   0.4957000   0.8251109   0.5193840  )
        19           O   tau(  19) = (   0.9957000   0.2960309   0.9806160  )
        20           O   tau(  20) = (   0.0043000   0.7621292   0.0193840  )
        21           O   tau(  21) = (   0.4957000   0.2330492   0.0193840  )
        22           O   tau(  22) = (   0.5043000   0.8251109   0.9806160  )
        23           O   tau(  23) = (   0.0043000   0.2960309   0.5193840  )
        24           O   tau(  24) = (   0.9957000   0.7621292   0.4806160  )
        25           O   tau(  25) = (   0.7306161   0.2576620   0.7434800  )
        26           O   tau(  26) = (   0.2693840   0.8004981   0.2565200  )
        27           O   tau(  27) = (   0.7693840   0.2714181   0.2434800  )
        28           O   tau(  28) = (   0.2306160   0.7867420   0.7565200  )
        29           O   tau(  29) = (   0.2693840   0.2576620   0.7565200  )
        30           O   tau(  30) = (   0.7306161   0.8004981   0.2434800  )
        31           O   tau(  31) = (   0.2306160   0.2714181   0.2565200  )
        32           O   tau(  32) = (   0.7693840   0.7867420   0.7434800  )

     number of k points=    64  gaussian smearing, width (Ry)=  0.0007
                       cart. coord. in units 2pi/alat
        k(    1) = (   0.0000000   0.0000000   0.0000000), wk =   0.0092593
        k(    2) = (   0.0000000   0.0000000   0.1666667), wk =   0.0185185
        k(    3) = (   0.0000000   0.0000000   0.3333333), wk =   0.0185185
        k(    4) = (   0.0000000   0.0000000  -0.5000000), wk =   0.0092593
        k(    5) = (   0.0000000   0.1575061   0.0000000), wk =   0.0185185
        k(    6) = (   0.0000000   0.1575061   0.1666667), wk =   0.0370370
        k(    7) = (   0.0000000   0.1575061   0.3333333), wk =   0.0370370
        k(    8) = (   0.0000000   0.1575061  -0.5000000), wk =   0.0185185
        k(    9) = (   0.0000000   0.3150122   0.0000000), wk =   0.0185185
        k(   10) = (   0.0000000   0.3150122   0.1666667), wk =   0.0370370
        k(   11) = (   0.0000000   0.3150122   0.3333333), wk =   0.0370370
        k(   12) = (   0.0000000   0.3150122  -0.5000000), wk =   0.0185185
        k(   13) = (   0.0000000  -0.4725183   0.0000000), wk =   0.0092593
        k(   14) = (   0.0000000  -0.4725183   0.1666667), wk =   0.0185185
        k(   15) = (   0.0000000  -0.4725183   0.3333333), wk =   0.0185185
        k(   16) = (   0.0000000  -0.4725183  -0.5000000), wk =   0.0092593
        k(   17) = (   0.1666667   0.0000000   0.1666667), wk =   0.0370370
        k(   18) = (   0.1666667   0.0000000   0.3333333), wk =   0.0370370
        k(   19) = (   0.1666667   0.0000000  -0.5000000), wk =   0.0185185
        k(   20) = (   0.1666667   0.1575061   0.1666667), wk =   0.0740741
        k(   21) = (   0.1666667   0.1575061   0.3333333), wk =   0.0740741
        k(   22) = (   0.1666667   0.1575061  -0.5000000), wk =   0.0370370
        k(   23) = (   0.1666667   0.3150122   0.1666667), wk =   0.0740741
        k(   24) = (   0.1666667   0.3150122   0.3333333), wk =   0.0740741
        k(   25) = (   0.1666667   0.3150122  -0.5000000), wk =   0.0370370
        k(   26) = (   0.1666667  -0.4725183   0.1666667), wk =   0.0370370
        k(   27) = (   0.1666667  -0.4725183   0.3333333), wk =   0.0370370
        k(   28) = (   0.1666667  -0.4725183  -0.5000000), wk =   0.0185185
        k(   29) = (   0.3333333   0.0000000   0.3333333), wk =   0.0370370
        k(   30) = (   0.3333333   0.0000000  -0.5000000), wk =   0.0185185
        k(   31) = (   0.3333333   0.1575061   0.3333333), wk =   0.0740741
        k(   32) = (   0.3333333   0.1575061  -0.5000000), wk =   0.0370370
        k(   33) = (   0.3333333   0.3150122   0.3333333), wk =   0.0740741
        k(   34) = (   0.3333333   0.3150122  -0.5000000), wk =   0.0370370
        k(   35) = (   0.3333333  -0.4725183   0.3333333), wk =   0.0370370
        k(   36) = (   0.3333333  -0.4725183  -0.5000000), wk =   0.0185185
        k(   37) = (  -0.5000000   0.0000000  -0.5000000), wk =   0.0092593
        k(   38) = (  -0.5000000   0.1575061  -0.5000000), wk =   0.0185185
        k(   39) = (  -0.5000000   0.3150122  -0.5000000), wk =   0.0185185
        k(   40) = (  -0.5000000  -0.4725183  -0.5000000), wk =   0.0092593
        k(   41) = (   0.1666667   0.0000000   0.0000000), wk =   0.0185185
        k(   42) = (   0.3333333   0.0000000   0.0000000), wk =   0.0185185
        k(   43) = (  -0.5000000   0.0000000   0.0000000), wk =   0.0092593
        k(   44) = (   0.1666667  -0.1575061   0.0000000), wk =   0.0370370
        k(   45) = (   0.3333333  -0.1575061   0.0000000), wk =   0.0370370
        k(   46) = (  -0.5000000  -0.1575061   0.0000000), wk =   0.0185185
        k(   47) = (   0.1666667  -0.3150122   0.0000000), wk =   0.0370370
        k(   48) = (   0.3333333  -0.3150122   0.0000000), wk =   0.0370370
        k(   49) = (  -0.5000000  -0.3150122   0.0000000), wk =   0.0185185
        k(   50) = (   0.1666667   0.4725183   0.0000000), wk =   0.0185185
        k(   51) = (   0.3333333   0.4725183   0.0000000), wk =   0.0185185
        k(   52) = (  -0.5000000   0.4725183   0.0000000), wk =   0.0092593
        k(   53) = (   0.3333333   0.0000000   0.1666667), wk =   0.0370370
        k(   54) = (  -0.5000000   0.0000000   0.1666667), wk =   0.0185185
        k(   55) = (   0.3333333  -0.1575061   0.1666667), wk =   0.0740741
        k(   56) = (  -0.5000000  -0.1575061   0.1666667), wk =   0.0370370
        k(   57) = (   0.3333333  -0.3150122   0.1666667), wk =   0.0740741
        k(   58) = (  -0.5000000  -0.3150122   0.1666667), wk =   0.0370370
        k(   59) = (   0.3333333   0.4725183   0.1666667), wk =   0.0370370
        k(   60) = (  -0.5000000   0.4725183   0.1666667), wk =   0.0185185
        k(   61) = (  -0.5000000   0.0000000   0.3333333), wk =   0.0185185
        k(   62) = (  -0.5000000  -0.1575061   0.3333333), wk =   0.0370370
        k(   63) = (  -0.5000000  -0.3150122   0.3333333), wk =   0.0370370
        k(   64) = (  -0.5000000   0.4725183   0.3333333), wk =   0.0185185

     Initial potential from superposition of free atoms

     starting charge  367.99656, renormalised to  368.00000
     Starting wfc are  232 randomized atomic wfcs

     Self-consistent Calculation

     iteration #  1     ecut=   120.00 Ry     beta= 0.70
     Davidson diagonalization with overlap
     ethr =  1.00E-02,  avg # of iterations =  5.3

     total energy              =   -6253.91761591 Ry
     Harris-Foulkes estimate   =   -6264.49792928 Ry
     estimated scf accuracy    <      13.41112469 Ry

[...]

     End of self-consistent calculation

[...]
End final coordinates

     A final scf calculation at the relaxed structure.
     The G-vectors are recalculated for the final unit cell
     Results may differ from those at the preceding step.

     bravais-lattice index     =            0
     lattice parameter (alat)  =      13.8397  a.u.
     unit-cell volume          =    2828.1905 (a.u.)^3
     number of atoms/cell      =           32
     number of atomic types    =            2
     number of electrons       =       368.00
     number of Kohn-Sham states=          221
     kinetic-energy cutoff     =     120.0000  Ry
     charge density cutoff     =     480.0000  Ry
     convergence threshold     =      1.0E-10
     mixing beta               =       0.7000
     number of iterations used =            8  plain     mixing
     Exchange-correlation      = SLA PW NOGX NOGC ( 1  4  0  0 0 0)

     celldm(1)=  13.839685  celldm(2)=   0.000000  celldm(3)=   0.000000
     celldm(4)=   0.000000  celldm(5)=   0.000000  celldm(6)=   0.000000

     crystal axes: (cart. coord. in units of alat)
               a(1) = (   1.015272   0.000000   0.000000 )
               a(2) = (   0.000000   1.034370   0.000000 )
               a(3) = (   0.000000   0.000000   1.015948 )

     reciprocal axes: (cart. coord. in units 2 pi/alat)
               b(1) = (  0.984957  0.000000  0.000000 )
               b(2) = (  0.000000  0.966772  0.000000 )
               b(3) = (  0.000000  0.000000  0.984302 )

     PseudoPot. # 1 for W  read from file:
     /cluster/scratch/mnoe/QE/pps/W_ONCV_LDA-4.0.upf
     MD5 check sum: ba0307d5d4cd419d6f1d13dc49d7c13a
     Pseudo is Norm-conserving + core correction, Zval = 28.0
     Generated using ONCVPSP code by D. R. Hamann
     Using radial grid of 1380 points,  8 beta functions with:
                l(1) =   0
                l(2) =   0
                l(3) =   1
                l(4) =   1
                l(5) =   2
                l(6) =   2
                l(7) =   3
                l(8) =   3

     PseudoPot. # 2 for O  read from file:
     /cluster/scratch/mnoe/QE/pps/O_ONCV_LDA-3.0.upf
     MD5 check sum: a1bd6164e7280c17a38c229939bfbd54
     Pseudo is Norm-conserving + core correction, Zval =  6.0
     Generated using ONCVPSP code by D. R. Hamann
     Using radial grid of  926 points,  5 beta functions with:
                l(1) =   0
                l(2) =   0
                l(3) =   1
                l(4) =   1
                l(5) =   2

     atomic species   valence    mass     pseudopotential
        W             28.00   183.84000     W ( 1.00)
        O              6.00    15.99940     O ( 1.00)

      8 Sym. Ops., with inversion, found ( 6 have fractional translation)

   Cartesian axes

     site n.     atom                  positions (alat units)
         1           W   tau(   1) = (   0.2378580   0.2977664   0.0150868  )
         2           W   tau(   2) = (   0.7774144   0.7366034   1.0008615  )
         3           W   tau(   3) = (   0.2697782   0.2194185   0.5230610  )
         4           W   tau(   4) = (   0.7454941   0.8149513   0.4928873  )
         5           W   tau(   5) = (   0.7774144   0.2977664   0.4928873  )
         6           W   tau(   6) = (   0.2378580   0.7366034   0.5230610  )
         7           W   tau(   7) = (   0.7454941   0.2194185   1.0008615  )
         8           W   tau(   8) = (   0.2697782   0.8149513   0.0150868  )
         9           O   tau(   9) = (   0.2243650   0.0203736   0.0046937  )
        10           O   tau(  10) = (   0.7909073   1.0139963   1.0112546  )
        11           O   tau(  11) = (   0.2832711   0.4968113   0.5126678  )
        12           O   tau(  12) = (   0.7320012   0.5375585   0.5032805  )
        13           O   tau(  13) = (   0.7909073   0.0203736   0.5032805  )
        14           O   tau(  14) = (   0.2243650   1.0139963   0.5126678  )
        15           O   tau(  15) = (   0.7320012   0.4968113   1.0112546  )
        16           O   tau(  16) = (   0.2832711   0.5375585   0.0046937  )
        17           O   tau(  17) = (   0.5120018   0.2278096   0.4882810  )
        18           O   tau(  18) = (   0.5032705   0.8065602   0.5276673  )
        19           O   tau(  19) = (   1.0109067   0.2893753   0.9962552  )
        20           O   tau(  20) = (   0.0043657   0.7449945   0.0196932  )
        21           O   tau(  21) = (   0.5032705   0.2278096   0.0196932  )
        22           O   tau(  22) = (   0.5120018   0.8065602   0.9962552  )
        23           O   tau(  23) = (   0.0043657   0.2893753   0.5276673  )
        24           O   tau(  24) = (   1.0109067   0.7449945   0.4882810  )
        25           O   tau(  25) = (   0.7417743   0.2518691   0.7553373  )
        26           O   tau(  26) = (   0.2734981   0.7825008   0.2606110  )
        27           O   tau(  27) = (   0.7811343   0.2653159   0.2473631  )
        28           O   tau(  28) = (   0.2341381   0.7690540   0.7685852  )
        29           O   tau(  29) = (   0.2734981   0.2518691   0.7685852  )
        30           O   tau(  30) = (   0.7417743   0.7825008   0.2473631  )
        31           O   tau(  31) = (   0.2341381   0.2653159   0.2606110  )
        32           O   tau(  32) = (   0.7811343   0.7690540   0.7553373  )

     number of k points=    64  gaussian smearing, width (Ry)=  0.0007
                       cart. coord. in units 2pi/alat
        k(    1) = (   0.0000000   0.0000000   0.0000000), wk =   0.0092593
        k(    2) = (   0.0000000   0.0000000   0.1640503), wk =   0.0185185
        k(    3) = (   0.0000000   0.0000000   0.3281007), wk =   0.0185185
        k(    4) = (   0.0000000   0.0000000  -0.4921510), wk =   0.0092593
        k(    5) = (   0.0000000   0.1611287   0.0000000), wk =   0.0185185
        k(    6) = (   0.0000000   0.1611287   0.1640503), wk =   0.0370370
        k(    7) = (   0.0000000   0.1611287   0.3281007), wk =   0.0370370
        k(    8) = (   0.0000000   0.1611287  -0.4921510), wk =   0.0185185
        k(    9) = (   0.0000000   0.3222574   0.0000000), wk =   0.0185185
        k(   10) = (   0.0000000   0.3222574   0.1640503), wk =   0.0370370
        k(   11) = (   0.0000000   0.3222574   0.3281007), wk =   0.0370370
        k(   12) = (   0.0000000   0.3222574  -0.4921510), wk =   0.0185185
        k(   13) = (   0.0000000  -0.4833861   0.0000000), wk =   0.0092593
        k(   14) = (   0.0000000  -0.4833861   0.1640503), wk =   0.0185185
        k(   15) = (   0.0000000  -0.4833861   0.3281007), wk =   0.0185185
        k(   16) = (   0.0000000  -0.4833861  -0.4921510), wk =   0.0092593
        k(   17) = (   0.1641596   0.0000000   0.1640503), wk =   0.0370370
        k(   18) = (   0.1641596   0.0000000   0.3281007), wk =   0.0370370
        k(   19) = (   0.1641596   0.0000000  -0.4921510), wk =   0.0185185
        k(   20) = (   0.1641596   0.1611287   0.1640503), wk =   0.0740741
        k(   21) = (   0.1641596   0.1611287   0.3281007), wk =   0.0740741
        k(   22) = (   0.1641596   0.1611287  -0.4921510), wk =   0.0370370
        k(   23) = (   0.1641596   0.3222574   0.1640503), wk =   0.0740741
        k(   24) = (   0.1641596   0.3222574   0.3281007), wk =   0.0740741
        k(   25) = (   0.1641596   0.3222574  -0.4921510), wk =   0.0370370
        k(   26) = (   0.1641596  -0.4833861   0.1640503), wk =   0.0370370
        k(   27) = (   0.1641596  -0.4833861   0.3281007), wk =   0.0370370
        k(   28) = (   0.1641596  -0.4833861  -0.4921510), wk =   0.0185185
        k(   29) = (   0.3283191   0.0000000   0.3281007), wk =   0.0370370
        k(   30) = (   0.3283191   0.0000000  -0.4921510), wk =   0.0185185
        k(   31) = (   0.3283191   0.1611287   0.3281007), wk =   0.0740741
        k(   32) = (   0.3283191   0.1611287  -0.4921510), wk =   0.0370370
        k(   33) = (   0.3283191   0.3222574   0.3281007), wk =   0.0740741
        k(   34) = (   0.3283191   0.3222574  -0.4921510), wk =   0.0370370
        k(   35) = (   0.3283191  -0.4833861   0.3281007), wk =   0.0370370
        k(   36) = (   0.3283191  -0.4833861  -0.4921510), wk =   0.0185185
        k(   37) = (  -0.4924787   0.0000000  -0.4921510), wk =   0.0092593
        k(   38) = (  -0.4924787   0.1611287  -0.4921510), wk =   0.0185185
        k(   39) = (  -0.4924787   0.3222574  -0.4921510), wk =   0.0185185
        k(   40) = (  -0.4924787  -0.4833861  -0.4921510), wk =   0.0092593
        k(   41) = (   0.1641596   0.0000000   0.0000000), wk =   0.0185185
        k(   42) = (   0.3283191   0.0000000   0.0000000), wk =   0.0185185
        k(   43) = (  -0.4924787   0.0000000   0.0000000), wk =   0.0092593
        k(   44) = (   0.1641596  -0.1611287   0.0000000), wk =   0.0370370
        k(   45) = (   0.3283191  -0.1611287   0.0000000), wk =   0.0370370
        k(   46) = (  -0.4924787  -0.1611287   0.0000000), wk =   0.0185185
        k(   47) = (   0.1641596  -0.3222574   0.0000000), wk =   0.0370370
        k(   48) = (   0.3283191  -0.3222574   0.0000000), wk =   0.0370370
        k(   49) = (  -0.4924787  -0.3222574   0.0000000), wk =   0.0185185
        k(   50) = (   0.1641596   0.4833861   0.0000000), wk =   0.0185185
        k(   51) = (   0.3283191   0.4833861   0.0000000), wk =   0.0185185
        k(   52) = (  -0.4924787   0.4833861   0.0000000), wk =   0.0092593
        k(   53) = (   0.3283191   0.0000000   0.1640503), wk =   0.0370370
        k(   54) = (  -0.4924787   0.0000000   0.1640503), wk =   0.0185185
        k(   55) = (   0.3283191  -0.1611287   0.1640503), wk =   0.0740741
        k(   56) = (  -0.4924787  -0.1611287   0.1640503), wk =   0.0370370
        k(   57) = (   0.3283191  -0.3222574   0.1640503), wk =   0.0740741
        k(   58) = (  -0.4924787  -0.3222574   0.1640503), wk =   0.0370370
        k(   59) = (   0.3283191   0.4833861   0.1640503), wk =   0.0370370
        k(   60) = (  -0.4924787   0.4833861   0.1640503), wk =   0.0185185
        k(   61) = (  -0.4924787   0.0000000   0.3281007), wk =   0.0185185
        k(   62) = (  -0.4924787  -0.1611287   0.3281007), wk =   0.0370370
        k(   63) = (  -0.4924787  -0.3222574   0.3281007), wk =   0.0370370
        k(   64) = (  -0.4924787   0.4833861   0.3281007), wk =   0.0185185

     Initial potential from superposition of free atoms

     starting charge  367.99656, renormalised to  368.00000
     Starting wfc are  232 randomized atomic wfcs

     Writing output data file Landau_34.save

     Self-consistent Calculation

[...]

     total energy              =   -6261.07419823 Ry
     Harris-Foulkes estimate   =   -6261.07419823 Ry
     estimated scf accuracy    <          3.3E-10 Ry

     iteration # 15     ecut=   120.00 Ry     beta= 0.70
     Davidson diagonalization with overlap
     ethr =  1.00E-13,  avg # of iterations =  2.0

     End of self-consistent calculation

[...]

          k = 0.3283 0.4834 0.1641 ( 62810 PWs)   bands (ev):

[...]

          k =-0.4925 0.4834 0.3281 ( 62728 PWs)   bands (ev):

   -66.2718 -66.2718 -66.2718 -66.2718 -66.2715 -66.2715 -66.2715 -66.2715
   -30.6213 -30.6213 -30.6211 -30.6211 -30.6152 -30.6152 -30.6136 -30.6136
   -30.6133 -30.6132 -30.6117 -30.6117 -30.5886 -30.5886 -30.5876 -30.5876
   -30.5614 -30.5614 -30.5594 -30.5594 -30.5491 -30.5491 -30.5480 -30.5480
   -20.4408 -20.4408 -20.4408 -20.4408 -20.4402 -20.4402 -20.4402 -20.4402
   -20.4260 -20.4259 -20.4259 -20.4259 -20.4257 -20.4257 -20.4257 -20.4257
   -20.4124 -20.4124 -20.4124 -20.4124 -20.4117 -20.4117 -20.4117 -20.4117
   -20.4040 -20.4040 -20.4038 -20.4038 -20.4037 -20.4037 -20.4035 -20.4035
   -20.3958 -20.3958 -20.3957 -20.3957 -20.3950 -20.3950 -20.3949 -20.3949
   -20.3928 -20.3928 -20.3927 -20.3927 -20.3918 -20.3918 -20.3918 -20.3918
   -20.3785 -20.3785 -20.3785 -20.3785 -20.3779 -20.3779 -20.3779 -20.3779
    -9.3164  -9.3164  -9.2961  -9.2961  -8.9596  -8.9596  -8.9091  -8.9091
    -8.6426  -8.6426  -8.6016  -8.6016  -8.4740  -8.4740  -8.4571  -8.4571
    -8.3979  -8.3979  -8.3913  -8.3913  -8.2328  -8.2328  -8.2301  -8.2301
     2.0916   2.0916   2.1084   2.1084   2.7953   2.7953   2.8221   2.8221
     2.8515   2.8515   2.9051   2.9051   3.0246   3.0246   3.1016   3.1016
     3.3024   3.3024   3.3479   3.3479   3.4369   3.4369   3.4803   3.4803
     3.7012   3.7012   3.8641   3.8641   4.2081   4.2081   4.2186   4.2186
     4.2765   4.2765   4.2880   4.2880   4.4294   4.4294   4.5035   4.5035
     4.6168   4.6168   4.7607   4.7607   4.9102   4.9102   4.9211   4.9211
     6.8950   6.8950   6.9801   6.9801   6.9996   6.9996   7.0483   7.0483
     7.1352   7.1352   7.2130   7.2131   7.3104   7.3105   7.3959   7.3959
     7.4361   7.4361   7.4915   7.4915   7.5423   7.5423   7.5969   7.5969
    11.4096  11.4096  11.4772  11.4772  11.5713  11.5713  11.6929  11.6929
    12.0853  12.0853  12.2016  12.2016  12.2642  12.2642  12.3436  12.3436
    12.4639  12.4639  12.6156  12.6156  12.7731  12.7731  12.8437  12.8437
    16.1320  16.1320  16.1940  16.1940  16.6892  16.6892  16.8981  16.8982
    17.1349  17.1349  17.1824  17.1825  17.2921

     the Fermi energy is     8.7919 ev

!    total energy              =   -6261.07419823 Ry
     Harris-Foulkes estimate   =   -6261.07419823 Ry
     estimated scf accuracy    <          6.0E-12 Ry

     The total energy is the sum of the following terms:

     one-electron contribution =   -4747.56074361 Ry
     hartree contribution      =    2609.08833578 Ry
     xc contribution           =    -965.69167899 Ry
     ewald contribution        =   -3156.91011142 Ry
     smearing contrib. (-TS)   =      -0.00000000 Ry

     convergence has been achieved in  15 iterations

     Forces acting on atoms (cartesian axes, Ry/au):

     atom    1 type  1   force =     0.00743058    0.00208176    0.00067162
     atom    2 type  1   force =    -0.00743058   -0.00208176   -0.00067162
     atom    3 type  1   force =    -0.00743058   -0.00208176    0.00067162
     atom    4 type  1   force =     0.00743058    0.00208176   -0.00067162
     atom    5 type  1   force =    -0.00743058    0.00208176   -0.00067162
     atom    6 type  1   force =     0.00743058   -0.00208176    0.00067162
     atom    7 type  1   force =     0.00743058   -0.00208176   -0.00067162
     atom    8 type  1   force =    -0.00743058    0.00208176    0.00067162
     atom    9 type  2   force =     0.00487831   -0.04860700    0.00152406
     atom   10 type  2   force =    -0.00487831    0.04860700   -0.00152406
     atom   11 type  2   force =    -0.00487831    0.04860700    0.00152406
     atom   12 type  2   force =     0.00487831   -0.04860700   -0.00152406
     atom   13 type  2   force =    -0.00487831   -0.04860700   -0.00152406
     atom   14 type  2   force =     0.00487831    0.04860700    0.00152406
     atom   15 type  2   force =     0.00487831    0.04860700   -0.00152406
     atom   16 type  2   force =    -0.00487831   -0.04860700    0.00152406
     atom   17 type  2   force =     0.00602993   -0.00483366   -0.00080021
     atom   18 type  2   force =    -0.00602993    0.00483366    0.00080021
     atom   19 type  2   force =    -0.00602993    0.00483366   -0.00080021
     atom   20 type  2   force =     0.00602993   -0.00483366    0.00080021
     atom   21 type  2   force =    -0.00602993   -0.00483366    0.00080021
     atom   22 type  2   force =     0.00602993    0.00483366   -0.00080021
     atom   23 type  2   force =     0.00602993    0.00483366    0.00080021
     atom   24 type  2   force =    -0.00602993   -0.00483366   -0.00080021
     atom   25 type  2   force =    -0.00279816    0.00171747    0.00296694
     atom   26 type  2   force =     0.00279816   -0.00171747   -0.00296694
     atom   27 type  2   force =     0.00279816   -0.00171747    0.00296694
     atom   28 type  2   force =    -0.00279816    0.00171747   -0.00296694
     atom   29 type  2   force =     0.00279816    0.00171747   -0.00296694
     atom   30 type  2   force =    -0.00279816   -0.00171747    0.00296694
     atom   31 type  2   force =    -0.00279816   -0.00171747   -0.00296694
     atom   32 type  2   force =     0.00279816    0.00171747    0.00296694

     Total force =     0.000000     Total SCF correction =     0.000000

     Computing stress (Cartesian axis) and pressure

          total   stress  (Ry/bohr**3)                   (kbar)     P=    0.65
   0.00000694   0.00000000   0.00000000          1.02      0.00      0.00
   0.00000000  -0.00000094   0.00000000          0.00     -0.14      0.00
   0.00000000   0.00000000   0.00000725          0.00      0.00      1.07

     Writing output data file Landau_34.save

     General routines

     Parallel routines

   This run was terminated on:  20:28:45   5Mar2020

   JOB DONE.