     Program PWSCF v.6.2 (svn rev. 14038) starts on 30Apr2019 at 19:21: 2

     K-points division:     npool     =      64
     Reading input from rscf.in

     Current dimensions of program PWSCF are:
     Max number of different atomic species (ntypx) = 10
     Max number of k-points (npk) =  40000
     Max angular momentum in pseudopotentials (lmaxx) =  3

     Subspace diagonalization in iterative solution of the eigenvalue problem:
     a serial algorithm will be used

     bravais-lattice index     =            0
     lattice parameter (alat)  =      13.8397  a.u.
     unit-cell volume          =    2804.9816 (a.u.)^3
     number of atoms/cell      =           32
     number of atomic types    =            2
     number of electrons       =       368.00
     number of Kohn-Sham states=          221
     kinetic-energy cutoff     =     120.0000  Ry
     charge density cutoff     =     480.0000  Ry
     convergence threshold     =      1.0E-08
     mixing beta               =       0.7000
     number of iterations used =            8  plain     mixing
     Exchange-correlation      = SLA PW NOGX NOGC ( 1  4  0  0 0 0)
     nstep                     =           50

     celldm(1)=  13.839685  celldm(2)=   0.000000  celldm(3)=   0.000000
     celldm(4)=   0.000000  celldm(5)=   0.000000  celldm(6)=   0.000000

     crystal axes: (cart. coord. in units of alat)
               a(1) = (   1.000000   0.000000   0.000000 )
               a(2) = (   0.000000   1.058160   0.000000 )
               a(3) = (   0.000000   0.000000   1.000000 )

     reciprocal axes: (cart. coord. in units 2 pi/alat)
               b(1) = (  1.000000  0.000000  0.000000 )
               b(2) = (  0.000000  0.945037  0.000000 )
               b(3) = (  0.000000  0.000000  1.000000 )

     PseudoPot. # 1 for W  read from file:
     /cluster/scratch/mnoe/QE/pps/W_ONCV_LDA-4.0.upf
     MD5 check sum: ba0307d5d4cd419d6f1d13dc49d7c13a
     Pseudo is Norm-conserving + core correction, Zval = 28.0
     Generated using ONCVPSP code by D. R. Hamann
     Using radial grid of 1380 points,  8 beta functions with:
                l(1) =   0
                l(2) =   0
                l(3) =   1
                l(4) =   1
                l(5) =   2
                l(6) =   2
                l(7) =   3
                l(8) =   3

     PseudoPot. # 2 for O  read from file:
     /cluster/scratch/mnoe/QE/pps/O_ONCV_LDA-3.0.upf
     MD5 check sum: a1bd6164e7280c17a38c229939bfbd54
     Pseudo is Norm-conserving + core correction, Zval =  6.0
     Generated using ONCVPSP code by D. R. Hamann
     Using radial grid of  926 points,  5 beta functions with:
                l(1) =   0
                l(2) =   0
                l(3) =   1
                l(4) =   1
                l(5) =   2

     atomic species   valence    mass     pseudopotential
        W             28.00   183.84000     W ( 1.00)
        O              6.00    15.99940     O ( 1.00)

      8 Sym. Ops., with inversion, found ( 6 have fractional translation)

   Cartesian axes

     site n.     atom                  positions (alat units)
         1           W   tau(   1) = (   0.2458400   0.2982530   0.0039300  )
         2           W   tau(   2) = (   0.7541600   0.7599071   0.9960700  )
         3           W   tau(   3) = (   0.2541600   0.2308271   0.5039300  )
         4           W   tau(   4) = (   0.7458400   0.8273330   0.4960700  )
         5           W   tau(   5) = (   0.7541600   0.2982530   0.4960700  )
         6           W   tau(   6) = (   0.2458400   0.7599071   0.5039300  )
         7           W   tau(   7) = (   0.7458400   0.2308271   0.9960700  )
         8           W   tau(   8) = (   0.2541600   0.8273330   0.0039300  )
         9           O   tau(   9) = (   0.2423200   0.0088039   0.0012200  )
        10           O   tau(  10) = (   0.7576800   1.0493562   0.9987800  )
        11           O   tau(  11) = (   0.2576800   0.5202761   0.5012200  )
        12           O   tau(  12) = (   0.7423200   0.5378839   0.4987800  )
        13           O   tau(  13) = (   0.7576800   0.0088039   0.4987800  )
        14           O   tau(  14) = (   0.2423200   1.0493562   0.5012200  )
        15           O   tau(  15) = (   0.7423200   0.5202761   0.9987800  )
        16           O   tau(  16) = (   0.2576800   0.5378839   0.0012200  )
        17           O   tau(  17) = (   0.5011400   0.2562017   0.4495400  )
        18           O   tau(  18) = (   0.4988600   0.8019583   0.5504600  )
        19           O   tau(  19) = (   0.9988600   0.2728783   0.9495400  )
        20           O   tau(  20) = (   0.0011400   0.7852818   0.0504600  )
        21           O   tau(  21) = (   0.4988600   0.2562017   0.0504600  )
        22           O   tau(  22) = (   0.5011400   0.8019583   0.9495400  )
        23           O   tau(  23) = (   0.0011400   0.2728783   0.5504600  )
        24           O   tau(  24) = (   0.9988600   0.7852818   0.4495400  )
        25           O   tau(  25) = (   0.6995400   0.2627200   0.7482700  )
        26           O   tau(  26) = (   0.3004600   0.7954401   0.2517300  )
        27           O   tau(  27) = (   0.8004600   0.2663601   0.2482700  )
        28           O   tau(  28) = (   0.1995400   0.7918000   0.7517300  )
        29           O   tau(  29) = (   0.3004600   0.2627200   0.7517300  )
        30           O   tau(  30) = (   0.6995400   0.7954401   0.2482700  )
        31           O   tau(  31) = (   0.1995400   0.2663601   0.2517300  )
        32           O   tau(  32) = (   0.8004600   0.7918000   0.7482700  )

     number of k points=    64  gaussian smearing, width (Ry)=  0.0007
                       cart. coord. in units 2pi/alat
        k(    1) = (   0.0000000   0.0000000   0.0000000), wk =   0.0092593
        k(    2) = (   0.0000000   0.0000000   0.1666667), wk =   0.0185185
        k(    3) = (   0.0000000   0.0000000   0.3333333), wk =   0.0185185
        k(    4) = (   0.0000000   0.0000000  -0.5000000), wk =   0.0092593
        k(    5) = (   0.0000000   0.1575061   0.0000000), wk =   0.0185185
        k(    6) = (   0.0000000   0.1575061   0.1666667), wk =   0.0370370
        k(    7) = (   0.0000000   0.1575061   0.3333333), wk =   0.0370370
        k(    8) = (   0.0000000   0.1575061  -0.5000000), wk =   0.0185185
        k(    9) = (   0.0000000   0.3150122   0.0000000), wk =   0.0185185
        k(   10) = (   0.0000000   0.3150122   0.1666667), wk =   0.0370370
        k(   11) = (   0.0000000   0.3150122   0.3333333), wk =   0.0370370
        k(   12) = (   0.0000000   0.3150122  -0.5000000), wk =   0.0185185
        k(   13) = (   0.0000000  -0.4725183   0.0000000), wk =   0.0092593
        k(   14) = (   0.0000000  -0.4725183   0.1666667), wk =   0.0185185
        k(   15) = (   0.0000000  -0.4725183   0.3333333), wk =   0.0185185
        k(   16) = (   0.0000000  -0.4725183  -0.5000000), wk =   0.0092593
        k(   17) = (   0.1666667   0.0000000   0.1666667), wk =   0.0370370
        k(   18) = (   0.1666667   0.0000000   0.3333333), wk =   0.0370370
        k(   19) = (   0.1666667   0.0000000  -0.5000000), wk =   0.0185185
        k(   20) = (   0.1666667   0.1575061   0.1666667), wk =   0.0740741
        k(   21) = (   0.1666667   0.1575061   0.3333333), wk =   0.0740741
        k(   22) = (   0.1666667   0.1575061  -0.5000000), wk =   0.0370370
        k(   23) = (   0.1666667   0.3150122   0.1666667), wk =   0.0740741
        k(   24) = (   0.1666667   0.3150122   0.3333333), wk =   0.0740741
        k(   25) = (   0.1666667   0.3150122  -0.5000000), wk =   0.0370370
        k(   26) = (   0.1666667  -0.4725183   0.1666667), wk =   0.0370370
        k(   27) = (   0.1666667  -0.4725183   0.3333333), wk =   0.0370370
        k(   28) = (   0.1666667  -0.4725183  -0.5000000), wk =   0.0185185
        k(   29) = (   0.3333333   0.0000000   0.3333333), wk =   0.0370370
        k(   30) = (   0.3333333   0.0000000  -0.5000000), wk =   0.0185185
        k(   31) = (   0.3333333   0.1575061   0.3333333), wk =   0.0740741
        k(   32) = (   0.3333333   0.1575061  -0.5000000), wk =   0.0370370
        k(   33) = (   0.3333333   0.3150122   0.3333333), wk =   0.0740741
        k(   34) = (   0.3333333   0.3150122  -0.5000000), wk =   0.0370370
        k(   35) = (   0.3333333  -0.4725183   0.3333333), wk =   0.0370370
        k(   36) = (   0.3333333  -0.4725183  -0.5000000), wk =   0.0185185
        k(   37) = (  -0.5000000   0.0000000  -0.5000000), wk =   0.0092593
        k(   38) = (  -0.5000000   0.1575061  -0.5000000), wk =   0.0185185
        k(   39) = (  -0.5000000   0.3150122  -0.5000000), wk =   0.0185185
        k(   40) = (  -0.5000000  -0.4725183  -0.5000000), wk =   0.0092593
        k(   41) = (   0.1666667   0.0000000   0.0000000), wk =   0.0185185
        k(   42) = (   0.3333333   0.0000000   0.0000000), wk =   0.0185185
        k(   43) = (  -0.5000000   0.0000000   0.0000000), wk =   0.0092593
        k(   44) = (   0.1666667  -0.1575061   0.0000000), wk =   0.0370370
        k(   45) = (   0.3333333  -0.1575061   0.0000000), wk =   0.0370370
        k(   46) = (  -0.5000000  -0.1575061   0.0000000), wk =   0.0185185
        k(   47) = (   0.1666667  -0.3150122   0.0000000), wk =   0.0370370
        k(   48) = (   0.3333333  -0.3150122   0.0000000), wk =   0.0370370
        k(   49) = (  -0.5000000  -0.3150122   0.0000000), wk =   0.0185185
        k(   50) = (   0.1666667   0.4725183   0.0000000), wk =   0.0185185
        k(   51) = (   0.3333333   0.4725183   0.0000000), wk =   0.0185185
        k(   52) = (  -0.5000000   0.4725183   0.0000000), wk =   0.0092593
        k(   53) = (   0.3333333   0.0000000   0.1666667), wk =   0.0370370
        k(   54) = (  -0.5000000   0.0000000   0.1666667), wk =   0.0185185
        k(   55) = (   0.3333333  -0.1575061   0.1666667), wk =   0.0740741
        k(   56) = (  -0.5000000  -0.1575061   0.1666667), wk =   0.0370370
        k(   57) = (   0.3333333  -0.3150122   0.1666667), wk =   0.0740741
        k(   58) = (  -0.5000000  -0.3150122   0.1666667), wk =   0.0370370
        k(   59) = (   0.3333333   0.4725183   0.1666667), wk =   0.0370370
        k(   60) = (  -0.5000000   0.4725183   0.1666667), wk =   0.0185185
        k(   61) = (  -0.5000000   0.0000000   0.3333333), wk =   0.0185185
        k(   62) = (  -0.5000000  -0.1575061   0.3333333), wk =   0.0370370
        k(   63) = (  -0.5000000  -0.3150122   0.3333333), wk =   0.0370370
        k(   64) = (  -0.5000000   0.4725183   0.3333333), wk =   0.0185185

     Initial potential from superposition of free atoms

     starting charge  367.99656, renormalised to  368.00000
     Starting wfc are  232 randomized atomic wfcs

     Self-consistent Calculation

     iteration #  1     ecut=   120.00 Ry     beta= 0.70
     Davidson diagonalization with overlap
     ethr =  1.00E-02,  avg # of iterations =  5.0

     total energy              =   -6253.97629952 Ry
     Harris-Foulkes estimate   =   -6264.58497207 Ry
     estimated scf accuracy    <      13.43185223 Ry

[...]

     End of self-consistent calculation

[...]
End final coordinates

     A final scf calculation at the relaxed structure.
     The G-vectors are recalculated for the final unit cell
     Results may differ from those at the preceding step.

     bravais-lattice index     =            0
     lattice parameter (alat)  =      13.8397  a.u.
     unit-cell volume          =    2802.7044 (a.u.)^3
     number of atoms/cell      =           32
     number of atomic types    =            2
     number of electrons       =       368.00
     number of Kohn-Sham states=          221
     kinetic-energy cutoff     =     120.0000  Ry
     charge density cutoff     =     480.0000  Ry
     convergence threshold     =      1.0E-10
     mixing beta               =       0.7000
     number of iterations used =            8  plain     mixing
     Exchange-correlation      = SLA PW NOGX NOGC ( 1  4  0  0 0 0)

     celldm(1)=  13.839685  celldm(2)=   0.000000  celldm(3)=   0.000000
     celldm(4)=   0.000000  celldm(5)=   0.000000  celldm(6)=   0.000000

     crystal axes: (cart. coord. in units of alat)
               a(1) = (   0.999895   0.000000   0.000000 )
               a(2) = (   0.000000   1.057094   0.000000 )
               a(3) = (   0.000000   0.000000   1.000301 )

     reciprocal axes: (cart. coord. in units 2 pi/alat)
               b(1) = (  1.000106  0.000000  0.000000 )
               b(2) = (  0.000000  0.945989  0.000000 )
               b(3) = (  0.000000  0.000000  0.999699 )

     PseudoPot. # 1 for W  read from file:
     /cluster/scratch/mnoe/QE/pps/W_ONCV_LDA-4.0.upf
     MD5 check sum: ba0307d5d4cd419d6f1d13dc49d7c13a
     Pseudo is Norm-conserving + core correction, Zval = 28.0
     Generated using ONCVPSP code by D. R. Hamann
     Using radial grid of 1380 points,  8 beta functions with:
                l(1) =   0
                l(2) =   0
                l(3) =   1
                l(4) =   1
                l(5) =   2
                l(6) =   2
                l(7) =   3
                l(8) =   3

     PseudoPot. # 2 for O  read from file:
     /cluster/scratch/mnoe/QE/pps/O_ONCV_LDA-3.0.upf
     MD5 check sum: a1bd6164e7280c17a38c229939bfbd54
     Pseudo is Norm-conserving + core correction, Zval =  6.0
     Generated using ONCVPSP code by D. R. Hamann
     Using radial grid of  926 points,  5 beta functions with:
                l(1) =   0
                l(2) =   0
                l(3) =   1
                l(4) =   1
                l(5) =   2

     atomic species   valence    mass     pseudopotential
        W             28.00   183.84000     W ( 1.00)
        O              6.00    15.99940     O ( 1.00)

      8 Sym. Ops., with inversion, found ( 6 have fractional translation)

   Cartesian axes

     site n.     atom                  positions (alat units)
         1           W   tau(   1) = (   0.2458141   0.2979526   0.0039312  )
         2           W   tau(   2) = (   0.7540804   0.7591417   0.9963699  )
         3           W   tau(   3) = (   0.2541332   0.2305946   0.5040816  )
         4           W   tau(   4) = (   0.7457613   0.8264998   0.4962193  )
         5           W   tau(   5) = (   0.7540804   0.2979526   0.4962193  )
         6           W   tau(   6) = (   0.2458141   0.7591417   0.5040816  )
         7           W   tau(   7) = (   0.7457613   0.2305946   0.9963699  )
         8           W   tau(   8) = (   0.2541332   0.8264998   0.0039312  )
         9           O   tau(   9) = (   0.2422944   0.0087950   0.0012204  )
        10           O   tau(  10) = (   0.7576001   1.0482994   0.9990806  )
        11           O   tau(  11) = (   0.2576528   0.5197521   0.5013709  )
        12           O   tau(  12) = (   0.7422417   0.5373422   0.4989301  )
        13           O   tau(  13) = (   0.7576001   0.0087950   0.4989301  )
        14           O   tau(  14) = (   0.2422944   1.0482994   0.5013709  )
        15           O   tau(  15) = (   0.7422417   0.5197521   0.9990806  )
        16           O   tau(  16) = (   0.2576528   0.5373422   0.0012204  )
        17           O   tau(  17) = (   0.5010871   0.2559437   0.4496753  )
        18           O   tau(  18) = (   0.4988074   0.8011506   0.5506257  )
        19           O   tau(  19) = (   0.9987546   0.2726035   0.9498259  )
        20           O   tau(  20) = (   0.0011399   0.7844909   0.0504752  )
        21           O   tau(  21) = (   0.4988074   0.2559437   0.0504752  )
        22           O   tau(  22) = (   0.5010871   0.8011506   0.9498259  )
        23           O   tau(  23) = (   0.0011399   0.2726035   0.5506257  )
        24           O   tau(  24) = (   0.9987546   0.7844909   0.4496753  )
        25           O   tau(  25) = (   0.6994662   0.2624554   0.7484952  )
        26           O   tau(  26) = (   0.3004283   0.7946390   0.2518058  )
        27           O   tau(  27) = (   0.8003755   0.2660918   0.2483448  )
        28           O   tau(  28) = (   0.1995190   0.7910025   0.7519563  )
        29           O   tau(  29) = (   0.3004283   0.2624554   0.7519563  )
        30           O   tau(  30) = (   0.6994662   0.7946390   0.2483448  )
        31           O   tau(  31) = (   0.1995190   0.2660918   0.2518058  )
        32           O   tau(  32) = (   0.8003755   0.7910025   0.7484952  )

     number of k points=    64  gaussian smearing, width (Ry)=  0.0007
                       cart. coord. in units 2pi/alat
        k(    1) = (   0.0000000   0.0000000   0.0000000), wk =   0.0092593
        k(    2) = (   0.0000000   0.0000000   0.1666165), wk =   0.0185185
        k(    3) = (   0.0000000   0.0000000   0.3332330), wk =   0.0185185
        k(    4) = (   0.0000000   0.0000000  -0.4998495), wk =   0.0092593
        k(    5) = (   0.0000000   0.1576649   0.0000000), wk =   0.0185185
        k(    6) = (   0.0000000   0.1576649   0.1666165), wk =   0.0370370
        k(    7) = (   0.0000000   0.1576649   0.3332330), wk =   0.0370370
        k(    8) = (   0.0000000   0.1576649  -0.4998495), wk =   0.0185185
        k(    9) = (   0.0000000   0.3153298   0.0000000), wk =   0.0185185
        k(   10) = (   0.0000000   0.3153298   0.1666165), wk =   0.0370370
        k(   11) = (   0.0000000   0.3153298   0.3332330), wk =   0.0370370
        k(   12) = (   0.0000000   0.3153298  -0.4998495), wk =   0.0185185
        k(   13) = (   0.0000000  -0.4729947   0.0000000), wk =   0.0092593
        k(   14) = (   0.0000000  -0.4729947   0.1666165), wk =   0.0185185
        k(   15) = (   0.0000000  -0.4729947   0.3332330), wk =   0.0185185
        k(   16) = (   0.0000000  -0.4729947  -0.4998495), wk =   0.0092593
        k(   17) = (   0.1666843   0.0000000   0.1666165), wk =   0.0370370
        k(   18) = (   0.1666843   0.0000000   0.3332330), wk =   0.0370370
        k(   19) = (   0.1666843   0.0000000  -0.4998495), wk =   0.0185185
        k(   20) = (   0.1666843   0.1576649   0.1666165), wk =   0.0740741
        k(   21) = (   0.1666843   0.1576649   0.3332330), wk =   0.0740741
        k(   22) = (   0.1666843   0.1576649  -0.4998495), wk =   0.0370370
        k(   23) = (   0.1666843   0.3153298   0.1666165), wk =   0.0740741
        k(   24) = (   0.1666843   0.3153298   0.3332330), wk =   0.0740741
        k(   25) = (   0.1666843   0.3153298  -0.4998495), wk =   0.0370370
        k(   26) = (   0.1666843  -0.4729947   0.1666165), wk =   0.0370370
        k(   27) = (   0.1666843  -0.4729947   0.3332330), wk =   0.0370370
        k(   28) = (   0.1666843  -0.4729947  -0.4998495), wk =   0.0185185
        k(   29) = (   0.3333685   0.0000000   0.3332330), wk =   0.0370370
        k(   30) = (   0.3333685   0.0000000  -0.4998495), wk =   0.0185185
        k(   31) = (   0.3333685   0.1576649   0.3332330), wk =   0.0740741
        k(   32) = (   0.3333685   0.1576649  -0.4998495), wk =   0.0370370
        k(   33) = (   0.3333685   0.3153298   0.3332330), wk =   0.0740741
        k(   34) = (   0.3333685   0.3153298  -0.4998495), wk =   0.0370370
        k(   35) = (   0.3333685  -0.4729947   0.3332330), wk =   0.0370370
        k(   36) = (   0.3333685  -0.4729947  -0.4998495), wk =   0.0185185
        k(   37) = (  -0.5000528   0.0000000  -0.4998495), wk =   0.0092593
        k(   38) = (  -0.5000528   0.1576649  -0.4998495), wk =   0.0185185
        k(   39) = (  -0.5000528   0.3153298  -0.4998495), wk =   0.0185185
        k(   40) = (  -0.5000528  -0.4729947  -0.4998495), wk =   0.0092593
        k(   41) = (   0.1666843   0.0000000   0.0000000), wk =   0.0185185
        k(   42) = (   0.3333685   0.0000000   0.0000000), wk =   0.0185185
        k(   43) = (  -0.5000528   0.0000000   0.0000000), wk =   0.0092593
        k(   44) = (   0.1666843  -0.1576649   0.0000000), wk =   0.0370370
        k(   45) = (   0.3333685  -0.1576649   0.0000000), wk =   0.0370370
        k(   46) = (  -0.5000528  -0.1576649   0.0000000), wk =   0.0185185
        k(   47) = (   0.1666843  -0.3153298   0.0000000), wk =   0.0370370
        k(   48) = (   0.3333685  -0.3153298   0.0000000), wk =   0.0370370
        k(   49) = (  -0.5000528  -0.3153298   0.0000000), wk =   0.0185185
        k(   50) = (   0.1666843   0.4729947   0.0000000), wk =   0.0185185
        k(   51) = (   0.3333685   0.4729947   0.0000000), wk =   0.0185185
        k(   52) = (  -0.5000528   0.4729947   0.0000000), wk =   0.0092593
        k(   53) = (   0.3333685   0.0000000   0.1666165), wk =   0.0370370
        k(   54) = (  -0.5000528   0.0000000   0.1666165), wk =   0.0185185
        k(   55) = (   0.3333685  -0.1576649   0.1666165), wk =   0.0740741
        k(   56) = (  -0.5000528  -0.1576649   0.1666165), wk =   0.0370370
        k(   57) = (   0.3333685  -0.3153298   0.1666165), wk =   0.0740741
        k(   58) = (  -0.5000528  -0.3153298   0.1666165), wk =   0.0370370
        k(   59) = (   0.3333685   0.4729947   0.1666165), wk =   0.0370370
        k(   60) = (  -0.5000528   0.4729947   0.1666165), wk =   0.0185185
        k(   61) = (  -0.5000528   0.0000000   0.3332330), wk =   0.0185185
        k(   62) = (  -0.5000528  -0.1576649   0.3332330), wk =   0.0370370
        k(   63) = (  -0.5000528  -0.3153298   0.3332330), wk =   0.0370370
        k(   64) = (  -0.5000528   0.4729947   0.3332330), wk =   0.0185185

     Initial potential from superposition of free atoms

     starting charge  367.99656, renormalised to  368.00000
     Starting wfc are  232 randomized atomic wfcs

     Writing output data file Landau_9.save

     Self-consistent Calculation

[...]

     total energy              =   -6261.11004112 Ry
     Harris-Foulkes estimate   =   -6261.11004112 Ry
     estimated scf accuracy    <          1.6E-10 Ry

     iteration # 15     ecut=   120.00 Ry     beta= 0.70
     Davidson diagonalization with overlap
     ethr =  1.00E-13,  avg # of iterations =  1.0

     End of self-consistent calculation

[...]

          k = 0.3334 0.4730 0.1666 ( 62202 PWs)   bands (ev):

[...]

          k =-0.5001 0.4730 0.3332 ( 62152 PWs)   bands (ev):

   -66.1583 -66.1583 -66.1583 -66.1583 -66.1578 -66.1578 -66.1578 -66.1578
   -30.5233 -30.5233 -30.5230 -30.5230 -30.5212 -30.5212 -30.5209 -30.5209
   -30.4760 -30.4760 -30.4760 -30.4760 -30.4514 -30.4514 -30.4510 -30.4510
   -30.4492 -30.4491 -30.4488 -30.4488 -30.4265 -30.4265 -30.4265 -30.4265
   -20.3192 -20.3192 -20.3192 -20.3192 -20.3191 -20.3191 -20.3191 -20.3191
   -20.2985 -20.2985 -20.2984 -20.2984 -20.2983 -20.2983 -20.2982 -20.2982
   -20.2962 -20.2962 -20.2962 -20.2961 -20.2957 -20.2957 -20.2956 -20.2956
   -20.2952 -20.2952 -20.2952 -20.2952 -20.2949 -20.2949 -20.2949 -20.2949
   -20.2859 -20.2859 -20.2858 -20.2858 -20.2848 -20.2848 -20.2848 -20.2848
   -20.2834 -20.2834 -20.2834 -20.2834 -20.2818 -20.2818 -20.2818 -20.2818
   -20.2810 -20.2810 -20.2809 -20.2809 -20.2795 -20.2795 -20.2795 -20.2795
    -9.1742  -9.1742  -9.1701  -9.1701  -8.7744  -8.7744  -8.7640  -8.7640
    -8.5384  -8.5383  -8.5283  -8.5283  -8.3772  -8.3772  -8.3627  -8.3627
    -8.3263  -8.3263  -8.3143  -8.3142  -8.0969  -8.0969  -8.0957  -8.0957
     2.2736   2.2736   2.2798   2.2798   2.9914   2.9914   3.0207   3.0207
     3.1336   3.1336   3.1417   3.1417   3.2679   3.2679   3.2864   3.2864
     3.3981   3.3981   3.4375   3.4375   3.6388   3.6388   3.6717   3.6717
     3.7761   3.7761   3.8599   3.8599   4.2620   4.2620   4.2916   4.2916
     4.3474   4.3474   4.4106   4.4107   4.4808   4.4808   4.5892   4.5892
     4.6711   4.6711   4.8259   4.8259   5.0759   5.0759   5.0952   5.0952
     7.0296   7.0296   7.0841   7.0841   7.1936   7.1936   7.2029   7.2029
     7.2825   7.2825   7.3242   7.3242   7.3627   7.3628   7.4127   7.4127
     7.4930   7.4930   7.5609   7.5609   7.6135   7.6135   7.6406   7.6406
    11.4336  11.4336  11.4621  11.4621  11.7594  11.7594  11.8289  11.8289
    12.1889  12.1889  12.2298  12.2299  12.3353  12.3353  12.3688  12.3688
    12.5137  12.5137  12.6121  12.6121  12.9878  12.9878  13.0631  13.0631
    16.4695  16.4696  16.5160  16.5160  17.0843  17.0844  17.1178  17.1179
    17.3143  17.3143  17.3725  17.3726  17.3986

     the Fermi energy is     9.1568 ev

!    total energy              =   -6261.11004112 Ry
     Harris-Foulkes estimate   =   -6261.11004112 Ry
     estimated scf accuracy    <          7.9E-12 Ry

     The total energy is the sum of the following terms:

     one-electron contribution =   -4717.69091660 Ry
     hartree contribution      =    2595.74054781 Ry
     xc contribution           =    -965.66914271 Ry
     ewald contribution        =   -3173.49052961 Ry
     smearing contrib. (-TS)   =      -0.00000000 Ry

     convergence has been achieved in  15 iterations

     Forces acting on atoms (cartesian axes, Ry/au):

     atom    1 type  1   force =    -0.00148737   -0.00055161    0.00094167
     atom    2 type  1   force =     0.00148737    0.00055161   -0.00094167
     atom    3 type  1   force =     0.00148737    0.00055161    0.00094167
     atom    4 type  1   force =    -0.00148737   -0.00055161   -0.00094167
     atom    5 type  1   force =     0.00148737   -0.00055161   -0.00094167
     atom    6 type  1   force =    -0.00148737    0.00055161    0.00094167
     atom    7 type  1   force =    -0.00148737    0.00055161   -0.00094167
     atom    8 type  1   force =     0.00148737   -0.00055161    0.00094167
     atom    9 type  2   force =    -0.00028727    0.00036154    0.00019667
     atom   10 type  2   force =     0.00028727   -0.00036154   -0.00019667
     atom   11 type  2   force =     0.00028727   -0.00036154    0.00019667
     atom   12 type  2   force =    -0.00028727    0.00036154   -0.00019667
     atom   13 type  2   force =     0.00028727    0.00036154   -0.00019667
     atom   14 type  2   force =    -0.00028727   -0.00036154    0.00019667
     atom   15 type  2   force =    -0.00028727   -0.00036154   -0.00019667
     atom   16 type  2   force =     0.00028727    0.00036154    0.00019667
     atom   17 type  2   force =    -0.00074454    0.00008898    0.00024592
     atom   18 type  2   force =     0.00074454   -0.00008898   -0.00024592
     atom   19 type  2   force =     0.00074454   -0.00008898    0.00024592
     atom   20 type  2   force =    -0.00074454    0.00008898   -0.00024592
     atom   21 type  2   force =     0.00074454    0.00008898   -0.00024592
     atom   22 type  2   force =    -0.00074454   -0.00008898    0.00024592
     atom   23 type  2   force =    -0.00074454   -0.00008898   -0.00024592
     atom   24 type  2   force =     0.00074454    0.00008898    0.00024592
     atom   25 type  2   force =     0.00000486   -0.00073868    0.00049167
     atom   26 type  2   force =    -0.00000486    0.00073868   -0.00049167
     atom   27 type  2   force =    -0.00000486    0.00073868    0.00049167
     atom   28 type  2   force =     0.00000486   -0.00073868   -0.00049167
     atom   29 type  2   force =    -0.00000486   -0.00073868   -0.00049167
     atom   30 type  2   force =     0.00000486    0.00073868    0.00049167
     atom   31 type  2   force =     0.00000486    0.00073868   -0.00049167
     atom   32 type  2   force =    -0.00000486   -0.00073868    0.00049167

     Total force =     0.000000     Total SCF correction =     0.000000

     Computing stress (Cartesian axis) and pressure

          total   stress  (Ry/bohr**3)                   (kbar)     P=    0.00
   0.00000005   0.00000000   0.00000000          0.01      0.00      0.00
   0.00000000  -0.00000016   0.00000000          0.00     -0.02      0.00
   0.00000000   0.00000000   0.00000013          0.00      0.00      0.02

     Writing output data file Landau_9.save

     General routines

     Parallel routines

   This run was terminated on:  20:50:24  30Apr2019

   JOB DONE.