     Program PWSCF v.6.4.1 starts on 22Nov2019 at  1:38: 4

     K-points division:     npool     =      40
     Reading input from scf.in

     Current dimensions of program PWSCF are:
     Max number of different atomic species (ntypx) = 10
     Max number of k-points (npk) =  40000
     Max angular momentum in pseudopotentials (lmaxx) =  3

     Subspace diagonalization in iterative solution of the eigenvalue problem:
     a serial algorithm will be used

     Message from routine setup:
     using ibrav=0 with symmetry is DISCOURAGED, use correct ibrav instead

     bravais-lattice index     =            0
     lattice parameter (alat)  =      14.0953  a.u.
     unit-cell volume          =    2819.4891 (a.u.)^3
     number of atoms/cell      =           32
     number of atomic types    =            2
     number of electrons       =       368.52
     number of Kohn-Sham states=          221
     kinetic-energy cutoff     =     120.0000  Ry
     charge density cutoff     =     480.0000  Ry
     convergence threshold     =      1.0E-08
     mixing beta               =       0.7000
     number of iterations used =            8  plain     mixing
     Exchange-correlation      = SLA PW NOGX NOGC ( 1  4  0  0 0 0)

     celldm(1)=  14.095302  celldm(2)=   0.000000  celldm(3)=   0.000000
     celldm(4)=   0.000000  celldm(5)=   0.000000  celldm(6)=   0.000000

     crystal axes: (cart. coord. in units of alat)
               a(1) = (   1.000000   0.000000   0.000000 )
               a(2) = (   0.000000   1.011045   0.000000 )
               a(3) = (   0.000000   0.000000   0.995811 )

     reciprocal axes: (cart. coord. in units 2 pi/alat)
               b(1) = (  1.000000  0.000000  0.000000 )
               b(2) = (  0.000000  0.989076  0.000000 )
               b(3) = (  0.000000  0.000000  1.004207 )

     PseudoPot. # 1 for W  read from file:
     /cluster/scratch/mnoe/QE/pps/W_ONCV_LDA-4.0.upf
     MD5 check sum: ba0307d5d4cd419d6f1d13dc49d7c13a
     Pseudo is Norm-conserving + core correction, Zval = 28.0
     Generated using ONCVPSP code by D. R. Hamann
     Using radial grid of 1380 points,  8 beta functions with:
                l(1) =   0
                l(2) =   0
                l(3) =   1
                l(4) =   1
                l(5) =   2
                l(6) =   2
                l(7) =   3
                l(8) =   3

     PseudoPot. # 2 for O  read from file:
     /cluster/scratch/mnoe/QE/pps/O_ONCV_LDA-3.0.upf
     MD5 check sum: b55cdb4f45ae2203d24ad12cf8d61a31
     Pseudo is Norm-conserving + core correction, Zval =  6.0
     Generated using ONCVPSP code by D. R. Hamann
     Using radial grid of  926 points,  5 beta functions with:
                l(1) =   0
                l(2) =   0
                l(3) =   1
                l(4) =   1
                l(5) =   2

     atomic species   valence    mass     pseudopotential
        W             28.00   183.84000     W ( 1.00)
        O              6.00    15.99940     O ( 1.00)

      8 Sym. Ops., with inversion, found ( 6 have fractional translation)

   Cartesian axes

     site n.     atom                  positions (alat units)
         1           W   tau(   1) = (   0.2347400   0.2963036   0.0143496  )
         2           W   tau(   2) = (   0.7652600   0.7147411   0.9814613  )
         3           W   tau(   3) = (   0.2652600   0.2092187   0.5122552  )
         4           W   tau(   4) = (   0.7347400   0.8018259   0.4835559  )
         5           W   tau(   5) = (   0.7652600   0.2963036   0.4835559  )
         6           W   tau(   6) = (   0.2347400   0.7147411   0.5122552  )
         7           W   tau(   7) = (   0.7347400   0.2092187   0.9814613  )
         8           W   tau(   8) = (   0.2652600   0.8018259   0.0143496  )
         9           O   tau(   9) = (   0.2218500   0.0298519   0.0044612  )
        10           O   tau(  10) = (   0.7781500   0.9811928   0.9913498  )
        11           O   tau(  11) = (   0.2781500   0.4756704   0.5023667  )
        12           O   tau(  12) = (   0.7218500   0.5353743   0.4934443  )
        13           O   tau(  13) = (   0.7781500   0.0298519   0.4934443  )
        14           O   tau(  14) = (   0.2218500   0.9811928   0.5023667  )
        15           O   tau(  15) = (   0.7218500   0.4756704   0.9913498  )
        16           O   tau(  16) = (   0.2781500   0.5353743   0.0044612  )
        17           O   tau(  17) = (   0.5041700   0.2235622   0.5053392  )
        18           O   tau(  18) = (   0.4958300   0.7874825   0.4904719  )
        19           O   tau(  19) = (   0.9958300   0.2819601   1.0032447  )
        20           O   tau(  20) = (   0.0041699   0.7290846  -0.0074336  )
        21           O   tau(  21) = (   0.4958300   0.2235622  -0.0074336  )
        22           O   tau(  22) = (   0.5041700   0.7874825   1.0032447  )
        23           O   tau(  23) = (   0.0041699   0.2819601   0.4904719  )
        24           O   tau(  24) = (   0.9958300   0.7290846   0.5053392  )
        25           O   tau(  25) = (   0.7574650   0.2463815   0.7405548  )
        26           O   tau(  26) = (   0.2425351   0.7646632   0.2552563  )
        27           O   tau(  27) = (   0.7425351   0.2591409   0.2426493  )
        28           O   tau(  28) = (   0.2574650   0.7519039   0.7531617  )
        29           O   tau(  29) = (   0.2425351   0.2463815   0.7531617  )
        30           O   tau(  30) = (   0.7574650   0.7646632   0.2426493  )
        31           O   tau(  31) = (   0.2574650   0.2591409   0.2552563  )
        32           O   tau(  32) = (   0.7425351   0.7519039   0.7405548  )

     number of k points=    64  gaussian smearing, width (Ry)=  0.0007
                       cart. coord. in units 2pi/alat
        k(    1) = (   0.0000000   0.0000000   0.0000000), wk =   0.0092593
        k(    2) = (   0.0000000   0.0000000   0.1673678), wk =   0.0185185
        k(    3) = (   0.0000000   0.0000000   0.3347355), wk =   0.0185185
        k(    4) = (   0.0000000   0.0000000  -0.5021033), wk =   0.0092593
        k(    5) = (   0.0000000   0.1648460   0.0000000), wk =   0.0185185
        k(    6) = (   0.0000000   0.1648460   0.1673678), wk =   0.0370370
        k(    7) = (   0.0000000   0.1648460   0.3347355), wk =   0.0370370
        k(    8) = (   0.0000000   0.1648460  -0.5021033), wk =   0.0185185
        k(    9) = (   0.0000000   0.3296920   0.0000000), wk =   0.0185185
        k(   10) = (   0.0000000   0.3296920   0.1673678), wk =   0.0370370
        k(   11) = (   0.0000000   0.3296920   0.3347355), wk =   0.0370370
        k(   12) = (   0.0000000   0.3296920  -0.5021033), wk =   0.0185185
        k(   13) = (   0.0000000  -0.4945380   0.0000000), wk =   0.0092593
        k(   14) = (   0.0000000  -0.4945380   0.1673678), wk =   0.0185185
        k(   15) = (   0.0000000  -0.4945380   0.3347355), wk =   0.0185185
        k(   16) = (   0.0000000  -0.4945380  -0.5021033), wk =   0.0092593
        k(   17) = (   0.1666667   0.0000000   0.0000000), wk =   0.0185185
        k(   18) = (   0.1666667   0.0000000   0.1673678), wk =   0.0370370
        k(   19) = (   0.1666667   0.0000000   0.3347355), wk =   0.0370370
        k(   20) = (   0.1666667   0.0000000  -0.5021033), wk =   0.0185185
        k(   21) = (   0.1666667   0.1648460   0.0000000), wk =   0.0370370
        k(   22) = (   0.1666667   0.1648460   0.1673678), wk =   0.0740741
        k(   23) = (   0.1666667   0.1648460   0.3347355), wk =   0.0740741
        k(   24) = (   0.1666667   0.1648460  -0.5021033), wk =   0.0370370
        k(   25) = (   0.1666667   0.3296920   0.0000000), wk =   0.0370370
        k(   26) = (   0.1666667   0.3296920   0.1673678), wk =   0.0740741
        k(   27) = (   0.1666667   0.3296920   0.3347355), wk =   0.0740741
        k(   28) = (   0.1666667   0.3296920  -0.5021033), wk =   0.0370370
        k(   29) = (   0.1666667  -0.4945380   0.0000000), wk =   0.0185185
        k(   30) = (   0.1666667  -0.4945380   0.1673678), wk =   0.0370370
        k(   31) = (   0.1666667  -0.4945380   0.3347355), wk =   0.0370370
        k(   32) = (   0.1666667  -0.4945380  -0.5021033), wk =   0.0185185
        k(   33) = (   0.3333333   0.0000000   0.0000000), wk =   0.0185185
        k(   34) = (   0.3333333   0.0000000   0.1673678), wk =   0.0370370
        k(   35) = (   0.3333333   0.0000000   0.3347355), wk =   0.0370370
        k(   36) = (   0.3333333   0.0000000  -0.5021033), wk =   0.0185185
        k(   37) = (   0.3333333   0.1648460   0.0000000), wk =   0.0370370
        k(   38) = (   0.3333333   0.1648460   0.1673678), wk =   0.0740741
        k(   39) = (   0.3333333   0.1648460   0.3347355), wk =   0.0740741
        k(   40) = (   0.3333333   0.1648460  -0.5021033), wk =   0.0370370
        k(   41) = (   0.3333333   0.3296920   0.0000000), wk =   0.0370370
        k(   42) = (   0.3333333   0.3296920   0.1673678), wk =   0.0740741
        k(   43) = (   0.3333333   0.3296920   0.3347355), wk =   0.0740741
        k(   44) = (   0.3333333   0.3296920  -0.5021033), wk =   0.0370370
        k(   45) = (   0.3333333  -0.4945380   0.0000000), wk =   0.0185185
        k(   46) = (   0.3333333  -0.4945380   0.1673678), wk =   0.0370370
        k(   47) = (   0.3333333  -0.4945380   0.3347355), wk =   0.0370370
        k(   48) = (   0.3333333  -0.4945380  -0.5021033), wk =   0.0185185
        k(   49) = (  -0.5000000   0.0000000   0.0000000), wk =   0.0092593
        k(   50) = (  -0.5000000   0.0000000   0.1673678), wk =   0.0185185
        k(   51) = (  -0.5000000   0.0000000   0.3347355), wk =   0.0185185
        k(   52) = (  -0.5000000   0.0000000  -0.5021033), wk =   0.0092593
        k(   53) = (  -0.5000000   0.1648460   0.0000000), wk =   0.0185185
        k(   54) = (  -0.5000000   0.1648460   0.1673678), wk =   0.0370370
        k(   55) = (  -0.5000000   0.1648460   0.3347355), wk =   0.0370370
        k(   56) = (  -0.5000000   0.1648460  -0.5021033), wk =   0.0185185
        k(   57) = (  -0.5000000   0.3296920   0.0000000), wk =   0.0185185
        k(   58) = (  -0.5000000   0.3296920   0.1673678), wk =   0.0370370
        k(   59) = (  -0.5000000   0.3296920   0.3347355), wk =   0.0370370
        k(   60) = (  -0.5000000   0.3296920  -0.5021033), wk =   0.0185185
        k(   61) = (  -0.5000000  -0.4945380   0.0000000), wk =   0.0092593
        k(   62) = (  -0.5000000  -0.4945380   0.1673678), wk =   0.0185185
        k(   63) = (  -0.5000000  -0.4945380   0.3347355), wk =   0.0185185
        k(   64) = (  -0.5000000  -0.4945380  -0.5021033), wk =   0.0092593

     Initial potential from superposition of free atoms

     starting charge  367.99656, renormalised to  368.52000
     Starting wfcs are  232 randomized atomic wfcs

     Self-consistent Calculation

     iteration #  1     ecut=   120.00 Ry     beta= 0.70
     Davidson diagonalization with overlap
     ethr =  1.00E-02,  avg # of iterations =  5.1

     total energy              =   -6253.21453496 Ry
     Harris-Foulkes estimate   =   -6264.25317508 Ry
     estimated scf accuracy    <      13.90421805 Ry

[...]

     total energy              =   -6260.61928145 Ry
     Harris-Foulkes estimate   =   -6260.61928146 Ry
     estimated scf accuracy    <       0.00000002 Ry

     iteration # 13     ecut=   120.00 Ry     beta= 0.70
     Davidson diagonalization with overlap
     ethr =  6.64E-12,  avg # of iterations =  2.6

     End of self-consistent calculation

          k = 0.0000 0.0000 0.0000 ( 62617 PWs)   bands (ev):

   -66.1195 -66.1189 -66.1189 -66.1188 -66.1183 -66.1182 -66.1182 -66.1176
   -30.5217 -30.5168 -30.5132 -30.5081 -30.4794 -30.4757 -30.4739 -30.4666
   -30.4653 -30.4614 -30.4604 -30.4462 -30.4409 -30.4389 -30.4260 -30.4194
   -30.3965 -30.3926 -30.3810 -30.3785 -30.3750 -30.3738 -30.3699 -30.3647
   -20.2779 -20.2777 -20.2777 -20.2774 -20.2770 -20.2769 -20.2767 -20.2765
   -20.2690 -20.2688 -20.2685 -20.2684 -20.2684 -20.2683 -20.2678 -20.2678
   -20.2612 -20.2607 -20.2605 -20.2600 -20.2565 -20.2560 -20.2559 -20.2553
   -20.2514 -20.2513 -20.2502 -20.2501 -20.2498 -20.2498 -20.2487 -20.2486
   -20.2439 -20.2439 -20.2437 -20.2437 -20.2406 -20.2406 -20.2384 -20.2383
   -20.2382 -20.2381 -20.2354 -20.2354 -20.2351 -20.2348 -20.2342 -20.2341
   -20.2269 -20.2267 -20.2267 -20.2265 -20.2259 -20.2258 -20.2255 -20.2254
   -10.0177  -9.6314  -9.6256  -9.5860  -9.2275  -9.1970  -9.1941  -8.9181
    -8.8818  -8.8172  -8.8148  -8.8135  -7.9667  -7.8814  -7.8734  -7.8082
    -7.8069  -7.8031  -7.7805  -7.7662  -7.6673  -7.6398  -7.6129  -7.5929
     1.2572   1.2679   1.2731   1.2964   1.3176   1.3468   1.3949   1.4284
     1.4686   1.5281   1.5626   1.6512   2.4028   2.4420   2.4641   2.5210
     2.5266   2.6563   4.0176   4.1375   4.2072   4.3642   4.5802   4.6315
     4.6626   4.6819   4.7108   4.7846   4.8602   4.9090   5.2278   5.5123
     5.5337   5.5348   5.6191   5.6671   5.6855   5.7941   5.8060   5.8415
     5.8589   5.9123   5.9326   6.0200   6.0270   6.0341   6.0751   6.1103
     6.2292   6.4175   6.4378   6.4413   6.4522   6.7111   6.7455   6.7512
     6.7988   6.8104   6.9971   7.0090   7.0665   7.0721   7.0985   7.1108
     7.1819   7.1836   8.1244   8.1768   8.2819   8.3065   8.4283   8.4500
     9.4911   9.4913   9.7117   9.8532   9.8633  10.0147  12.4602  12.4934
    12.5428  12.6118  12.6755  12.7304  12.7583  12.7925  12.8466  12.8504
    13.0713  13.1660  13.2097  13.3416  13.8454  13.9384  14.0058  14.0937
    14.1386  14.1949  14.4906  14.7037  14.8710  14.8822  15.3182  15.4995
    15.8293  16.3307  16.8547  16.9694  17.0696

[...]

          k = 0.3333-0.4945-0.5021 ( 62552 PWs)   bands (ev):

[...]

          k =-0.5000 0.0000 0.0000 ( 62538 PWs)   bands (ev):

[...]

          k =-0.5000-0.4945-0.5021 ( 62528 PWs)   bands (ev):

   -66.1186 -66.1186 -66.1186 -66.1186 -66.1186 -66.1186 -66.1185 -66.1185
   -30.4818 -30.4818 -30.4818 -30.4818 -30.4803 -30.4803 -30.4803 -30.4803
   -30.4356 -30.4356 -30.4356 -30.4356 -30.4348 -30.4348 -30.4348 -30.4348
   -30.4033 -30.4032 -30.4032 -30.4032 -30.4020 -30.4020 -30.4020 -30.4020
   -20.2774 -20.2773 -20.2773 -20.2773 -20.2772 -20.2772 -20.2772 -20.2772
   -20.2685 -20.2685 -20.2685 -20.2685 -20.2683 -20.2683 -20.2683 -20.2683
   -20.2584 -20.2583 -20.2583 -20.2583 -20.2582 -20.2582 -20.2582 -20.2582
   -20.2500 -20.2500 -20.2500 -20.2500 -20.2499 -20.2499 -20.2499 -20.2499
   -20.2413 -20.2413 -20.2413 -20.2413 -20.2412 -20.2412 -20.2412 -20.2412
   -20.2362 -20.2362 -20.2362 -20.2362 -20.2362 -20.2361 -20.2361 -20.2361
   -20.2262 -20.2262 -20.2262 -20.2262 -20.2262 -20.2262 -20.2262 -20.2262
    -9.0439  -9.0439  -9.0439  -9.0439  -9.0019  -9.0019  -9.0019  -9.0019
    -8.4179  -8.4178  -8.4178  -8.4178  -8.3944  -8.3944  -8.3944  -8.3944
    -8.3130  -8.3130  -8.3129  -8.3129  -8.2573  -8.2573  -8.2573  -8.2573
     2.7195   2.7195   2.7195   2.7196   2.8337   2.8337   2.8337   2.8337
     3.0077   3.0077   3.0077   3.0077   3.1834   3.1834   3.1834   3.1834
     3.2862   3.2862   3.2862   3.2862   3.4446   3.4446   3.4446   3.4446
     4.1476   4.1476   4.1476   4.1476   4.2377   4.2377   4.2377   4.2377
     4.3267   4.3267   4.3268   4.3268   4.3909   4.3909   4.3909   4.3909
     4.5280   4.5280   4.5280   4.5280   4.6282   4.6282   4.6282   4.6282
     7.1776   7.1776   7.1776   7.1776   7.2751   7.2751   7.2751   7.2751
     7.3923   7.3923   7.3923   7.3923   7.4943   7.4944   7.4944   7.4944
     7.6075   7.6075   7.6075   7.6075   7.6970   7.6970   7.6970   7.6970
    11.8815  11.8815  11.8815  11.8815  12.0249  12.0249  12.0249  12.0249
    12.2143  12.2143  12.2144  12.2144  12.2771  12.2771  12.2771  12.2771
    12.4063  12.4063  12.4063  12.4063  12.4895  12.4895  12.4895  12.4895
    16.7557  16.7557  16.7557  16.7557  16.9716  16.9716  16.9716  16.9716
    17.3275  17.3275  17.3276  17.3279  17.3842

     the Fermi energy is     9.8172 ev

!    total energy              =   -6260.61928145 Ry
     Harris-Foulkes estimate   =   -6260.61928145 Ry
     estimated scf accuracy    <          1.2E-09 Ry

     The total energy is the sum of the following terms:

     one-electron contribution =   -4740.65767199 Ry
     hartree contribution      =    2607.93365241 Ry
     xc contribution           =    -966.27421897 Ry
     ewald contribution        =   -3161.62102007 Ry
     smearing contrib. (-TS)   =      -0.00002283 Ry

     convergence has been achieved in  13 iterations

     Writing output data file Landau_33.save/

     General routines

     Parallel routines

   This run was terminated on:   2: 8: 1  22Nov2019

   JOB DONE.