     Program PWSCF v.6.2 (svn rev. 14038) starts on 30Apr2019 at 22:10: 8

     K-points division:     npool     =      32
     Reading input from rscf.in

     Current dimensions of program PWSCF are:
     Max number of different atomic species (ntypx) = 10
     Max number of k-points (npk) =  40000
     Max angular momentum in pseudopotentials (lmaxx) =  3

     Subspace diagonalization in iterative solution of the eigenvalue problem:
     a serial algorithm will be used

     bravais-lattice index     =            0
     lattice parameter (alat)  =      13.8397  a.u.
     unit-cell volume          =    2804.9816 (a.u.)^3
     number of atoms/cell      =           32
     number of atomic types    =            2
     number of electrons       =       368.00
     number of Kohn-Sham states=          221
     kinetic-energy cutoff     =     120.0000  Ry
     charge density cutoff     =     480.0000  Ry
     convergence threshold     =      1.0E-08
     mixing beta               =       0.7000
     number of iterations used =            8  plain     mixing
     Exchange-correlation      = SLA PW NOGX NOGC ( 1  4  0  0 0 0)
     nstep                     =           50

     celldm(1)=  13.839685  celldm(2)=   0.000000  celldm(3)=   0.000000
     celldm(4)=   0.000000  celldm(5)=   0.000000  celldm(6)=   0.000000

     crystal axes: (cart. coord. in units of alat)
               a(1) = (   1.000000   0.000000   0.000000 )
               a(2) = (   0.000000   1.058160   0.000000 )
               a(3) = (   0.000000   0.000000   1.000000 )

     reciprocal axes: (cart. coord. in units 2 pi/alat)
               b(1) = (  1.000000  0.000000  0.000000 )
               b(2) = (  0.000000  0.945037  0.000000 )
               b(3) = (  0.000000  0.000000  1.000000 )

     PseudoPot. # 1 for W  read from file:
     /cluster/scratch/mnoe/QE/pps/W_ONCV_LDA-4.0.upf
     MD5 check sum: ba0307d5d4cd419d6f1d13dc49d7c13a
     Pseudo is Norm-conserving + core correction, Zval = 28.0
     Generated using ONCVPSP code by D. R. Hamann
     Using radial grid of 1380 points,  8 beta functions with:
                l(1) =   0
                l(2) =   0
                l(3) =   1
                l(4) =   1
                l(5) =   2
                l(6) =   2
                l(7) =   3
                l(8) =   3

     PseudoPot. # 2 for O  read from file:
     /cluster/scratch/mnoe/QE/pps/O_ONCV_LDA-3.0.upf
     MD5 check sum: a1bd6164e7280c17a38c229939bfbd54
     Pseudo is Norm-conserving + core correction, Zval =  6.0
     Generated using ONCVPSP code by D. R. Hamann
     Using radial grid of  926 points,  5 beta functions with:
                l(1) =   0
                l(2) =   0
                l(3) =   1
                l(4) =   1
                l(5) =   2

     atomic species   valence    mass     pseudopotential
        W             28.00   183.84000     W ( 1.00)
        O              6.00    15.99940     O ( 1.00)

      8 Sym. Ops. (no inversion) found ( 4 have fractional translation)

   Cartesian axes

     site n.     atom                  positions (alat units)
         1           W   tau(   1) = (   0.2580900   0.2982530   0.2502300  )
         2           W   tau(   2) = (  -0.2502300   0.7599071  -0.7419100  )
         3           W   tau(   3) = (   0.2419101   0.2308271   0.7502300  )
         4           W   tau(   4) = (   0.7502300   0.8273330   0.7580900  )
         5           W   tau(   5) = (   0.7419100   0.2982530   0.7497700  )
         6           W   tau(   6) = (   0.2502300   0.7599071   0.7419100  )
         7           W   tau(   7) = (  -0.2419100   0.2308271  -0.7502300  )
         8           W   tau(   8) = (   0.2497700   0.8273330   0.2419100  )
         9           O   tau(   9) = (   0.2589000   0.0088039   0.2564600  )
        10           O   tau(  10) = (  -0.2564600   1.0493562  -0.7411000  )
        11           O   tau(  11) = (   0.2411000   0.5202761   0.7564600  )
        12           O   tau(  12) = (   0.7564600   0.5378839   0.7589000  )
        13           O   tau(  13) = (   0.7411000   0.0088039   0.7435400  )
        14           O   tau(  14) = (   0.2564600   1.0493562   0.7411000  )
        15           O   tau(  15) = (  -0.2411000   0.5202761  -0.7564600  )
        16           O   tau(  16) = (   0.2435400   0.5378839   0.2411000  )
        17           O   tau(  17) = (   0.4971300   0.2746984   0.6995400  )
        18           O   tau(  18) = (   0.4994100   0.7871018   0.8004600  )
        19           O   tau(  19) = (  -0.9971301   0.2543817   1.1995400  )
        20           O   tau(  20) = (   0.0005900   0.8001383   0.3004600  )
        21           O   tau(  21) = (   0.5028700   0.2746984   0.3004600  )
        22           O   tau(  22) = (   0.5005900   0.7871018   1.1995400  )
        23           O   tau(  23) = (  -0.0028700   0.2543817   0.8004600  )
        24           O   tau(  24) = (  -1.0005900   0.8001383   0.6995400  )
        25           O   tau(  25) = (   0.6995400   0.2580217   2.0005900  )
        26           O   tau(  26) = (   0.3004600   0.7834617   0.4971300  )
        27           O   tau(  27) = (   0.8004600   0.2710583   0.5005899  )
        28           O   tau(  28) = (   0.1995400   0.8037784   1.9971300  )
        29           O   tau(  29) = (   0.3004600   0.2580217   0.9994100  )
        30           O   tau(  30) = (   0.6995400   0.7834617   0.5028700  )
        31           O   tau(  31) = (   0.1995400   0.2710583   0.4994100  )
        32           O   tau(  32) = (   0.8004600   0.8037784   1.0028700  )

     number of k points=    40  gaussian smearing, width (Ry)=  0.0007
                       cart. coord. in units 2pi/alat
        k(    1) = (   0.0000000   0.0000000   0.0000000), wk =   0.0092593
        k(    2) = (   0.0000000   0.0000000   0.1666667), wk =   0.0370370
        k(    3) = (   0.0000000   0.0000000   0.3333333), wk =   0.0370370
        k(    4) = (   0.0000000   0.0000000  -0.5000000), wk =   0.0185185
        k(    5) = (   0.0000000   0.1575061   0.0000000), wk =   0.0185185
        k(    6) = (   0.0000000   0.1575061   0.1666667), wk =   0.0740741
        k(    7) = (   0.0000000   0.1575061   0.3333333), wk =   0.0740741
        k(    8) = (   0.0000000   0.1575061  -0.5000000), wk =   0.0370370
        k(    9) = (   0.0000000   0.3150122   0.0000000), wk =   0.0185185
        k(   10) = (   0.0000000   0.3150122   0.1666667), wk =   0.0740741
        k(   11) = (   0.0000000   0.3150122   0.3333333), wk =   0.0740741
        k(   12) = (   0.0000000   0.3150122  -0.5000000), wk =   0.0370370
        k(   13) = (   0.0000000  -0.4725183   0.0000000), wk =   0.0092593
        k(   14) = (   0.0000000  -0.4725183   0.1666667), wk =   0.0370370
        k(   15) = (   0.0000000  -0.4725183   0.3333333), wk =   0.0370370
        k(   16) = (   0.0000000  -0.4725183  -0.5000000), wk =   0.0185185
        k(   17) = (   0.1666667   0.0000000   0.1666667), wk =   0.0370370
        k(   18) = (   0.1666667   0.0000000   0.3333333), wk =   0.0740741
        k(   19) = (   0.1666667   0.0000000  -0.5000000), wk =   0.0370370
        k(   20) = (   0.1666667   0.1575061   0.1666667), wk =   0.0740741
        k(   21) = (   0.1666667   0.1575061   0.3333333), wk =   0.1481481
        k(   22) = (   0.1666667   0.1575061  -0.5000000), wk =   0.0740741
        k(   23) = (   0.1666667   0.3150122   0.1666667), wk =   0.0740741
        k(   24) = (   0.1666667   0.3150122   0.3333333), wk =   0.1481481
        k(   25) = (   0.1666667   0.3150122  -0.5000000), wk =   0.0740741
        k(   26) = (   0.1666667  -0.4725183   0.1666667), wk =   0.0370370
        k(   27) = (   0.1666667  -0.4725183   0.3333333), wk =   0.0740741
        k(   28) = (   0.1666667  -0.4725183  -0.5000000), wk =   0.0370370
        k(   29) = (   0.3333333   0.0000000   0.3333333), wk =   0.0370370
        k(   30) = (   0.3333333   0.0000000  -0.5000000), wk =   0.0370370
        k(   31) = (   0.3333333   0.1575061   0.3333333), wk =   0.0740741
        k(   32) = (   0.3333333   0.1575061  -0.5000000), wk =   0.0740741
        k(   33) = (   0.3333333   0.3150122   0.3333333), wk =   0.0740741
        k(   34) = (   0.3333333   0.3150122  -0.5000000), wk =   0.0740741
        k(   35) = (   0.3333333  -0.4725183   0.3333333), wk =   0.0370370
        k(   36) = (   0.3333333  -0.4725183  -0.5000000), wk =   0.0370370
        k(   37) = (  -0.5000000   0.0000000  -0.5000000), wk =   0.0092593
        k(   38) = (  -0.5000000   0.1575061  -0.5000000), wk =   0.0185185
        k(   39) = (  -0.5000000   0.3150122  -0.5000000), wk =   0.0185185
        k(   40) = (  -0.5000000  -0.4725183  -0.5000000), wk =   0.0092593

     Initial potential from superposition of free atoms

     starting charge  367.99656, renormalised to  368.00000
     Starting wfc are  232 randomized atomic wfcs

     Self-consistent Calculation

     iteration #  1     ecut=   120.00 Ry     beta= 0.70
     Davidson diagonalization with overlap
     ethr =  1.00E-02,  avg # of iterations =  4.9

     total energy              =   -6253.97410706 Ry
     Harris-Foulkes estimate   =   -6264.58297094 Ry
     estimated scf accuracy    <      13.43127398 Ry

[...]

     End of self-consistent calculation

          k = 0.0000 0.0000 0.0000 ( 62239 PWs)   bands (ev):

   -66.1744 -66.1740 -66.1734 -66.1734 -66.1730 -66.1730 -66.1724 -66.1720
   -30.5611 -30.5560 -30.5559 -30.5511 -30.5335 -30.5259 -30.5247 -30.5247
   -30.5140 -30.5125 -30.5086 -30.5086 -30.4946 -30.4935 -30.4935 -30.4934
   -30.4276 -30.4276 -30.4250 -30.4229 -30.4139 -30.4139 -30.4099 -30.4087
   -20.3359 -20.3358 -20.3358 -20.3358 -20.3356 -20.3356 -20.3356 -20.3355
   -20.3168 -20.3165 -20.3165 -20.3162 -20.3150 -20.3147 -20.3143 -20.3143
   -20.3138 -20.3138 -20.3136 -20.3133 -20.3128 -20.3122 -20.3121 -20.3121
   -20.3114 -20.3109 -20.3109 -20.3102 -20.3102 -20.3096 -20.3096 -20.3092
   -20.3039 -20.3037 -20.3034 -20.3034 -20.3028 -20.3025 -20.3024 -20.3024
   -20.2987 -20.2987 -20.2986 -20.2982 -20.2981 -20.2979 -20.2977 -20.2977
   -20.2959 -20.2959 -20.2954 -20.2953 -20.2935 -20.2935 -20.2931 -20.2929
    -9.9484  -9.6799  -9.4997  -9.4997  -9.2444  -9.2444  -9.0536  -9.0417
    -9.0381  -8.8521  -8.8294  -8.8294  -7.8571  -7.7987  -7.7909  -7.7810
    -7.7810  -7.7680  -7.7579  -7.7252  -7.6470  -7.6470  -7.6114  -7.6114
     1.1906   1.1917   1.2731   1.2731   1.2994   1.2994   1.3991   1.6391
     1.6644   1.6644   1.6721   1.8685   2.3766   2.4515   2.5873   2.6044
     2.7448   2.7448   4.1366   4.1366   4.3553   4.3572   4.8216   4.8216
     4.8236   4.8485   4.8485   4.8698   5.0674   5.0674   5.1012   5.4589
     5.4597   5.5149   5.5149   5.5413   5.5413   5.6121   5.6121   5.8298
     5.8298   5.8790   5.8827   5.9162   5.9664   6.0024   6.0128   6.0971
     6.1002   6.2434   6.2476   6.5619   6.5619   6.8231   6.8231   6.8477
     6.8503   6.8503   6.9916   7.0095   7.0685   7.0685   7.3484   7.3484
     7.4179   7.4179   7.7617   7.7759   8.0663   8.0663   8.1220   8.1473
     9.2907   9.2925  10.0055  10.0114  10.0437  10.0437  12.2226  12.2226
[...]
W        0.241910058   0.218140012   0.750230024    0   0   0
W        0.750229999   0.781859972   0.758089974    0   0   0
W        0.741910001   0.281860003   0.749769992    0   0   0
W        0.250230040   0.718139997   0.741910042    0   0   0
W       -0.241910042   0.218140012  -0.750230040    0   0   0
W        0.249770008   0.781859972   0.241910001    0   0   0
O        0.258899999   0.008320000   0.256460014    0   0   0
O       -0.256460012   0.991680023  -0.741099984    0   0   0
O        0.241100001   0.491679992   0.756459995    0   0   0
O        0.756460014   0.508319977   0.758899999    0   0   0
O        0.741099986   0.008320000   0.743540005    0   0   0
O        0.256459995   0.991680023   0.741100001    0   0   0
O       -0.241099984   0.491679992  -0.756460012    0   0   0
O        0.243540005   0.508319977   0.241099986    0   0   0
O        0.497129965   0.259600004   0.699540004    0   0   0
O        0.499409989   0.743840041   0.800459963    0   0   0
O       -0.997130063   0.240399980   1.199540037    0   0   0
O        0.000589960   0.756159931   0.300460012    0   0   0
O        0.502870035   0.259600004   0.300460012    0   0   0
O        0.500590011   0.743840041   1.199540037    0   0   0
O       -0.002870021   0.240399980   0.800459963    0   0   0
O       -1.000590044   0.756159931   0.699540004    0   0   0
O        0.699540037   0.243839994   2.000590044    0   0   0
O        0.300459996   0.740400012   0.497129965    0   0   0
O        0.800459963   0.256159990   0.500589946    0   0   0
O        0.199540020   0.759599960   1.997129998    0   0   0
O        0.300459996   0.243839994   0.999409975    0   0   0
O        0.699540037   0.740400012   0.502869970    0   0   0
O        0.199540020   0.256159990   0.499409989    0   0   0
O        0.800459963   0.759599960   1.002870021    0   0   0
End final coordinates

     A final scf calculation at the relaxed structure.
     The G-vectors are recalculated for the final unit cell
     Results may differ from those at the preceding step.

     bravais-lattice index     =            0
     lattice parameter (alat)  =      13.8397  a.u.
     unit-cell volume          =    2800.6967 (a.u.)^3
     number of atoms/cell      =           32
     number of atomic types    =            2
     number of electrons       =       368.00
     number of Kohn-Sham states=          221
     kinetic-energy cutoff     =     120.0000  Ry
     charge density cutoff     =     480.0000  Ry
     convergence threshold     =      1.0E-10
     mixing beta               =       0.7000
     number of iterations used =            8  plain     mixing
     Exchange-correlation      = SLA PW NOGX NOGC ( 1  4  0  0 0 0)

     celldm(1)=  13.839685  celldm(2)=   0.000000  celldm(3)=   0.000000
     celldm(4)=   0.000000  celldm(5)=   0.000000  celldm(6)=   0.000000

     crystal axes: (cart. coord. in units of alat)
               a(1) = (   1.000225   0.000000   0.000000 )
               a(2) = (   0.000000   1.056068   0.000000 )
               a(3) = (   0.000000   0.000000   1.000225 )

     reciprocal axes: (cart. coord. in units 2 pi/alat)
               b(1) = (  0.999775  0.000000  0.000000 )
               b(2) = (  0.000000  0.946909  0.000000 )
               b(3) = (  0.000000  0.000000  0.999775 )

     PseudoPot. # 1 for W  read from file:
     /cluster/scratch/mnoe/QE/pps/W_ONCV_LDA-4.0.upf
     MD5 check sum: ba0307d5d4cd419d6f1d13dc49d7c13a
     Pseudo is Norm-conserving + core correction, Zval = 28.0
     Generated using ONCVPSP code by D. R. Hamann
     Using radial grid of 1380 points,  8 beta functions with:
                l(1) =   0
                l(2) =   0
                l(3) =   1
                l(4) =   1
                l(5) =   2
                l(6) =   2
                l(7) =   3
                l(8) =   3

     PseudoPot. # 2 for O  read from file:
     /cluster/scratch/mnoe/QE/pps/O_ONCV_LDA-3.0.upf
     MD5 check sum: a1bd6164e7280c17a38c229939bfbd54
     Pseudo is Norm-conserving + core correction, Zval =  6.0
     Generated using ONCVPSP code by D. R. Hamann
     Using radial grid of  926 points,  5 beta functions with:
                l(1) =   0
                l(2) =   0
                l(3) =   1
                l(4) =   1
                l(5) =   2

     atomic species   valence    mass     pseudopotential
        W             28.00   183.84000     W ( 1.00)
        O              6.00    15.99940     O ( 1.00)

      8 Sym. Ops. (no inversion) found ( 4 have fractional translation)

   Cartesian axes

     site n.     atom                  positions (alat units)
         1           W   tau(   1) = (   0.2581481   0.2976634   0.2502863  )
         2           W   tau(   2) = (  -0.2502864   0.7584047  -0.7420771  )
         3           W   tau(   3) = (   0.2419645   0.2303707   0.7503989  )
         4           W   tau(   4) = (   0.7503989   0.8256974   0.7582606  )
         5           W   tau(   5) = (   0.7420770   0.2976634   0.7499388  )
         6           W   tau(   6) = (   0.2502864   0.7584047   0.7420771  )
         7           W   tau(   7) = (  -0.2419645   0.2303707  -0.7503989  )
         8           W   tau(   8) = (   0.2498262   0.8256974   0.2419645  )
         9           O   tau(   9) = (   0.2589583   0.0087865   0.2565177  )
        10           O   tau(  10) = (  -0.2565177   1.0472816  -0.7412668  )
        11           O   tau(  11) = (   0.2411543   0.5192476   0.7566303  )
        12           O   tau(  12) = (   0.7566303   0.5368205   0.7590708  )
        13           O   tau(  13) = (   0.7412668   0.0087865   0.7437074  )
        14           O   tau(  14) = (   0.2565177   1.0472816   0.7412668  )
        15           O   tau(  15) = (  -0.2411543   0.5192476  -0.7566303  )
        16           O   tau(  16) = (   0.2435948   0.5368205   0.2411543  )
        17           O   tau(  17) = (   0.4972419   0.2741553   0.6996975  )
        18           O   tau(  18) = (   0.4995224   0.7855457   0.8006402  )
        19           O   tau(  19) = (  -0.9973545   0.2538788   1.1998101  )
        20           O   tau(  20) = (   0.0005901   0.7985564   0.3005276  )
        21           O   tau(  21) = (   0.5029832   0.2741553   0.3005276  )
        22           O   tau(  22) = (   0.5007027   0.7855457   1.1998101  )
        23           O   tau(  23) = (  -0.0028707   0.2538788   0.8006402  )
        24           O   tau(  24) = (  -1.0008153   0.7985564   0.6996975  )
        25           O   tau(  25) = (   0.6996975   0.2575116   2.0010404  )
        26           O   tau(  26) = (   0.3005276   0.7819128   0.4972419  )
        27           O   tau(  27) = (   0.8006402   0.2705224   0.5007026  )
        28           O   tau(  28) = (   0.1995849   0.8021893   1.9975796  )
        29           O   tau(  29) = (   0.3005276   0.2575116   0.9996350  )
        30           O   tau(  30) = (   0.6996975   0.7819128   0.5029832  )
        31           O   tau(  31) = (   0.1995849   0.2705224   0.4995224  )
        32           O   tau(  32) = (   0.8006402   0.8021893   1.0030958  )

     number of k points=    40  gaussian smearing, width (Ry)=  0.0007
                       cart. coord. in units 2pi/alat
        k(    1) = (   0.0000000   0.0000000   0.0000000), wk =   0.0092593
        k(    2) = (   0.0000000   0.0000000   0.1666292), wk =   0.0370370
        k(    3) = (   0.0000000   0.0000000   0.3332583), wk =   0.0370370
        k(    4) = (   0.0000000   0.0000000  -0.4998875), wk =   0.0185185
        k(    5) = (   0.0000000   0.1578181   0.0000000), wk =   0.0185185
        k(    6) = (   0.0000000   0.1578181   0.1666292), wk =   0.0740741
        k(    7) = (   0.0000000   0.1578181   0.3332583), wk =   0.0740741
        k(    8) = (   0.0000000   0.1578181  -0.4998875), wk =   0.0370370
        k(    9) = (   0.0000000   0.3156362   0.0000000), wk =   0.0185185
        k(   10) = (   0.0000000   0.3156362   0.1666292), wk =   0.0740741
        k(   11) = (   0.0000000   0.3156362   0.3332583), wk =   0.0740741
        k(   12) = (   0.0000000   0.3156362  -0.4998875), wk =   0.0370370
        k(   13) = (   0.0000000  -0.4734543   0.0000000), wk =   0.0092593
        k(   14) = (   0.0000000  -0.4734543   0.1666292), wk =   0.0370370
        k(   15) = (   0.0000000  -0.4734543   0.3332583), wk =   0.0370370
        k(   16) = (   0.0000000  -0.4734543  -0.4998875), wk =   0.0185185
        k(   17) = (   0.1666292   0.0000000   0.1666292), wk =   0.0370370
        k(   18) = (   0.1666292   0.0000000   0.3332583), wk =   0.0740741
        k(   19) = (   0.1666292   0.0000000  -0.4998875), wk =   0.0370370
        k(   20) = (   0.1666292   0.1578181   0.1666292), wk =   0.0740741
        k(   21) = (   0.1666292   0.1578181   0.3332583), wk =   0.1481481
        k(   22) = (   0.1666292   0.1578181  -0.4998875), wk =   0.0740741
        k(   23) = (   0.1666292   0.3156362   0.1666292), wk =   0.0740741
        k(   24) = (   0.1666292   0.3156362   0.3332583), wk =   0.1481481
        k(   25) = (   0.1666292   0.3156362  -0.4998875), wk =   0.0740741
        k(   26) = (   0.1666292  -0.4734543   0.1666292), wk =   0.0370370
        k(   27) = (   0.1666292  -0.4734543   0.3332583), wk =   0.0740741
        k(   28) = (   0.1666292  -0.4734543  -0.4998875), wk =   0.0370370
        k(   29) = (   0.3332583   0.0000000   0.3332583), wk =   0.0370370
        k(   30) = (   0.3332583   0.0000000  -0.4998875), wk =   0.0370370
        k(   31) = (   0.3332583   0.1578181   0.3332583), wk =   0.0740741
        k(   32) = (   0.3332583   0.1578181  -0.4998875), wk =   0.0740741
        k(   33) = (   0.3332583   0.3156362   0.3332583), wk =   0.0740741
        k(   34) = (   0.3332583   0.3156362  -0.4998875), wk =   0.0740741
        k(   35) = (   0.3332583  -0.4734543   0.3332583), wk =   0.0370370
        k(   36) = (   0.3332583  -0.4734543  -0.4998875), wk =   0.0370370
        k(   37) = (  -0.4998875   0.0000000  -0.4998875), wk =   0.0092593
        k(   38) = (  -0.4998875   0.1578181  -0.4998875), wk =   0.0185185
        k(   39) = (  -0.4998875   0.3156362  -0.4998875), wk =   0.0185185
        k(   40) = (  -0.4998875  -0.4734543  -0.4998875), wk =   0.0092593

     Initial potential from superposition of free atoms

     starting charge  367.99656, renormalised to  368.00000
     Starting wfc are  232 randomized atomic wfcs

     Writing output data file Landau_9.save

     Self-consistent Calculation

[...]

     total energy              =   -6261.11038333 Ry
     Harris-Foulkes estimate   =   -6261.11038333 Ry
     estimated scf accuracy    <          3.8E-10 Ry

     iteration # 14     ecut=   120.00 Ry     beta= 0.70
     Davidson diagonalization with overlap
     ethr =  1.04E-13,  avg # of iterations =  2.9

     End of self-consistent calculation

[...]

          k = 0.3333-0.4735-0.4999 ( 62080 PWs)   bands (ev):

[...]

          k =-0.4999-0.4735-0.4999 ( 62160 PWs)   bands (ev):

   -66.1435 -66.1434 -66.1434 -66.1434 -66.1434 -66.1434 -66.1434 -66.1434
   -30.5082 -30.5082 -30.5077 -30.5077 -30.5077 -30.5077 -30.5075 -30.5075
   -30.4450 -30.4450 -30.4450 -30.4450 -30.4449 -30.4449 -30.4443 -30.4443
   -30.4302 -30.4301 -30.4300 -30.4300 -30.4298 -30.4298 -30.4298 -30.4298
   -20.3045 -20.3045 -20.3045 -20.3045 -20.3045 -20.3045 -20.3045 -20.3044
   -20.2834 -20.2834 -20.2834 -20.2834 -20.2833 -20.2833 -20.2832 -20.2832
   -20.2826 -20.2826 -20.2826 -20.2826 -20.2825 -20.2825 -20.2824 -20.2824
   -20.2794 -20.2794 -20.2793 -20.2793 -20.2793 -20.2793 -20.2793 -20.2793
   -20.2697 -20.2697 -20.2696 -20.2696 -20.2696 -20.2696 -20.2695 -20.2695
   -20.2678 -20.2677 -20.2677 -20.2677 -20.2677 -20.2676 -20.2676 -20.2676
   -20.2645 -20.2645 -20.2645 -20.2645 -20.2645 -20.2645 -20.2645 -20.2645
    -8.9236  -8.9235  -8.9091  -8.9091  -8.9090  -8.9090  -8.9078  -8.9078
    -8.4073  -8.4073  -8.3893  -8.3893  -8.3892  -8.3892  -8.3855  -8.3855
    -8.3167  -8.3167  -8.3167  -8.3167  -8.3108  -8.3108  -8.2943  -8.2942
     2.9887   2.9888   2.9937   2.9937   2.9937   2.9937   3.0072   3.0072
     3.1735   3.1736   3.1837   3.1837   3.1837   3.1837   3.2043   3.2043
     3.3931   3.3931   3.4765   3.4765   3.4765   3.4765   3.5264   3.5264
     4.1594   4.1594   4.1780   4.1780   4.1780   4.1780   4.1803   4.1803
     4.3946   4.3946   4.3946   4.3946   4.4060   4.4060   4.4160   4.4160
     4.4882   4.4882   4.5112   4.5112   4.5115   4.5116   4.5116   4.5116
     7.1463   7.1463   7.2177   7.2177   7.2178   7.2178   7.3078   7.3079
     7.3581   7.3581   7.3657   7.3658   7.3658   7.3658   7.3687   7.3687
     7.6004   7.6004   7.6183   7.6183   7.6183   7.6183   7.6451   7.6451
    11.8334  11.8334  11.8347  11.8347  11.8347  11.8347  11.8423  11.8423
    12.2410  12.2410  12.3003  12.3003  12.3003  12.3003  12.3847  12.3847
    12.5302  12.5302  12.5702  12.5702  12.5702  12.5702  12.5919  12.5919
    17.1510  17.1511  17.1780  17.1780  17.1780  17.1780  17.1974  17.1975
    17.3811  17.3811  17.3811  17.3812  17.4140

     the Fermi energy is     8.9710 ev

!    total energy              =   -6261.11038333 Ry
     Harris-Foulkes estimate   =   -6261.11038333 Ry
     estimated scf accuracy    <          7.3E-11 Ry

     The total energy is the sum of the following terms:

     one-electron contribution =   -4713.83620038 Ry
     hartree contribution      =    2593.98819324 Ry
     xc contribution           =    -965.66806555 Ry
     ewald contribution        =   -3175.59431065 Ry
     smearing contrib. (-TS)   =      -0.00000000 Ry

     convergence has been achieved in  14 iterations

     Forces acting on atoms (cartesian axes, Ry/au):

     atom    1 type  1   force =     0.00079594   -0.00117735    0.00021649
     atom    2 type  1   force =    -0.00021649    0.00117735    0.00079594
     atom    3 type  1   force =    -0.00079594    0.00117735    0.00021649
     atom    4 type  1   force =     0.00021649   -0.00117735    0.00079594
     atom    5 type  1   force =    -0.00079594   -0.00117735   -0.00021649
     atom    6 type  1   force =     0.00021649    0.00117735   -0.00079594
     atom    7 type  1   force =     0.00079594    0.00117735   -0.00021649
     atom    8 type  1   force =    -0.00021649   -0.00117735   -0.00079594
     atom    9 type  2   force =     0.00052865    0.00069573   -0.00002245
     atom   10 type  2   force =     0.00002245   -0.00069573    0.00052865
     atom   11 type  2   force =    -0.00052865   -0.00069573   -0.00002245
     atom   12 type  2   force =    -0.00002245    0.00069573    0.00052865
     atom   13 type  2   force =    -0.00052865    0.00069573    0.00002245
     atom   14 type  2   force =    -0.00002245   -0.00069573   -0.00052865
     atom   15 type  2   force =     0.00052865   -0.00069573    0.00002245
     atom   16 type  2   force =     0.00002245    0.00069573   -0.00052865
     atom   17 type  2   force =     0.00013929    0.00063521    0.00012929
     atom   18 type  2   force =    -0.00020158    0.00094932   -0.00041372
     atom   19 type  2   force =    -0.00013929   -0.00063521    0.00012929
     atom   20 type  2   force =     0.00020158   -0.00094932   -0.00041372
     atom   21 type  2   force =    -0.00013929    0.00063521   -0.00012929
     atom   22 type  2   force =     0.00020158    0.00094932    0.00041372
     atom   23 type  2   force =     0.00013929   -0.00063521   -0.00012929
     atom   24 type  2   force =    -0.00020158   -0.00094932    0.00041372
     atom   25 type  2   force =     0.00041372    0.00094932    0.00020158
     atom   26 type  2   force =    -0.00012929   -0.00063521    0.00013929
     atom   27 type  2   force =    -0.00041372   -0.00094932    0.00020158
     atom   28 type  2   force =     0.00012929    0.00063521    0.00013929
     atom   29 type  2   force =    -0.00041372    0.00094932   -0.00020158
     atom   30 type  2   force =     0.00012929   -0.00063521   -0.00013929
     atom   31 type  2   force =     0.00041372   -0.00094932   -0.00020158
     atom   32 type  2   force =    -0.00012929    0.00063521   -0.00013929

     Total force =     0.000000     Total SCF correction =     0.000000

     Computing stress (Cartesian axis) and pressure

          total   stress  (Ry/bohr**3)                   (kbar)     P=   -0.03
  -0.00000006   0.00000000   0.00000000         -0.01      0.00      0.00
   0.00000000  -0.00000057   0.00000000          0.00     -0.08      0.00
   0.00000000   0.00000000  -0.00000006          0.00      0.00     -0.01

     Writing output data file Landau_9.save

     General routines

     Parallel routines

   This run was terminated on:   1:39: 1   1May2019

   JOB DONE.