     Program PWSCF v.6.2 (svn rev. 14038) starts on 10Sep2019 at 19: 2: 8

     K-points division:     npool     =      40
     Reading input from scf.in

     Current dimensions of program PWSCF are:
     Max number of different atomic species (ntypx) = 10
     Max number of k-points (npk) =  40000
     Max angular momentum in pseudopotentials (lmaxx) =  3

     Subspace diagonalization in iterative solution of the eigenvalue problem:
     a serial algorithm will be used

     bravais-lattice index     =            0
     lattice parameter (alat)  =      13.8835  a.u.
     unit-cell volume          =    2758.0255 (a.u.)^3
     number of atoms/cell      =           32
     number of atomic types    =            2
     number of electrons       =       368.15
     number of Kohn-Sham states=          221
     kinetic-energy cutoff     =     120.0000  Ry
     charge density cutoff     =     480.0000  Ry
     convergence threshold     =      1.0E-08
     mixing beta               =       0.7000
     number of iterations used =            8  plain     mixing
     Exchange-correlation      = SLA PW NOGX NOGC ( 1  4  0  0 0 0)

     celldm(1)=  13.883470  celldm(2)=   0.000000  celldm(3)=   0.000000
     celldm(4)=   0.000000  celldm(5)=   0.000000  celldm(6)=   0.000000

     crystal axes: (cart. coord. in units of alat)
               a(1) = (   1.000000   0.000000   0.000000 )
               a(2) = (   0.000000   1.030633   0.000000 )
               a(3) = (   0.000000   0.000000   1.000000 )

     reciprocal axes: (cart. coord. in units 2 pi/alat)
               b(1) = (  1.000000  0.000000  0.000000 )
               b(2) = (  0.000000  0.970277  0.000000 )
               b(3) = (  0.000000  0.000000  1.000000 )

     PseudoPot. # 1 for W  read from file:
     /cluster/scratch/mnoe/QE/pps/W_ONCV_LDA-4.0.upf
     MD5 check sum: ba0307d5d4cd419d6f1d13dc49d7c13a
     Pseudo is Norm-conserving + core correction, Zval = 28.0
     Generated using ONCVPSP code by D. R. Hamann
     Using radial grid of 1380 points,  8 beta functions with:
                l(1) =   0
                l(2) =   0
                l(3) =   1
                l(4) =   1
                l(5) =   2
                l(6) =   2
                l(7) =   3
                l(8) =   3

     PseudoPot. # 2 for O  read from file:
     /cluster/scratch/mnoe/QE/pps/O_ONCV_LDA-3.0.upf
     MD5 check sum: ca1549d10c4e927e51167f6fca52ae32
     Pseudo is Norm-conserving + core correction, Zval =  6.0
     Generated using ONCVPSP code by D. R. Hamann
     Using radial grid of  926 points,  5 beta functions with:
                l(1) =   0
                l(2) =   0
                l(3) =   1
                l(4) =   1
                l(5) =   2

     atomic species   valence    mass     pseudopotential
        W             28.00   183.84000     W ( 1.00)
        O              6.00    15.99940     O ( 1.00)

      8 Sym. Ops. (no inversion) found ( 4 have fractional translation)

   Cartesian axes

     site n.     atom                  positions (alat units)
         1           W   tau(   1) = (   0.2778800   0.2904943   0.2508000  )
         2           W   tau(   2) = (  -0.2508000   0.7401390  -0.7221200  )
         3           W   tau(   3) = (   0.2221200   0.2248224   0.7508000  )
         4           W   tau(   4) = (   0.7508000   0.8058109   0.7778800  )
         5           W   tau(   5) = (   0.7221200   0.2904943   0.7492000  )
         6           W   tau(   6) = (   0.2508000   0.7401390   0.7221200  )
         7           W   tau(   7) = (  -0.2221200   0.2248224  -0.7508000  )
         8           W   tau(   8) = (   0.2492000   0.8058109   0.2221200  )
         9           O   tau(   9) = (   0.2806600   0.0085749   0.2722400  )
        10           O   tau(  10) = (  -0.2722399   1.0220585  -0.7193400  )
        11           O   tau(  11) = (   0.2193400   0.5067418   0.7722400  )
        12           O   tau(  12) = (   0.7722400   0.5238915   0.7806600  )
        13           O   tau(  13) = (   0.7193400   0.0085749   0.7277600  )
        14           O   tau(  14) = (   0.2722400   1.0220585   0.7193400  )
        15           O   tau(  15) = (  -0.2193400   0.5067418  -0.7722399  )
        16           O   tau(  16) = (   0.2277600   0.5238915   0.2193400  )
        17           O   tau(  17) = (   0.4901399   0.2917207   0.6995400  )
        18           O   tau(  18) = (   0.4979800   0.7511152   0.8004600  )
        19           O   tau(  19) = (  -0.9901400   0.2235959   1.1995400  )
        20           O   tau(  20) = (   0.0020199   0.7948347   0.3004600  )
        21           O   tau(  21) = (   0.5098601   0.2917207   0.3004600  )
        22           O   tau(  22) = (   0.5020200   0.7511152   1.1995400  )
        23           O   tau(  23) = (  -0.0098601   0.2235959   0.8004600  )
        24           O   tau(  24) = (  -1.0020200   0.7948347   0.6995400  )
        25           O   tau(  25) = (   0.6995400   0.2357986   2.0020200  )
        26           O   tau(  26) = (   0.3004600   0.7389125   0.4901400  )
        27           O   tau(  27) = (   0.8004600   0.2795181   0.5020199  )
        28           O   tau(  28) = (   0.1995400   0.8070373   1.9901400  )
        29           O   tau(  29) = (   0.3004600   0.2357986   0.9979801  )
        30           O   tau(  30) = (   0.6995400   0.7389125   0.5098600  )
        31           O   tau(  31) = (   0.1995400   0.2795181   0.4979800  )
        32           O   tau(  32) = (   0.8004600   0.8070373   1.0098601  )

     number of k points=    40  gaussian smearing, width (Ry)=  0.0007
                       cart. coord. in units 2pi/alat
        k(    1) = (   0.0000000   0.0000000   0.0000000), wk =   0.0092593
        k(    2) = (   0.0000000   0.0000000   0.1666667), wk =   0.0370370
        k(    3) = (   0.0000000   0.0000000   0.3333333), wk =   0.0370370
        k(    4) = (   0.0000000   0.0000000  -0.5000000), wk =   0.0185185
        k(    5) = (   0.0000000   0.1617129   0.0000000), wk =   0.0185185
        k(    6) = (   0.0000000   0.1617129   0.1666667), wk =   0.0740741
        k(    7) = (   0.0000000   0.1617129   0.3333333), wk =   0.0740741
        k(    8) = (   0.0000000   0.1617129  -0.5000000), wk =   0.0370370
        k(    9) = (   0.0000000   0.3234257   0.0000000), wk =   0.0185185
        k(   10) = (   0.0000000   0.3234257   0.1666667), wk =   0.0740741
        k(   11) = (   0.0000000   0.3234257   0.3333333), wk =   0.0740741
        k(   12) = (   0.0000000   0.3234257  -0.5000000), wk =   0.0370370
        k(   13) = (   0.0000000  -0.4851386   0.0000000), wk =   0.0092593
        k(   14) = (   0.0000000  -0.4851386   0.1666667), wk =   0.0370370
        k(   15) = (   0.0000000  -0.4851386   0.3333333), wk =   0.0370370
        k(   16) = (   0.0000000  -0.4851386  -0.5000000), wk =   0.0185185
        k(   17) = (   0.1666667   0.0000000   0.1666667), wk =   0.0370370
        k(   18) = (   0.1666667   0.0000000   0.3333333), wk =   0.0740741
        k(   19) = (   0.1666667   0.0000000  -0.5000000), wk =   0.0370370
        k(   20) = (   0.1666667   0.1617129   0.1666667), wk =   0.0740741
        k(   21) = (   0.1666667   0.1617129   0.3333333), wk =   0.1481481
        k(   22) = (   0.1666667   0.1617129  -0.5000000), wk =   0.0740741
        k(   23) = (   0.1666667   0.3234257   0.1666667), wk =   0.0740741
        k(   24) = (   0.1666667   0.3234257   0.3333333), wk =   0.1481481
        k(   25) = (   0.1666667   0.3234257  -0.5000000), wk =   0.0740741
        k(   26) = (   0.1666667  -0.4851386   0.1666667), wk =   0.0370370
        k(   27) = (   0.1666667  -0.4851386   0.3333333), wk =   0.0740741
        k(   28) = (   0.1666667  -0.4851386  -0.5000000), wk =   0.0370370
        k(   29) = (   0.3333333   0.0000000   0.3333333), wk =   0.0370370
        k(   30) = (   0.3333333   0.0000000  -0.5000000), wk =   0.0370370
        k(   31) = (   0.3333333   0.1617129   0.3333333), wk =   0.0740741
        k(   32) = (   0.3333333   0.1617129  -0.5000000), wk =   0.0740741
        k(   33) = (   0.3333333   0.3234257   0.3333333), wk =   0.0740741
        k(   34) = (   0.3333333   0.3234257  -0.5000000), wk =   0.0740741
        k(   35) = (   0.3333333  -0.4851386   0.3333333), wk =   0.0370370
        k(   36) = (   0.3333333  -0.4851386  -0.5000000), wk =   0.0370370
        k(   37) = (  -0.5000000   0.0000000  -0.5000000), wk =   0.0092593
        k(   38) = (  -0.5000000   0.1617129  -0.5000000), wk =   0.0185185
        k(   39) = (  -0.5000000   0.3234257  -0.5000000), wk =   0.0185185
        k(   40) = (  -0.5000000  -0.4851386  -0.5000000), wk =   0.0092593

     Initial potential from superposition of free atoms

     starting charge  367.99656, renormalised to  368.15000
     Starting wfc are  232 randomized atomic wfcs

     Self-consistent Calculation

     iteration #  1     ecut=   120.00 Ry     beta= 0.70
     Davidson diagonalization with overlap
     ethr =  1.00E-02,  avg # of iterations =  4.8

     total energy              =   -6253.87318246 Ry
     Harris-Foulkes estimate   =   -6264.42113848 Ry
     estimated scf accuracy    <      13.34433623 Ry

[...]

     total energy              =   -6260.96710319 Ry
     Harris-Foulkes estimate   =   -6260.96710320 Ry
     estimated scf accuracy    <       0.00000001 Ry

     iteration # 13     ecut=   120.00 Ry     beta= 0.70
     Davidson diagonalization with overlap
     ethr =  2.88E-12,  avg # of iterations =  2.2

     End of self-consistent calculation

          k = 0.0000 0.0000 0.0000 ( 61317 PWs)   bands (ev):

   -65.8209 -65.8203 -65.8199 -65.8199 -65.8193 -65.8193 -65.8190 -65.8184
   -30.3058 -30.3001 -30.2979 -30.2979 -30.2320 -30.2285 -30.2285 -30.2107
   -30.1893 -30.1741 -30.1740 -30.1598 -30.1202 -30.1151 -30.1151 -30.1110
   -30.1091 -30.1082 -30.0995 -30.0995 -30.0234 -30.0234 -30.0187 -30.0171
   -19.9732 -19.9731 -19.9728 -19.9728 -19.9727 -19.9726 -19.9724 -19.9723
   -19.9595 -19.9594 -19.9594 -19.9591 -19.9591 -19.9587 -19.9587 -19.9587
   -19.9546 -19.9540 -19.9540 -19.9539 -19.9503 -19.9497 -19.9497 -19.9489
   -19.9459 -19.9451 -19.9451 -19.9444 -19.9406 -19.9396 -19.9396 -19.9389
   -19.9389 -19.9388 -19.9387 -19.9387 -19.9370 -19.9370 -19.9364 -19.9356
   -19.9316 -19.9315 -19.9300 -19.9299 -19.9274 -19.9273 -19.9265 -19.9263
   -19.9235 -19.9231 -19.9228 -19.9228 -19.9205 -19.9205 -19.9200 -19.9197
    -9.6871  -9.3640  -9.2608  -9.2608  -8.8502  -8.8502  -8.7884  -8.6772
    -8.6067  -8.5044  -8.4844  -8.4844  -7.7745  -7.7099  -7.5983  -7.5983
    -7.5105  -7.4431  -7.4431  -7.4074  -7.4046  -7.3906  -7.2587  -7.2587
     1.5906   1.6293   1.6459   1.6459   1.7921   1.8413   1.8413   1.9025
     1.9979   1.9979   2.0947   2.2841   2.6428   2.7371   2.7683   2.9166
     2.9771   2.9771   4.4443   4.4443   4.7753   4.7824   4.7999   4.9491
     4.9491   5.0554   5.0554   5.0687   5.3974   5.3974   5.5430   5.6244
     5.6470   5.7301   5.7301   5.7982   5.9265   5.9265   6.0352   6.0403
     6.0510   6.0510   6.0889   6.1275   6.1275   6.1952   6.2586   6.3503
     6.4378   6.6950   6.6950   6.6959   6.7538   6.7689   7.1284   7.1284
     7.1326   7.2018   7.2058   7.2716   7.2716   7.3696   7.3696   7.3984
     7.7286   7.7286   7.9424   7.9806   8.1799   8.2550   8.2550   8.4117
    10.1078  10.1939  10.4954  10.4991  10.4991  10.5367  12.4668  12.4669
    12.5499  12.5988  12.5988  12.8335  12.8963  13.0282  13.0282  13.2156
    13.3541  13.5349  13.5349  13.5760  13.9533  14.0349  14.0349  14.2888
    14.8966  15.0820  15.0820  15.1952  15.6358  15.8208  15.9763  16.1863
    16.1863  16.9470  17.1967  17.1967  17.9089

[...]

          k = 0.3333-0.4851-0.5000 ( 61232 PWs)   bands (ev):

[...]

          k =-0.5000 0.0000-0.5000 ( 61148 PWs)   bands (ev):

[...]

          k =-0.5000-0.4851-0.5000 ( 61200 PWs)   bands (ev):

   -65.8197 -65.8197 -65.8196 -65.8196 -65.8196 -65.8196 -65.8196 -65.8196
   -30.2596 -30.2596 -30.2583 -30.2583 -30.2583 -30.2583 -30.2583 -30.2583
   -30.1491 -30.1491 -30.1490 -30.1490 -30.1490 -30.1490 -30.1479 -30.1479
   -30.0633 -30.0633 -30.0633 -30.0633 -30.0632 -30.0632 -30.0631 -30.0630
   -19.9728 -19.9728 -19.9728 -19.9727 -19.9727 -19.9727 -19.9727 -19.9727
   -19.9592 -19.9592 -19.9592 -19.9592 -19.9591 -19.9591 -19.9591 -19.9591
   -19.9518 -19.9518 -19.9518 -19.9518 -19.9517 -19.9517 -19.9516 -19.9516
   -19.9425 -19.9425 -19.9425 -19.9425 -19.9425 -19.9425 -19.9424 -19.9424
   -19.9378 -19.9378 -19.9378 -19.9377 -19.9377 -19.9377 -19.9377 -19.9377
   -19.9288 -19.9288 -19.9288 -19.9288 -19.9287 -19.9287 -19.9286 -19.9286
   -19.9219 -19.9219 -19.9219 -19.9218 -19.9218 -19.9218 -19.9218 -19.9217
    -8.7528  -8.7528  -8.6905  -8.6905  -8.6709  -8.6709  -8.6709  -8.6709
    -8.2076  -8.2076  -8.1199  -8.1199  -8.1199  -8.1199  -8.0837  -8.0837
    -7.9949  -7.9949  -7.9949  -7.9948  -7.9245  -7.9245  -7.9040  -7.9040
     3.1340   3.1341   3.1341   3.1341   3.1433   3.1433   3.1864   3.1864
     3.3531   3.3531   3.4895   3.4895   3.4895   3.4895   3.5871   3.5872
     3.6657   3.6658   3.7886   3.7886   3.7886   3.7886   3.8066   3.8067
     4.3719   4.3720   4.3822   4.3822   4.4683   4.4683   4.4683   4.4683
     4.6667   4.6667   4.6667   4.6667   4.6675   4.6675   4.7735   4.7735
     4.8198   4.8198   4.8951   4.8951   4.8996   4.8996   4.8996   4.8997
     7.2198   7.2198   7.3656   7.3656   7.3657   7.3657   7.5330   7.5331
     7.6172   7.6172   7.6172   7.6172   7.6613   7.6614   7.7547   7.7548
     7.8557   7.8557   7.8708   7.8709   7.8709   7.8709   7.9521   7.9522
    12.1512  12.1512  12.1964  12.1964  12.1964  12.1964  12.2293  12.2293
    12.5413  12.5413  12.5413  12.5414  12.5479  12.5479  12.7785  12.7785
    12.8198  12.8198  12.9594  12.9594  12.9594  12.9594  12.9896  12.9896
    17.1305  17.1305  17.1305  17.1305  17.2266  17.2267  17.2857  17.2857
    17.6057  17.6156  17.6157  17.6157  17.6157

     the Fermi energy is    10.3504 ev

!    total energy              =   -6260.96710319 Ry
     Harris-Foulkes estimate   =   -6260.96710319 Ry
     estimated scf accuracy    <          7.7E-10 Ry

     The total energy is the sum of the following terms:

     one-electron contribution =   -4632.96924130 Ry
     hartree contribution      =    2557.64727012 Ry
     xc contribution           =    -965.79972052 Ry
     ewald contribution        =   -3219.84540924 Ry
     smearing contrib. (-TS)   =      -0.00000225 Ry

     convergence has been achieved in  13 iterations

     Writing output data file Landau_31.save

     General routines

     Parallel routines

   This run was terminated on:  19:18:20  10Sep2019

   JOB DONE.