     Program PWSCF v.6.4.1 starts on 17Dec2019 at 13:54:31

     K-points division:     npool     =      40
     Reading input from scf.in

     Current dimensions of program PWSCF are:
     Max number of different atomic species (ntypx) = 10
     Max number of k-points (npk) =  40000
     Max angular momentum in pseudopotentials (lmaxx) =  3

     Subspace diagonalization in iterative solution of the eigenvalue problem:
     a serial algorithm will be used

     Message from routine setup:
     using ibrav=0 with symmetry is DISCOURAGED, use correct ibrav instead

     bravais-lattice index     =            0
     lattice parameter (alat)  =       9.8425  a.u.
     unit-cell volume          =    1413.5653 (a.u.)^3
     number of atoms/cell      =           16
     number of atomic types    =            2
     number of electrons       =       184.35
     number of Kohn-Sham states=          111
     kinetic-energy cutoff     =     120.0000  Ry
     charge density cutoff     =     480.0000  Ry
     convergence threshold     =      1.0E-08
     mixing beta               =       0.7000
     number of iterations used =            8  plain     mixing
     Exchange-correlation      = SLA PW NOGX NOGC ( 1  4  0  0 0 0)

     celldm(1)=   9.842482  celldm(2)=   0.000000  celldm(3)=   0.000000
     celldm(4)=   0.000000  celldm(5)=   0.000000  celldm(6)=   0.000000

     crystal axes: (cart. coord. in units of alat)
               a(1) = (   1.000000   0.000000   0.000000 )
               a(2) = (   0.000000   1.000000   0.000000 )
               a(3) = (   0.000000   0.000000   1.482525 )

     reciprocal axes: (cart. coord. in units 2 pi/alat)
               b(1) = (  1.000000  0.000000  0.000000 )
               b(2) = (  0.000000  1.000000  0.000000 )
               b(3) = (  0.000000  0.000000  0.674525 )

     PseudoPot. # 1 for W  read from file:
     /cluster/scratch/mnoe/QE/pps/W_ONCV_LDA-4.0.upf
     MD5 check sum: ba0307d5d4cd419d6f1d13dc49d7c13a
     Pseudo is Norm-conserving + core correction, Zval = 28.0
     Generated using ONCVPSP code by D. R. Hamann
     Using radial grid of 1380 points,  8 beta functions with:
                l(1) =   0
                l(2) =   0
                l(3) =   1
                l(4) =   1
                l(5) =   2
                l(6) =   2
                l(7) =   3
                l(8) =   3

     PseudoPot. # 2 for O  read from file:
     /cluster/scratch/mnoe/QE/pps/O_ONCV_LDA-3.0.upf
     MD5 check sum: b55cdb4f45ae2203d24ad12cf8d61a31
     Pseudo is Norm-conserving + core correction, Zval =  6.0
     Generated using ONCVPSP code by D. R. Hamann
     Using radial grid of  926 points,  5 beta functions with:
                l(1) =   0
                l(2) =   0
                l(3) =   1
                l(4) =   1
                l(5) =   2

     atomic species   valence    mass     pseudopotential
        W             28.00   183.84000     W ( 1.00)
        O              6.00    15.99940     O ( 1.00)

     16 Sym. Ops., with inversion, found (14 have fractional translation)

   Cartesian axes

     site n.     atom                  positions (alat units)
         1           W   tau(   1) = (   0.2500000   0.2500000   0.3203484  )
         2           W   tau(   2) = (   0.7500000   0.7500000   1.1621764  )
         3           W   tau(   3) = (   0.7500000   0.7500000   0.4209140  )
         4           W   tau(   4) = (   0.2500000   0.2500000   1.0616108  )
         5           O   tau(   5) = (   0.2500000   0.2500000   0.7231982  )
         6           O   tau(   6) = (   0.7500000   0.7500000   0.7593267  )
         7           O   tau(   7) = (   0.7500000   0.7500000   0.0180643  )
         8           O   tau(   8) = (   0.2500000   0.2500000   1.4644606  )
         9           O   tau(   9) = (   0.4599425   0.5400575   0.3706312  )
        10           O   tau(  10) = (   0.5400575   0.4599425   1.1118936  )
        11           O   tau(  11) = (   0.0400575   0.9599425   0.3706312  )
        12           O   tau(  12) = (   0.9599424   0.0400576   1.1118936  )
        13           O   tau(  13) = (   0.9599425   0.4599425   0.3706312  )
        14           O   tau(  14) = (   0.0400576   0.5400575   1.1118936  )
        15           O   tau(  15) = (   0.5400575   0.0400575   0.3706312  )
        16           O   tau(  16) = (   0.4599425   0.9599424   1.1118936  )

     number of k points=    60  gaussian smearing, width (Ry)=  0.0007
                       cart. coord. in units 2pi/alat
        k(    1) = (   0.0000000   0.0000000   0.0000000), wk =   0.0041152
        k(    2) = (   0.0000000   0.0000000   0.1124208), wk =   0.0082305
        k(    3) = (   0.0000000   0.0000000   0.2248417), wk =   0.0082305
        k(    4) = (   0.0000000   0.0000000  -0.3372625), wk =   0.0041152
        k(    5) = (   0.0000000   0.1111111   0.0000000), wk =   0.0164609
        k(    6) = (   0.0000000   0.1111111   0.1124208), wk =   0.0329218
        k(    7) = (   0.0000000   0.1111111   0.2248417), wk =   0.0329218
        k(    8) = (   0.0000000   0.1111111  -0.3372625), wk =   0.0164609
        k(    9) = (   0.0000000   0.2222222   0.0000000), wk =   0.0164609
        k(   10) = (   0.0000000   0.2222222   0.1124208), wk =   0.0329218
        k(   11) = (   0.0000000   0.2222222   0.2248417), wk =   0.0329218
        k(   12) = (   0.0000000   0.2222222  -0.3372625), wk =   0.0164609
        k(   13) = (   0.0000000   0.3333333   0.0000000), wk =   0.0164609
        k(   14) = (   0.0000000   0.3333333   0.1124208), wk =   0.0329218
        k(   15) = (   0.0000000   0.3333333   0.2248417), wk =   0.0329218
        k(   16) = (   0.0000000   0.3333333  -0.3372625), wk =   0.0164609
        k(   17) = (   0.0000000   0.4444444   0.0000000), wk =   0.0164609
        k(   18) = (   0.0000000   0.4444444   0.1124208), wk =   0.0329218
        k(   19) = (   0.0000000   0.4444444   0.2248417), wk =   0.0329218
        k(   20) = (   0.0000000   0.4444444  -0.3372625), wk =   0.0164609
        k(   21) = (   0.1111111   0.1111111   0.0000000), wk =   0.0164609
        k(   22) = (   0.1111111   0.1111111   0.1124208), wk =   0.0329218
        k(   23) = (   0.1111111   0.1111111   0.2248417), wk =   0.0329218
        k(   24) = (   0.1111111   0.1111111  -0.3372625), wk =   0.0164609
        k(   25) = (   0.1111111   0.2222222   0.0000000), wk =   0.0329218
        k(   26) = (   0.1111111   0.2222222   0.1124208), wk =   0.0658436
        k(   27) = (   0.1111111   0.2222222   0.2248417), wk =   0.0658436
        k(   28) = (   0.1111111   0.2222222  -0.3372625), wk =   0.0329218
        k(   29) = (   0.1111111   0.3333333   0.0000000), wk =   0.0329218
        k(   30) = (   0.1111111   0.3333333   0.1124208), wk =   0.0658436
        k(   31) = (   0.1111111   0.3333333   0.2248417), wk =   0.0658436
        k(   32) = (   0.1111111   0.3333333  -0.3372625), wk =   0.0329218
        k(   33) = (   0.1111111   0.4444444   0.0000000), wk =   0.0329218
        k(   34) = (   0.1111111   0.4444444   0.1124208), wk =   0.0658436
        k(   35) = (   0.1111111   0.4444444   0.2248417), wk =   0.0658436
        k(   36) = (   0.1111111   0.4444444  -0.3372625), wk =   0.0329218
        k(   37) = (   0.2222222   0.2222222   0.0000000), wk =   0.0164609
        k(   38) = (   0.2222222   0.2222222   0.1124208), wk =   0.0329218
        k(   39) = (   0.2222222   0.2222222   0.2248417), wk =   0.0329218
        k(   40) = (   0.2222222   0.2222222  -0.3372625), wk =   0.0164609
        k(   41) = (   0.2222222   0.3333333   0.0000000), wk =   0.0329218
        k(   42) = (   0.2222222   0.3333333   0.1124208), wk =   0.0658436
        k(   43) = (   0.2222222   0.3333333   0.2248417), wk =   0.0658436
        k(   44) = (   0.2222222   0.3333333  -0.3372625), wk =   0.0329218
        k(   45) = (   0.2222222   0.4444444   0.0000000), wk =   0.0329218
        k(   46) = (   0.2222222   0.4444444   0.1124208), wk =   0.0658436
        k(   47) = (   0.2222222   0.4444444   0.2248417), wk =   0.0658436
        k(   48) = (   0.2222222   0.4444444  -0.3372625), wk =   0.0329218
        k(   49) = (   0.3333333   0.3333333   0.0000000), wk =   0.0164609
        k(   50) = (   0.3333333   0.3333333   0.1124208), wk =   0.0329218
        k(   51) = (   0.3333333   0.3333333   0.2248417), wk =   0.0329218
        k(   52) = (   0.3333333   0.3333333  -0.3372625), wk =   0.0164609
        k(   53) = (   0.3333333   0.4444444   0.0000000), wk =   0.0329218
        k(   54) = (   0.3333333   0.4444444   0.1124208), wk =   0.0658436
        k(   55) = (   0.3333333   0.4444444   0.2248417), wk =   0.0658436
        k(   56) = (   0.3333333   0.4444444  -0.3372625), wk =   0.0329218
        k(   57) = (   0.4444444   0.4444444   0.0000000), wk =   0.0164609
        k(   58) = (   0.4444444   0.4444444   0.1124208), wk =   0.0329218
        k(   59) = (   0.4444444   0.4444444   0.2248417), wk =   0.0329218
        k(   60) = (   0.4444444   0.4444444  -0.3372625), wk =   0.0164609

     Initial potential from superposition of free atoms

     starting charge  183.99828, renormalised to  184.35000
     Starting wfcs are  116 randomized atomic wfcs

     Self-consistent Calculation

     iteration #  1     ecut=   120.00 Ry     beta= 0.70
     Davidson diagonalization with overlap
     ethr =  1.00E-02,  avg # of iterations =  5.1

     total energy              =   -3126.67005488 Ry
     Harris-Foulkes estimate   =   -3132.11858844 Ry
     estimated scf accuracy    <       6.85748866 Ry

[...]

     total energy              =   -3130.30904429 Ry
     Harris-Foulkes estimate   =   -3130.30904432 Ry
     estimated scf accuracy    <       0.00000005 Ry

     iteration # 12     ecut=   120.00 Ry     beta= 0.70
     Davidson diagonalization with overlap
     ethr =  2.54E-11,  avg # of iterations =  2.0

     End of self-consistent calculation

          k = 0.0000 0.0000 0.0000 ( 31423 PWs)   bands (ev):

   -66.1468 -66.1464 -66.1451 -66.1446 -30.5846 -30.5787 -30.5215 -30.5169
   -30.4793 -30.4793 -30.4758 -30.4758 -30.3885 -30.3885 -30.3857 -30.3857
   -20.2991 -20.2988 -20.2948 -20.2947 -20.2946 -20.2945 -20.2934 -20.2930
   -20.2867 -20.2867 -20.2856 -20.2856 -20.2839 -20.2839 -20.2827 -20.2827
   -20.2750 -20.2749 -20.2745 -20.2744 -20.2440 -20.2440 -20.2440 -20.2440
   -20.2400 -20.2400 -20.2400 -20.2400 -10.0304  -9.7098  -9.2215  -9.0847
    -9.0689  -8.9696  -7.9499  -7.8383  -7.7141  -7.7141  -7.6915  -7.6915
     1.1235   1.1235   1.2402   1.4794   1.5232   1.6969   2.3925   2.4792
     2.5794   2.5794   4.0685   4.0685   4.8734   4.8734   4.9674   5.4719
     5.4719   5.4894   5.4894   5.7274   5.7274   5.8666   5.8839   6.6624
     6.6624   6.8007   6.9843   6.9899   7.2632   7.2632   7.2942   7.2942
     7.9542   7.9639   8.0390   8.0390   9.1434   9.1467   9.8570   9.8570
    12.2971  12.2971  13.1053  13.1054  13.3461  13.3461  13.6717  14.1428
    14.1428  14.6914  15.1324  15.1406  15.4633  16.6703  17.2450

[...]

          k = 0.4444 0.4444-0.3373 ( 31402 PWs)   bands (ev):

   -66.1458 -66.1457 -66.1457 -66.1457 -30.5506 -30.5506 -30.5505 -30.5505
   -30.4825 -30.4825 -30.4797 -30.4797 -30.3857 -30.3856 -30.3829 -30.3829
   -20.2961 -20.2961 -20.2961 -20.2961 -20.2946 -20.2946 -20.2946 -20.2946
   -20.2862 -20.2862 -20.2861 -20.2861 -20.2833 -20.2833 -20.2832 -20.2832
   -20.2747 -20.2747 -20.2747 -20.2747 -20.2455 -20.2455 -20.2454 -20.2454
   -20.2387 -20.2387 -20.2385 -20.2385  -9.4084  -9.4084  -9.3649  -9.3648
    -8.5537  -8.5537  -8.5483  -8.5483  -7.8667  -7.8667  -7.8082  -7.8082
     1.2365   1.2365   1.3507   1.3507   3.0899   3.0899   3.0951   3.0951
     3.3348   3.3348   3.3608   3.3609   4.5530   4.5530   4.7692   4.7692
     5.1396   5.1396   5.2389   5.2389   5.8531   5.8531   6.0153   6.0153
     6.1012   6.1012   6.2467   6.2467   6.6481   6.6481   6.7402   6.7403
     7.3780   7.3780   7.3879   7.3879  11.2388  11.2388  11.2972  11.2972
    12.3034  12.3034  12.3806  12.3806  13.4723  13.4723  13.5582  13.5582
    15.4566  15.4566  15.6032  15.6032  17.8565  17.8565  18.0500

     the Fermi energy is     9.7469 ev

!    total energy              =   -3130.30904430 Ry
     Harris-Foulkes estimate   =   -3130.30904430 Ry
     estimated scf accuracy    <          1.8E-09 Ry

     The total energy is the sum of the following terms:

     one-electron contribution =   -2378.02443969 Ry
     hartree contribution      =    1307.56274890 Ry
     xc contribution           =    -483.22697495 Ry
     ewald contribution        =   -1576.62036056 Ry
     smearing contrib. (-TS)   =      -0.00001801 Ry

     convergence has been achieved in  12 iterations

     Writing output data file chempot_7.save/

     General routines

     Parallel routines

   This run was terminated on:  14: 0:22  17Dec2019

   JOB DONE.