     Program PWSCF v.6.2 (svn rev. 14038) starts on 20Mar2020 at  4:41:17

     K-points division:     npool     =      40
     Reading input from rscf.in

     Current dimensions of program PWSCF are:
     Max number of different atomic species (ntypx) = 10
     Max number of k-points (npk) =  40000
     Max angular momentum in pseudopotentials (lmaxx) =  3

     Subspace diagonalization in iterative solution of the eigenvalue problem:
     a serial algorithm will be used

     bravais-lattice index     =            0
     lattice parameter (alat)  =      13.8397  a.u.
     unit-cell volume          =    2804.9816 (a.u.)^3
     number of atoms/cell      =           32
     number of atomic types    =            2
     number of electrons       =       368.00
     number of Kohn-Sham states=          221
     kinetic-energy cutoff     =     120.0000  Ry
     charge density cutoff     =     480.0000  Ry
     convergence threshold     =      1.0E-08
     mixing beta               =       0.7000
     number of iterations used =            8  plain     mixing
     Exchange-correlation      = SLA PW NOGX NOGC ( 1  4  0  0 0 0)
     nstep                     =           50

     celldm(1)=  13.839685  celldm(2)=   0.000000  celldm(3)=   0.000000
     celldm(4)=   0.000000  celldm(5)=   0.000000  celldm(6)=   0.000000

     crystal axes: (cart. coord. in units of alat)
               a(1) = (   1.000000   0.000000   0.000000 )
               a(2) = (   0.000000   1.058160   0.000000 )
               a(3) = (   0.000000   0.000000   1.000000 )

     reciprocal axes: (cart. coord. in units 2 pi/alat)
               b(1) = (  1.000000  0.000000  0.000000 )
               b(2) = (  0.000000  0.945037  0.000000 )
               b(3) = (  0.000000  0.000000  1.000000 )

     PseudoPot. # 1 for W  read from file:
     /cluster/scratch/mnoe/QE/pps/W_ONCV_LDA-4.0.upf
     MD5 check sum: ba0307d5d4cd419d6f1d13dc49d7c13a
     Pseudo is Norm-conserving + core correction, Zval = 28.0
     Generated using ONCVPSP code by D. R. Hamann
     Using radial grid of 1380 points,  8 beta functions with:
                l(1) =   0
                l(2) =   0
                l(3) =   1
                l(4) =   1
                l(5) =   2
                l(6) =   2
                l(7) =   3
                l(8) =   3

     PseudoPot. # 2 for O  read from file:
     /cluster/scratch/mnoe/QE/pps/O_ONCV_LDA-3.0.upf
     MD5 check sum: a1bd6164e7280c17a38c229939bfbd54
     Pseudo is Norm-conserving + core correction, Zval =  6.0
     Generated using ONCVPSP code by D. R. Hamann
     Using radial grid of  926 points,  5 beta functions with:
                l(1) =   0
                l(2) =   0
                l(3) =   1
                l(4) =   1
                l(5) =   2

     atomic species   valence    mass     pseudopotential
        W             28.00   183.84000     W ( 1.00)
        O              6.00    15.99940     O ( 1.00)

      8 Sym. Ops., with inversion, found ( 6 have fractional translation)

   Cartesian axes

     site n.     atom                  positions (alat units)
         1           W   tau(   1) = (   0.2406450   0.2870332   0.0088342  )
         2           W   tau(   2) = (   0.7593550   0.7711269  -0.0088342  )
         3           W   tau(   3) = (   0.2593550   0.2420469   0.5088342  )
         4           W   tau(   4) = (   0.7406449   0.8161133   0.4911658  )
         5           W   tau(   5) = (   0.7593550   0.2870332   0.4911658  )
         6           W   tau(   6) = (   0.2406450   0.7711269   0.5088342  )
         7           W   tau(   7) = (   0.7406449   0.2420469  -0.0088342  )
         8           W   tau(   8) = (   0.2593550   0.8161133   0.0088342  )
         9           O   tau(   9) = (   0.2327412   0.0057473   0.0027458  )
        10           O   tau(  10) = (   0.7672587  -0.0057473  -0.0027458  )
        11           O   tau(  11) = (   0.2672588   0.5233328   0.5027458  )
        12           O   tau(  12) = (   0.7327412   0.5348274   0.4972542  )
        13           O   tau(  13) = (   0.7672587   0.0057473   0.4972542  )
        14           O   tau(  14) = (   0.2327412  -0.0057473   0.5027458  )
        15           O   tau(  15) = (   0.7327412   0.5233328  -0.0027458  )
        16           O   tau(  16) = (   0.2672588   0.5348274   0.0027458  )
        17           O   tau(  17) = (   0.5025587   0.2458066   0.4754667  )
        18           O   tau(  18) = (   0.4974413   0.8123535   0.5245334  )
        19           O   tau(  19) = (  -0.0025587   0.2832734   0.9754668  )
        20           O   tau(  20) = (   0.0025587   0.7748867   0.0245332  )
        21           O   tau(  21) = (   0.4974413   0.2458066   0.0245332  )
        22           O   tau(  22) = (   0.5025587   0.8123535   0.9754668  )
        23           O   tau(  23) = (   0.0025587   0.2832734   0.5245334  )
        24           O   tau(  24) = (  -0.0025587   0.7748867   0.4754667  )
        25           O   tau(  25) = (   0.7254667   0.2604520   0.7461214  )
        26           O   tau(  26) = (   0.2745332   0.7977082   0.2538785  )
        27           O   tau(  27) = (   0.7745334   0.2686281   0.2461215  )
        28           O   tau(  28) = (   0.2254667   0.7895320   0.7538785  )
        29           O   tau(  29) = (   0.2745332   0.2604520   0.7538785  )
        30           O   tau(  30) = (   0.7254667   0.7977082   0.2461215  )
        31           O   tau(  31) = (   0.2254667   0.2686281   0.2538785  )
        32           O   tau(  32) = (   0.7745334   0.7895320   0.7461214  )

     number of k points=    64  gaussian smearing, width (Ry)=  0.0007
                       cart. coord. in units 2pi/alat
        k(    1) = (   0.0000000   0.0000000   0.0000000), wk =   0.0092593
        k(    2) = (   0.0000000   0.0000000   0.1666667), wk =   0.0185185
        k(    3) = (   0.0000000   0.0000000   0.3333333), wk =   0.0185185
        k(    4) = (   0.0000000   0.0000000  -0.5000000), wk =   0.0092593
        k(    5) = (   0.0000000   0.1575061   0.0000000), wk =   0.0185185
        k(    6) = (   0.0000000   0.1575061   0.1666667), wk =   0.0370370
        k(    7) = (   0.0000000   0.1575061   0.3333333), wk =   0.0370370
        k(    8) = (   0.0000000   0.1575061  -0.5000000), wk =   0.0185185
        k(    9) = (   0.0000000   0.3150122   0.0000000), wk =   0.0185185
        k(   10) = (   0.0000000   0.3150122   0.1666667), wk =   0.0370370
        k(   11) = (   0.0000000   0.3150122   0.3333333), wk =   0.0370370
        k(   12) = (   0.0000000   0.3150122  -0.5000000), wk =   0.0185185
        k(   13) = (   0.0000000  -0.4725183   0.0000000), wk =   0.0092593
        k(   14) = (   0.0000000  -0.4725183   0.1666667), wk =   0.0185185
        k(   15) = (   0.0000000  -0.4725183   0.3333333), wk =   0.0185185
        k(   16) = (   0.0000000  -0.4725183  -0.5000000), wk =   0.0092593
        k(   17) = (   0.1666667   0.0000000   0.1666667), wk =   0.0370370
        k(   18) = (   0.1666667   0.0000000   0.3333333), wk =   0.0370370
        k(   19) = (   0.1666667   0.0000000  -0.5000000), wk =   0.0185185
        k(   20) = (   0.1666667   0.1575061   0.1666667), wk =   0.0740741
        k(   21) = (   0.1666667   0.1575061   0.3333333), wk =   0.0740741
        k(   22) = (   0.1666667   0.1575061  -0.5000000), wk =   0.0370370
        k(   23) = (   0.1666667   0.3150122   0.1666667), wk =   0.0740741
        k(   24) = (   0.1666667   0.3150122   0.3333333), wk =   0.0740741
        k(   25) = (   0.1666667   0.3150122  -0.5000000), wk =   0.0370370
        k(   26) = (   0.1666667  -0.4725183   0.1666667), wk =   0.0370370
        k(   27) = (   0.1666667  -0.4725183   0.3333333), wk =   0.0370370
        k(   28) = (   0.1666667  -0.4725183  -0.5000000), wk =   0.0185185
        k(   29) = (   0.3333333   0.0000000   0.3333333), wk =   0.0370370
        k(   30) = (   0.3333333   0.0000000  -0.5000000), wk =   0.0185185
        k(   31) = (   0.3333333   0.1575061   0.3333333), wk =   0.0740741
        k(   32) = (   0.3333333   0.1575061  -0.5000000), wk =   0.0370370
        k(   33) = (   0.3333333   0.3150122   0.3333333), wk =   0.0740741
        k(   34) = (   0.3333333   0.3150122  -0.5000000), wk =   0.0370370
        k(   35) = (   0.3333333  -0.4725183   0.3333333), wk =   0.0370370
        k(   36) = (   0.3333333  -0.4725183  -0.5000000), wk =   0.0185185
        k(   37) = (  -0.5000000   0.0000000  -0.5000000), wk =   0.0092593
        k(   38) = (  -0.5000000   0.1575061  -0.5000000), wk =   0.0185185
        k(   39) = (  -0.5000000   0.3150122  -0.5000000), wk =   0.0185185
        k(   40) = (  -0.5000000  -0.4725183  -0.5000000), wk =   0.0092593
        k(   41) = (   0.1666667   0.0000000   0.0000000), wk =   0.0185185
        k(   42) = (   0.3333333   0.0000000   0.0000000), wk =   0.0185185
        k(   43) = (  -0.5000000   0.0000000   0.0000000), wk =   0.0092593
        k(   44) = (   0.1666667  -0.1575061   0.0000000), wk =   0.0370370
        k(   45) = (   0.3333333  -0.1575061   0.0000000), wk =   0.0370370
        k(   46) = (  -0.5000000  -0.1575061   0.0000000), wk =   0.0185185
        k(   47) = (   0.1666667  -0.3150122   0.0000000), wk =   0.0370370
        k(   48) = (   0.3333333  -0.3150122   0.0000000), wk =   0.0370370
        k(   49) = (  -0.5000000  -0.3150122   0.0000000), wk =   0.0185185
        k(   50) = (   0.1666667   0.4725183   0.0000000), wk =   0.0185185
        k(   51) = (   0.3333333   0.4725183   0.0000000), wk =   0.0185185
        k(   52) = (  -0.5000000   0.4725183   0.0000000), wk =   0.0092593
        k(   53) = (   0.3333333   0.0000000   0.1666667), wk =   0.0370370
        k(   54) = (  -0.5000000   0.0000000   0.1666667), wk =   0.0185185
        k(   55) = (   0.3333333  -0.1575061   0.1666667), wk =   0.0740741
        k(   56) = (  -0.5000000  -0.1575061   0.1666667), wk =   0.0370370
        k(   57) = (   0.3333333  -0.3150122   0.1666667), wk =   0.0740741
        k(   58) = (  -0.5000000  -0.3150122   0.1666667), wk =   0.0370370
        k(   59) = (   0.3333333   0.4725183   0.1666667), wk =   0.0370370
        k(   60) = (  -0.5000000   0.4725183   0.1666667), wk =   0.0185185
        k(   61) = (  -0.5000000   0.0000000   0.3333333), wk =   0.0185185
        k(   62) = (  -0.5000000  -0.1575061   0.3333333), wk =   0.0370370
        k(   63) = (  -0.5000000  -0.3150122   0.3333333), wk =   0.0370370
        k(   64) = (  -0.5000000   0.4725183   0.3333333), wk =   0.0185185

     Initial potential from superposition of free atoms

     starting charge  367.99656, renormalised to  368.00000
     Starting wfc are  232 randomized atomic wfcs

     Self-consistent Calculation

     iteration #  1     ecut=   120.00 Ry     beta= 0.70
     Davidson diagonalization with overlap
     ethr =  1.00E-02,  avg # of iterations =  5.3

     total energy              =   -6254.03073087 Ry
     Harris-Foulkes estimate   =   -6264.53082734 Ry
     estimated scf accuracy    <      13.32878476 Ry

[...]

     End of self-consistent calculation

[...]
End final coordinates

     A final scf calculation at the relaxed structure.
     The G-vectors are recalculated for the final unit cell
     Results may differ from those at the preceding step.

     bravais-lattice index     =            0
     lattice parameter (alat)  =      13.8397  a.u.
     unit-cell volume          =    2864.6557 (a.u.)^3
     number of atoms/cell      =           32
     number of atomic types    =            2
     number of electrons       =       368.00
     number of Kohn-Sham states=          221
     kinetic-energy cutoff     =     120.0000  Ry
     charge density cutoff     =     480.0000  Ry
     convergence threshold     =      1.0E-10
     mixing beta               =       0.7000
     number of iterations used =            8  plain     mixing
     Exchange-correlation      = SLA PW NOGX NOGC ( 1  4  0  0 0 0)

     celldm(1)=  13.839685  celldm(2)=   0.000000  celldm(3)=   0.000000
     celldm(4)=   0.000000  celldm(5)=   0.000000  celldm(6)=   0.000000

     crystal axes: (cart. coord. in units of alat)
               a(1) = (   1.019687   0.000000   0.000000 )
               a(2) = (   0.000000   1.037961   0.000000 )
               a(3) = (   0.000000   0.000000   1.021047 )

     reciprocal axes: (cart. coord. in units 2 pi/alat)
               b(1) = (  0.980693  0.000000  0.000000 )
               b(2) = (  0.000000  0.963427  0.000000 )
               b(3) = (  0.000000  0.000000  0.979387 )

     PseudoPot. # 1 for W  read from file:
     /cluster/scratch/mnoe/QE/pps/W_ONCV_LDA-4.0.upf
     MD5 check sum: ba0307d5d4cd419d6f1d13dc49d7c13a
     Pseudo is Norm-conserving + core correction, Zval = 28.0
     Generated using ONCVPSP code by D. R. Hamann
     Using radial grid of 1380 points,  8 beta functions with:
                l(1) =   0
                l(2) =   0
                l(3) =   1
                l(4) =   1
                l(5) =   2
                l(6) =   2
                l(7) =   3
                l(8) =   3

     PseudoPot. # 2 for O  read from file:
     /cluster/scratch/mnoe/QE/pps/O_ONCV_LDA-3.0.upf
     MD5 check sum: a1bd6164e7280c17a38c229939bfbd54
     Pseudo is Norm-conserving + core correction, Zval =  6.0
     Generated using ONCVPSP code by D. R. Hamann
     Using radial grid of  926 points,  5 beta functions with:
                l(1) =   0
                l(2) =   0
                l(3) =   1
                l(4) =   1
                l(5) =   2

     atomic species   valence    mass     pseudopotential
        W             28.00   183.84000     W ( 1.00)
        O              6.00    15.99940     O ( 1.00)

      8 Sym. Ops., with inversion, found ( 6 have fractional translation)

   Cartesian axes

     site n.     atom                  positions (alat units)
         1           W   tau(   1) = (   0.2453825   0.2815542   0.0090201  )
         2           W   tau(   2) = (   0.7743043   0.7564072  -0.0090201  )
         3           W   tau(   3) = (   0.2644609   0.2374265   0.5195436  )
         4           W   tau(   4) = (   0.7552259   0.8005349   0.5015034  )
         5           W   tau(   5) = (   0.7743043   0.2815542   0.5015034  )
         6           W   tau(   6) = (   0.2453825   0.7564072   0.5195436  )
         7           W   tau(   7) = (   0.7552259   0.2374265  -0.0090201  )
         8           W   tau(   8) = (   0.2644609   0.8005349   0.0090201  )
         9           O   tau(   9) = (   0.2373232   0.0056376   0.0028036  )
        10           O   tau(  10) = (   0.7823636  -0.0056376  -0.0028036  )
        11           O   tau(  11) = (   0.2725202   0.5133431   0.5133271  )
        12           O   tau(  12) = (   0.7471666   0.5246183   0.5077199  )
        13           O   tau(  13) = (   0.7823636   0.0056376   0.5077199  )
        14           O   tau(  14) = (   0.2373232  -0.0056376   0.5133271  )
        15           O   tau(  15) = (   0.7471666   0.5133431  -0.0028036  )
        16           O   tau(  16) = (   0.2725202   0.5246183   0.0028036  )
        17           O   tau(  17) = (   0.5124525   0.2411145   0.4854739  )
        18           O   tau(  18) = (   0.5072343   0.7968469   0.5355733  )
        19           O   tau(  19) = (  -0.0026091   0.2778661   0.9959975  )
        20           O   tau(  20) = (   0.0026091   0.7600953   0.0250496  )
        21           O   tau(  21) = (   0.5072343   0.2411145   0.0250496  )
        22           O   tau(  22) = (   0.5124525   0.7968469   0.9959975  )
        23           O   tau(  23) = (   0.0026091   0.2778661   0.5355733  )
        24           O   tau(  24) = (  -0.0026091   0.7600953   0.4854739  )
        25           O   tau(  25) = (   0.7397489   0.2554803   0.7618251  )
        26           O   tau(  26) = (   0.2799379   0.7824811   0.2592219  )
        27           O   tau(  27) = (   0.7897816   0.2635004   0.2513016  )
        28           O   tau(  28) = (   0.2299055   0.7744610   0.7697454  )
        29           O   tau(  29) = (   0.2799379   0.2554803   0.7697454  )
        30           O   tau(  30) = (   0.7397489   0.7824811   0.2513016  )
        31           O   tau(  31) = (   0.2299055   0.2635004   0.2592219  )
        32           O   tau(  32) = (   0.7897816   0.7744610   0.7618251  )

     number of k points=    64  gaussian smearing, width (Ry)=  0.0007
                       cart. coord. in units 2pi/alat
        k(    1) = (   0.0000000   0.0000000   0.0000000), wk =   0.0092593
        k(    2) = (   0.0000000   0.0000000   0.1632311), wk =   0.0185185
        k(    3) = (   0.0000000   0.0000000   0.3264623), wk =   0.0185185
        k(    4) = (   0.0000000   0.0000000  -0.4896934), wk =   0.0092593
        k(    5) = (   0.0000000   0.1605712   0.0000000), wk =   0.0185185
        k(    6) = (   0.0000000   0.1605712   0.1632311), wk =   0.0370370
        k(    7) = (   0.0000000   0.1605712   0.3264623), wk =   0.0370370
        k(    8) = (   0.0000000   0.1605712  -0.4896934), wk =   0.0185185
        k(    9) = (   0.0000000   0.3211423   0.0000000), wk =   0.0185185
        k(   10) = (   0.0000000   0.3211423   0.1632311), wk =   0.0370370
        k(   11) = (   0.0000000   0.3211423   0.3264623), wk =   0.0370370
        k(   12) = (   0.0000000   0.3211423  -0.4896934), wk =   0.0185185
        k(   13) = (   0.0000000  -0.4817135   0.0000000), wk =   0.0092593
        k(   14) = (   0.0000000  -0.4817135   0.1632311), wk =   0.0185185
        k(   15) = (   0.0000000  -0.4817135   0.3264623), wk =   0.0185185
        k(   16) = (   0.0000000  -0.4817135  -0.4896934), wk =   0.0092593
        k(   17) = (   0.1634489   0.0000000   0.1632311), wk =   0.0370370
        k(   18) = (   0.1634489   0.0000000   0.3264623), wk =   0.0370370
        k(   19) = (   0.1634489   0.0000000  -0.4896934), wk =   0.0185185
        k(   20) = (   0.1634489   0.1605712   0.1632311), wk =   0.0740741
        k(   21) = (   0.1634489   0.1605712   0.3264623), wk =   0.0740741
        k(   22) = (   0.1634489   0.1605712  -0.4896934), wk =   0.0370370
        k(   23) = (   0.1634489   0.3211423   0.1632311), wk =   0.0740741
        k(   24) = (   0.1634489   0.3211423   0.3264623), wk =   0.0740741
        k(   25) = (   0.1634489   0.3211423  -0.4896934), wk =   0.0370370
        k(   26) = (   0.1634489  -0.4817135   0.1632311), wk =   0.0370370
        k(   27) = (   0.1634489  -0.4817135   0.3264623), wk =   0.0370370
        k(   28) = (   0.1634489  -0.4817135  -0.4896934), wk =   0.0185185
        k(   29) = (   0.3268977   0.0000000   0.3264623), wk =   0.0370370
        k(   30) = (   0.3268977   0.0000000  -0.4896934), wk =   0.0185185
        k(   31) = (   0.3268977   0.1605712   0.3264623), wk =   0.0740741
        k(   32) = (   0.3268977   0.1605712  -0.4896934), wk =   0.0370370
        k(   33) = (   0.3268977   0.3211423   0.3264623), wk =   0.0740741
        k(   34) = (   0.3268977   0.3211423  -0.4896934), wk =   0.0370370
        k(   35) = (   0.3268977  -0.4817135   0.3264623), wk =   0.0370370
        k(   36) = (   0.3268977  -0.4817135  -0.4896934), wk =   0.0185185
        k(   37) = (  -0.4903466   0.0000000  -0.4896934), wk =   0.0092593
        k(   38) = (  -0.4903466   0.1605712  -0.4896934), wk =   0.0185185
        k(   39) = (  -0.4903466   0.3211423  -0.4896934), wk =   0.0185185
        k(   40) = (  -0.4903466  -0.4817135  -0.4896934), wk =   0.0092593
        k(   41) = (   0.1634489   0.0000000   0.0000000), wk =   0.0185185
        k(   42) = (   0.3268977   0.0000000   0.0000000), wk =   0.0185185
        k(   43) = (  -0.4903466   0.0000000   0.0000000), wk =   0.0092593
        k(   44) = (   0.1634489  -0.1605712   0.0000000), wk =   0.0370370
        k(   45) = (   0.3268977  -0.1605712   0.0000000), wk =   0.0370370
        k(   46) = (  -0.4903466  -0.1605712   0.0000000), wk =   0.0185185
        k(   47) = (   0.1634489  -0.3211423   0.0000000), wk =   0.0370370
        k(   48) = (   0.3268977  -0.3211423   0.0000000), wk =   0.0370370
        k(   49) = (  -0.4903466  -0.3211423   0.0000000), wk =   0.0185185
        k(   50) = (   0.1634489   0.4817135   0.0000000), wk =   0.0185185
        k(   51) = (   0.3268977   0.4817135   0.0000000), wk =   0.0185185
        k(   52) = (  -0.4903466   0.4817135   0.0000000), wk =   0.0092593
        k(   53) = (   0.3268977   0.0000000   0.1632311), wk =   0.0370370
        k(   54) = (  -0.4903466   0.0000000   0.1632311), wk =   0.0185185
        k(   55) = (   0.3268977  -0.1605712   0.1632311), wk =   0.0740741
        k(   56) = (  -0.4903466  -0.1605712   0.1632311), wk =   0.0370370
        k(   57) = (   0.3268977  -0.3211423   0.1632311), wk =   0.0740741
        k(   58) = (  -0.4903466  -0.3211423   0.1632311), wk =   0.0370370
        k(   59) = (   0.3268977   0.4817135   0.1632311), wk =   0.0370370
        k(   60) = (  -0.4903466   0.4817135   0.1632311), wk =   0.0185185
        k(   61) = (  -0.4903466   0.0000000   0.3264623), wk =   0.0185185
        k(   62) = (  -0.4903466  -0.1605712   0.3264623), wk =   0.0370370
        k(   63) = (  -0.4903466  -0.3211423   0.3264623), wk =   0.0370370
        k(   64) = (  -0.4903466   0.4817135   0.3264623), wk =   0.0185185

     Initial potential from superposition of free atoms

     starting charge  367.99656, renormalised to  368.00000
     Starting wfc are  232 randomized atomic wfcs

     Writing output data file Landau_27.save

     Self-consistent Calculation

[...]

     total energy              =   -6261.09898983 Ry
     Harris-Foulkes estimate   =   -6261.09898983 Ry
     estimated scf accuracy    <          4.8E-10 Ry

     iteration # 15     ecut=   120.00 Ry     beta= 0.70
     Davidson diagonalization with overlap
     ethr =  1.30E-13,  avg # of iterations =  2.0

     End of self-consistent calculation

[...]

          k = 0.3269 0.4817 0.1632 ( 63584 PWs)   bands (ev):

[...]

          k =-0.4903 0.4817 0.3265 ( 63592 PWs)   bands (ev):

   -66.5553 -66.5553 -66.5552 -66.5552 -66.5549 -66.5549 -66.5549 -66.5549
   -30.8803 -30.8802 -30.8798 -30.8798 -30.8754 -30.8754 -30.8742 -30.8742
   -30.8699 -30.8699 -30.8692 -30.8692 -30.8497 -30.8497 -30.8488 -30.8488
   -30.8473 -30.8473 -30.8460 -30.8459 -30.8263 -30.8263 -30.8262 -30.8261
   -20.7262 -20.7262 -20.7261 -20.7261 -20.7260 -20.7260 -20.7260 -20.7260
   -20.7016 -20.7016 -20.7016 -20.7016 -20.7012 -20.7012 -20.7011 -20.7011
   -20.6974 -20.6974 -20.6974 -20.6973 -20.6972 -20.6972 -20.6972 -20.6972
   -20.6946 -20.6946 -20.6944 -20.6944 -20.6943 -20.6943 -20.6941 -20.6941
   -20.6911 -20.6911 -20.6910 -20.6910 -20.6904 -20.6904 -20.6903 -20.6903
   -20.6895 -20.6895 -20.6895 -20.6895 -20.6869 -20.6869 -20.6869 -20.6868
   -20.6853 -20.6853 -20.6853 -20.6853 -20.6843 -20.6843 -20.6843 -20.6843
    -9.4948  -9.4947  -9.4895  -9.4895  -9.1209  -9.1208  -9.1064  -9.1064
    -8.8852  -8.8851  -8.8725  -8.8725  -8.7401  -8.7401  -8.7233  -8.7233
    -8.7118  -8.7117  -8.6971  -8.6971  -8.4365  -8.4365  -8.4358  -8.4358
     1.8856   1.8856   1.8924   1.8924   2.6934   2.6935   2.7270   2.7271
     2.8046   2.8046   2.8334   2.8334   2.8775   2.8775   2.9292   2.9292
     3.0915   3.0915   3.1140   3.1140   3.3129   3.3129   3.3749   3.3749
     3.4473   3.4473   3.5750   3.5750   3.8466   3.8467   3.8774   3.8774
     3.9363   3.9363   3.9625   3.9625   4.0547   4.0547   4.0929   4.0929
     4.3329   4.3330   4.4000   4.4000   4.6927   4.6927   4.6999   4.6999
     6.7147   6.7147   6.7968   6.7969   6.8080   6.8081   6.8226   6.8226
     6.9792   6.9793   7.0527   7.0528   7.0954   7.0954   7.1104   7.1105
     7.1790   7.1790   7.2434   7.2434   7.3351   7.3351   7.3743   7.3744
    11.0888  11.0888  11.1336  11.1336  11.2473  11.2473  11.3285  11.3285
    11.7242  11.7242  11.7817  11.7818  11.8258  11.8258  11.8653  11.8653
    12.1323  12.1323  12.2623  12.2623  12.3687  12.3688  12.4565  12.4565
    16.2791  16.2791  16.3161  16.3161  16.6954  16.6954  16.7310  16.7310
    17.1698  17.1699  17.2624  17.2624  17.3807

     the Fermi energy is     8.5966 ev

!    total energy              =   -6261.09898983 Ry
     Harris-Foulkes estimate   =   -6261.09898983 Ry
     estimated scf accuracy    <          4.4E-12 Ry

     The total energy is the sum of the following terms:

     one-electron contribution =   -4811.18978122 Ry
     hartree contribution      =    2637.48692935 Ry
     xc contribution           =    -965.67668328 Ry
     ewald contribution        =   -3121.71945467 Ry
     smearing contrib. (-TS)   =      -0.00000000 Ry

     convergence has been achieved in  15 iterations

     Forces acting on atoms (cartesian axes, Ry/au):

     atom    1 type  1   force =    -0.00840138    0.01654358    0.00781076
     atom    2 type  1   force =     0.00840138   -0.01654358   -0.00781076
     atom    3 type  1   force =     0.00840138   -0.01654358    0.00781076
     atom    4 type  1   force =    -0.00840138    0.01654358   -0.00781076
     atom    5 type  1   force =     0.00840138    0.01654358   -0.00781076
     atom    6 type  1   force =    -0.00840138   -0.01654358    0.00781076
     atom    7 type  1   force =    -0.00840138   -0.01654358   -0.00781076
     atom    8 type  1   force =     0.00840138    0.01654358    0.00781076
     atom    9 type  2   force =     0.00005228   -0.00875162   -0.00090264
     atom   10 type  2   force =    -0.00005228    0.00875162    0.00090264
     atom   11 type  2   force =    -0.00005228    0.00875162   -0.00090264
     atom   12 type  2   force =     0.00005228   -0.00875162    0.00090264
     atom   13 type  2   force =    -0.00005228   -0.00875162    0.00090264
     atom   14 type  2   force =     0.00005228    0.00875162   -0.00090264
     atom   15 type  2   force =     0.00005228    0.00875162    0.00090264
     atom   16 type  2   force =    -0.00005228   -0.00875162   -0.00090264
     atom   17 type  2   force =    -0.00475622   -0.00097232   -0.00058823
     atom   18 type  2   force =     0.00475622    0.00097232    0.00058823
     atom   19 type  2   force =     0.00475622    0.00097232   -0.00058823
     atom   20 type  2   force =    -0.00475622   -0.00097232    0.00058823
     atom   21 type  2   force =     0.00475622   -0.00097232    0.00058823
     atom   22 type  2   force =    -0.00475622    0.00097232   -0.00058823
     atom   23 type  2   force =    -0.00475622    0.00097232    0.00058823
     atom   24 type  2   force =     0.00475622   -0.00097232   -0.00058823
     atom   25 type  2   force =    -0.00200470    0.00225384    0.00647437
     atom   26 type  2   force =     0.00200470   -0.00225384   -0.00647437
     atom   27 type  2   force =     0.00200470   -0.00225384    0.00647437
     atom   28 type  2   force =    -0.00200470    0.00225384   -0.00647437
     atom   29 type  2   force =     0.00200470    0.00225384   -0.00647437
     atom   30 type  2   force =    -0.00200470   -0.00225384    0.00647437
     atom   31 type  2   force =    -0.00200470   -0.00225384   -0.00647437
     atom   32 type  2   force =     0.00200470    0.00225384    0.00647437

     Total force =     0.000000     Total SCF correction =     0.000000

     Computing stress (Cartesian axis) and pressure

          total   stress  (Ry/bohr**3)                   (kbar)     P=    1.26
   0.00001203   0.00000000   0.00000000          1.77      0.00      0.00
   0.00000000   0.00000069   0.00000000          0.00      0.10      0.00
   0.00000000   0.00000000   0.00001288          0.00      0.00      1.89

     Writing output data file Landau_27.save

     General routines

     Parallel routines

   This run was terminated on:   8:28:34  20Mar2020

   JOB DONE.