     Program PWSCF v.6.2 (svn rev. 14038) starts on 17Sep2019 at 12:36: 9

     K-points division:     npool     =      40
     Reading input from scf.in

     Current dimensions of program PWSCF are:
     Max number of different atomic species (ntypx) = 10
     Max number of k-points (npk) =  40000
     Max angular momentum in pseudopotentials (lmaxx) =  3

     Subspace diagonalization in iterative solution of the eigenvalue problem:
     a serial algorithm will be used

     bravais-lattice index     =            0
     lattice parameter (alat)  =      13.8804  a.u.
     unit-cell volume          =    2760.8780 (a.u.)^3
     number of atoms/cell      =           32
     number of atomic types    =            2
     number of electrons       =       368.52
     number of Kohn-Sham states=          221
     kinetic-energy cutoff     =     120.0000  Ry
     charge density cutoff     =     480.0000  Ry
     convergence threshold     =      1.0E-08
     mixing beta               =       0.7000
     number of iterations used =            8  plain     mixing
     Exchange-correlation      = SLA PW NOGX NOGC ( 1  4  0  0 0 0)

     celldm(1)=  13.880416  celldm(2)=   0.000000  celldm(3)=   0.000000
     celldm(4)=   0.000000  celldm(5)=   0.000000  celldm(6)=   0.000000

     crystal axes: (cart. coord. in units of alat)
               a(1) = (   1.000000   0.000000   0.000000 )
               a(2) = (   0.000000   1.032380   0.000000 )
               a(3) = (   0.000000   0.000000   1.000000 )

     reciprocal axes: (cart. coord. in units 2 pi/alat)
               b(1) = (  1.000000  0.000000  0.000000 )
               b(2) = (  0.000000  0.968635  0.000000 )
               b(3) = (  0.000000  0.000000  1.000000 )

     PseudoPot. # 1 for W  read from file:
     /cluster/scratch/mnoe/QE/pps/W_ONCV_LDA-4.0.upf
     MD5 check sum: ba0307d5d4cd419d6f1d13dc49d7c13a
     Pseudo is Norm-conserving + core correction, Zval = 28.0
     Generated using ONCVPSP code by D. R. Hamann
     Using radial grid of 1380 points,  8 beta functions with:
                l(1) =   0
                l(2) =   0
                l(3) =   1
                l(4) =   1
                l(5) =   2
                l(6) =   2
                l(7) =   3
                l(8) =   3

     PseudoPot. # 2 for O  read from file:
     /cluster/scratch/mnoe/QE/pps/O_ONCV_LDA-3.0.upf
     MD5 check sum: ca1549d10c4e927e51167f6fca52ae32
     Pseudo is Norm-conserving + core correction, Zval =  6.0
     Generated using ONCVPSP code by D. R. Hamann
     Using radial grid of  926 points,  5 beta functions with:
                l(1) =   0
                l(2) =   0
                l(3) =   1
                l(4) =   1
                l(5) =   2

     atomic species   valence    mass     pseudopotential
        W             28.00   183.84000     W ( 1.00)
        O              6.00    15.99940     O ( 1.00)

      8 Sym. Ops. (no inversion) found ( 4 have fractional translation)

   Cartesian axes

     site n.     atom                  positions (alat units)
         1           W   tau(   1) = (   0.2769700   0.2909868   0.2507700  )
         2           W   tau(   2) = (  -0.2507699   0.7413937  -0.7230299  )
         3           W   tau(   3) = (   0.2230300   0.2252035   0.7507700  )
         4           W   tau(   4) = (   0.7507700   0.8071770   0.7769700  )
         5           W   tau(   5) = (   0.7230300   0.2909868   0.7492300  )
         6           W   tau(   6) = (   0.2507700   0.7413937   0.7230300  )
         7           W   tau(   7) = (  -0.2230299   0.2252035  -0.7507699  )
         8           W   tau(   8) = (   0.2492300   0.8071770   0.2230300  )
         9           O   tau(   9) = (   0.2796700   0.0085894   0.2715100  )
        10           O   tau(  10) = (  -0.2715100   1.0237911  -0.7203300  )
        11           O   tau(  11) = (   0.2203300   0.5076008   0.7715100  )
        12           O   tau(  12) = (   0.7715100   0.5247796   0.7796700  )
        13           O   tau(  13) = (   0.7203300   0.0085894   0.7284900  )
        14           O   tau(  14) = (   0.2715100   1.0237911   0.7203300  )
        15           O   tau(  15) = (  -0.2203300   0.5076008  -0.7715100  )
        16           O   tau(  16) = (   0.2284900   0.5247796   0.2203300  )
        17           O   tau(  17) = (   0.4904599   0.2911210   0.6995400  )
        18           O   tau(  18) = (   0.4980400   0.7530905   0.8004600  )
        19           O   tau(  19) = (  -0.9904600   0.2250693   1.1995400  )
        20           O   tau(  20) = (   0.0019599   0.7954801   0.3004600  )
        21           O   tau(  21) = (   0.5095401   0.2911210   0.3004600  )
        22           O   tau(  22) = (   0.5019600   0.7530905   1.1995400  )
        23           O   tau(  23) = (  -0.0095400   0.2250693   0.8004600  )
        24           O   tau(  24) = (  -1.0019600   0.7954801   0.6995400  )
        25           O   tau(  25) = (   0.6995400   0.2369004   2.0019600  )
        26           O   tau(  26) = (   0.3004600   0.7412594   0.4904600  )
        27           O   tau(  27) = (   0.8004600   0.2792899   0.5019599  )
        28           O   tau(  28) = (   0.1995400   0.8073112   1.9904599  )
        29           O   tau(  29) = (   0.3004600   0.2369004   0.9980400  )
        30           O   tau(  30) = (   0.6995400   0.7412594   0.5095400  )
        31           O   tau(  31) = (   0.1995400   0.2792899   0.4980400  )
        32           O   tau(  32) = (   0.8004600   0.8073112   1.0095401  )

     number of k points=    40  gaussian smearing, width (Ry)=  0.0007
                       cart. coord. in units 2pi/alat
        k(    1) = (   0.0000000   0.0000000   0.0000000), wk =   0.0092593
        k(    2) = (   0.0000000   0.0000000   0.1666667), wk =   0.0370370
        k(    3) = (   0.0000000   0.0000000   0.3333333), wk =   0.0370370
        k(    4) = (   0.0000000   0.0000000  -0.5000000), wk =   0.0185185
        k(    5) = (   0.0000000   0.1614392   0.0000000), wk =   0.0185185
        k(    6) = (   0.0000000   0.1614392   0.1666667), wk =   0.0740741
        k(    7) = (   0.0000000   0.1614392   0.3333333), wk =   0.0740741
        k(    8) = (   0.0000000   0.1614392  -0.5000000), wk =   0.0370370
        k(    9) = (   0.0000000   0.3228784   0.0000000), wk =   0.0185185
        k(   10) = (   0.0000000   0.3228784   0.1666667), wk =   0.0740741
        k(   11) = (   0.0000000   0.3228784   0.3333333), wk =   0.0740741
        k(   12) = (   0.0000000   0.3228784  -0.5000000), wk =   0.0370370
        k(   13) = (   0.0000000  -0.4843176   0.0000000), wk =   0.0092593
        k(   14) = (   0.0000000  -0.4843176   0.1666667), wk =   0.0370370
        k(   15) = (   0.0000000  -0.4843176   0.3333333), wk =   0.0370370
        k(   16) = (   0.0000000  -0.4843176  -0.5000000), wk =   0.0185185
        k(   17) = (   0.1666667   0.0000000   0.1666667), wk =   0.0370370
        k(   18) = (   0.1666667   0.0000000   0.3333333), wk =   0.0740741
        k(   19) = (   0.1666667   0.0000000  -0.5000000), wk =   0.0370370
        k(   20) = (   0.1666667   0.1614392   0.1666667), wk =   0.0740741
        k(   21) = (   0.1666667   0.1614392   0.3333333), wk =   0.1481481
        k(   22) = (   0.1666667   0.1614392  -0.5000000), wk =   0.0740741
        k(   23) = (   0.1666667   0.3228784   0.1666667), wk =   0.0740741
        k(   24) = (   0.1666667   0.3228784   0.3333333), wk =   0.1481481
        k(   25) = (   0.1666667   0.3228784  -0.5000000), wk =   0.0740741
        k(   26) = (   0.1666667  -0.4843176   0.1666667), wk =   0.0370370
        k(   27) = (   0.1666667  -0.4843176   0.3333333), wk =   0.0740741
        k(   28) = (   0.1666667  -0.4843176  -0.5000000), wk =   0.0370370
        k(   29) = (   0.3333333   0.0000000   0.3333333), wk =   0.0370370
        k(   30) = (   0.3333333   0.0000000  -0.5000000), wk =   0.0370370
        k(   31) = (   0.3333333   0.1614392   0.3333333), wk =   0.0740741
        k(   32) = (   0.3333333   0.1614392  -0.5000000), wk =   0.0740741
        k(   33) = (   0.3333333   0.3228784   0.3333333), wk =   0.0740741
        k(   34) = (   0.3333333   0.3228784  -0.5000000), wk =   0.0740741
        k(   35) = (   0.3333333  -0.4843176   0.3333333), wk =   0.0370370
        k(   36) = (   0.3333333  -0.4843176  -0.5000000), wk =   0.0370370
        k(   37) = (  -0.5000000   0.0000000  -0.5000000), wk =   0.0092593
        k(   38) = (  -0.5000000   0.1614392  -0.5000000), wk =   0.0185185
        k(   39) = (  -0.5000000   0.3228784  -0.5000000), wk =   0.0185185
        k(   40) = (  -0.5000000  -0.4843176  -0.5000000), wk =   0.0092593

     Initial potential from superposition of free atoms

     starting charge  367.99656, renormalised to  368.52000
     Starting wfc are  232 randomized atomic wfcs

     Self-consistent Calculation

     iteration #  1     ecut=   120.00 Ry     beta= 0.70
     Davidson diagonalization with overlap
     ethr =  1.00E-02,  avg # of iterations =  5.0

     total energy              =   -6253.51339364 Ry
     Harris-Foulkes estimate   =   -6264.21335331 Ry
     estimated scf accuracy    <      13.49263878 Ry

[...]

     total energy              =   -6260.68900446 Ry
     Harris-Foulkes estimate   =   -6260.68900447 Ry
     estimated scf accuracy    <       0.00000001 Ry

     iteration # 13     ecut=   120.00 Ry     beta= 0.70
     Davidson diagonalization with overlap
     ethr =  3.76E-12,  avg # of iterations =  2.6

     End of self-consistent calculation

          k = 0.0000 0.0000 0.0000 ( 61381 PWs)   bands (ev):

   -65.7581 -65.7574 -65.7571 -65.7571 -65.7565 -65.7565 -65.7561 -65.7555
   -30.2468 -30.2372 -30.2372 -30.2371 -30.1858 -30.1777 -30.1777 -30.1529
   -30.1406 -30.1181 -30.1180 -30.0970 -30.0757 -30.0668 -30.0668 -30.0573
   -30.0519 -30.0499 -30.0396 -30.0396 -29.9629 -29.9629 -29.9580 -29.9564
   -19.9017 -19.9015 -19.9015 -19.9015 -19.9008 -19.9007 -19.9007 -19.9006
   -19.8931 -19.8926 -19.8926 -19.8919 -19.8918 -19.8910 -19.8910 -19.8906
   -19.8847 -19.8846 -19.8844 -19.8844 -19.8842 -19.8842 -19.8841 -19.8841
   -19.8823 -19.8819 -19.8819 -19.8811 -19.8794 -19.8784 -19.8783 -19.8777
   -19.8741 -19.8736 -19.8728 -19.8728 -19.8717 -19.8717 -19.8708 -19.8700
   -19.8600 -19.8598 -19.8587 -19.8587 -19.8569 -19.8569 -19.8561 -19.8560
   -19.8556 -19.8555 -19.8544 -19.8544 -19.8510 -19.8510 -19.8499 -19.8497
    -9.6829  -9.3551  -9.2540  -9.2540  -8.8505  -8.8505  -8.7970  -8.6739
    -8.6098  -8.5126  -8.4905  -8.4905  -7.7527  -7.6849  -7.5794  -7.5794
    -7.5164  -7.4466  -7.4466  -7.4160  -7.4064  -7.3896  -7.2562  -7.2562
     1.6085   1.6468   1.6618   1.6618   1.7915   1.8423   1.8424   1.9042
     1.9954   1.9954   2.0982   2.2824   2.6523   2.7397   2.7758   2.9069
     2.9757   2.9757   4.4468   4.4469   4.7732   4.7788   4.8127   4.9750
     4.9750   5.0723   5.0731   5.0731   5.3948   5.3948   5.5483   5.6175
     5.6460   5.7376   5.7376   5.8288   5.9190   5.9190   6.0423   6.0471
     6.0471   6.0544   6.0967   6.1269   6.1269   6.2102   6.2441   6.3645
     6.4348   6.6847   6.6949   6.6949   6.7491   6.7644   7.1259   7.1259
     7.1319   7.1918   7.1941   7.2825   7.2826   7.3672   7.3672   7.3850
     7.7301   7.7301   7.9521   7.9886   8.1860   8.2543   8.2543   8.4060
    10.1210  10.1996  10.5033  10.5102  10.5103  10.5432  12.5043  12.5043
    12.6054  12.6210  12.6210  12.8854  12.9098  13.0396  13.0396  13.2129
    13.3865  13.5647  13.5647  13.6148  13.9761  14.0769  14.0769  14.3272
    14.9087  15.0971  15.0971  15.1648  15.6850  15.8365  15.9835  16.2265
    16.2265  16.9720  17.2209  17.2209  17.8458

[...]

          k = 0.3333-0.4843-0.5000 ( 61300 PWs)   bands (ev):

[...]

          k =-0.5000 0.0000-0.5000 ( 61244 PWs)   bands (ev):

[...]

          k =-0.5000-0.4843-0.5000 ( 61272 PWs)   bands (ev):

   -65.7568 -65.7568 -65.7568 -65.7568 -65.7568 -65.7568 -65.7568 -65.7568
   -30.2012 -30.2012 -30.1999 -30.1999 -30.1998 -30.1998 -30.1997 -30.1997
   -30.0995 -30.0995 -30.0992 -30.0992 -30.0992 -30.0991 -30.0981 -30.0981
   -30.0034 -30.0034 -30.0034 -30.0034 -30.0034 -30.0034 -30.0032 -30.0032
   -19.9011 -19.9011 -19.9011 -19.9011 -19.9011 -19.9011 -19.9011 -19.9011
   -19.8918 -19.8918 -19.8917 -19.8917 -19.8917 -19.8917 -19.8917 -19.8916
   -19.8839 -19.8839 -19.8838 -19.8838 -19.8838 -19.8838 -19.8837 -19.8837
   -19.8810 -19.8810 -19.8809 -19.8809 -19.8808 -19.8808 -19.8807 -19.8807
   -19.8722 -19.8722 -19.8721 -19.8721 -19.8721 -19.8721 -19.8720 -19.8720
   -19.8582 -19.8582 -19.8582 -19.8582 -19.8580 -19.8580 -19.8579 -19.8579
   -19.8529 -19.8529 -19.8528 -19.8528 -19.8527 -19.8527 -19.8526 -19.8526
    -8.7411  -8.7411  -8.6814  -8.6814  -8.6641  -8.6640  -8.6640  -8.6640
    -8.2049  -8.2049  -8.1143  -8.1143  -8.1143  -8.1143  -8.0846  -8.0846
    -8.0008  -8.0008  -8.0007  -8.0007  -7.9287  -7.9287  -7.9097  -7.9096
     3.1519   3.1519   3.1519   3.1519   3.1568   3.1568   3.2027   3.2027
     3.3728   3.3728   3.5009   3.5009   3.5009   3.5009   3.5973   3.5973
     3.6739   3.6739   3.7946   3.7946   3.7946   3.7946   3.8112   3.8112
     4.3724   4.3724   4.3899   4.3899   4.4698   4.4698   4.4698   4.4698
     4.6620   4.6620   4.6620   4.6620   4.6787   4.6788   4.7716   4.7716
     4.8131   4.8131   4.8835   4.8835   4.8951   4.8951   4.8952   4.8952
     7.2183   7.2184   7.3650   7.3651   7.3651   7.3651   7.5309   7.5310
     7.6215   7.6215   7.6216   7.6216   7.6593   7.6593   7.7537   7.7537
     7.8416   7.8416   7.8619   7.8619   7.8620   7.8620   7.9441   7.9442
    12.1825  12.1825  12.2248  12.2248  12.2248  12.2248  12.2511  12.2511
    12.5606  12.5606  12.5606  12.5607  12.5607  12.5607  12.7963  12.7963
    12.8421  12.8421  12.9767  12.9767  12.9767  12.9767  13.0067  13.0067
    17.1633  17.1633  17.1633  17.1633  17.2410  17.2410  17.3188  17.3188
    17.6209  17.6209  17.6209  17.6210  17.6454

     the Fermi energy is    10.4697 ev

!    total energy              =   -6260.68900446 Ry
     Harris-Foulkes estimate   =   -6260.68900446 Ry
     estimated scf accuracy    <          4.8E-10 Ry

     The total energy is the sum of the following terms:

     one-electron contribution =   -4639.20900790 Ry
     hartree contribution      =    2561.61246343 Ry
     xc contribution           =    -966.21436054 Ry
     ewald contribution        =   -3216.87807873 Ry
     smearing contrib. (-TS)   =      -0.00002073 Ry

     convergence has been achieved in  13 iterations

     Writing output data file Landau_30.save

     General routines

     Parallel routines

   This run was terminated on:  12:53: 0  17Sep2019

   JOB DONE.