     Program PWSCF v.6.2 (svn rev. 14038) starts on 24Mar2020 at  1:20: 8

     K-points division:     npool     =      40
     Reading input from rscf.in

     Current dimensions of program PWSCF are:
     Max number of different atomic species (ntypx) = 10
     Max number of k-points (npk) =  40000
     Max angular momentum in pseudopotentials (lmaxx) =  3

     Subspace diagonalization in iterative solution of the eigenvalue problem:
     a serial algorithm will be used

     bravais-lattice index     =            0
     lattice parameter (alat)  =      13.8397  a.u.
     unit-cell volume          =    2804.9816 (a.u.)^3
     number of atoms/cell      =           32
     number of atomic types    =            2
     number of electrons       =       368.00
     number of Kohn-Sham states=          221
     kinetic-energy cutoff     =     120.0000  Ry
     charge density cutoff     =     480.0000  Ry
     convergence threshold     =      1.0E-08
     mixing beta               =       0.7000
     number of iterations used =            8  plain     mixing
     Exchange-correlation      = SLA PW NOGX NOGC ( 1  4  0  0 0 0)
     nstep                     =           50

     celldm(1)=  13.839685  celldm(2)=   0.000000  celldm(3)=   0.000000
     celldm(4)=   0.000000  celldm(5)=   0.000000  celldm(6)=   0.000000

     crystal axes: (cart. coord. in units of alat)
               a(1) = (   1.000000   0.000000   0.000000 )
               a(2) = (   0.000000   1.058160   0.000000 )
               a(3) = (   0.000000   0.000000   1.000000 )

     reciprocal axes: (cart. coord. in units 2 pi/alat)
               b(1) = (  1.000000  0.000000  0.000000 )
               b(2) = (  0.000000  0.945037  0.000000 )
               b(3) = (  0.000000  0.000000  1.000000 )

     PseudoPot. # 1 for W  read from file:
     /cluster/scratch/mnoe/QE/pps/W_ONCV_LDA-4.0.upf
     MD5 check sum: ba0307d5d4cd419d6f1d13dc49d7c13a
     Pseudo is Norm-conserving + core correction, Zval = 28.0
     Generated using ONCVPSP code by D. R. Hamann
     Using radial grid of 1380 points,  8 beta functions with:
                l(1) =   0
                l(2) =   0
                l(3) =   1
                l(4) =   1
                l(5) =   2
                l(6) =   2
                l(7) =   3
                l(8) =   3

     PseudoPot. # 2 for O  read from file:
     /cluster/scratch/mnoe/QE/pps/O_ONCV_LDA-3.0.upf
     MD5 check sum: a1bd6164e7280c17a38c229939bfbd54
     Pseudo is Norm-conserving + core correction, Zval =  6.0
     Generated using ONCVPSP code by D. R. Hamann
     Using radial grid of  926 points,  5 beta functions with:
                l(1) =   0
                l(2) =   0
                l(3) =   1
                l(4) =   1
                l(5) =   2

     atomic species   valence    mass     pseudopotential
        W             28.00   183.84000     W ( 1.00)
        O              6.00    15.99940     O ( 1.00)

      4 Sym. Ops. (no inversion) found ( 3 have fractional translation)

   Cartesian axes

     site n.     atom                  positions (alat units)
         1           W   tau(   1) = (   0.2414337   0.2900522   0.0048118  )
         2           W   tau(   2) = (   0.7552941   0.7681078  -0.0082769  )
         3           W   tau(   3) = (   0.2585663   0.2390278   0.5048118  )
         4           W   tau(   4) = (   0.7447059   0.8191323   0.4917231  )
         5           W   tau(   5) = (   0.7585662   0.2900522   0.4951882  )
         6           W   tau(   6) = (   0.2447059   0.7681078   0.5082769  )
         7           W   tau(   7) = (   0.7414337   0.2390278  -0.0048118  )
         8           W   tau(   8) = (   0.2552941   0.8191323   0.0082769  )
         9           O   tau(   9) = (   0.2367062   0.0065698  -0.0011622  )
        10           O   tau(  10) = (   0.7622767  -0.0065698  -0.0052304  )
        11           O   tau(  11) = (   0.2632938   0.5225103   0.4988378  )
        12           O   tau(  12) = (   0.7377232   0.5356498   0.4947696  )
        13           O   tau(  13) = (   0.7632937   0.0065698   0.5011622  )
        14           O   tau(  14) = (   0.2377233  -0.0065698   0.5052304  )
        15           O   tau(  15) = (   0.7367062   0.5225103   0.0011622  )
        16           O   tau(  16) = (   0.2622767   0.5356498   0.0052304  )
        17           O   tau(  17) = (   0.5026138   0.2499052   0.4684904  )
        18           O   tau(  18) = (   0.4988228   0.8067407   0.5315097  )
        19           O   tau(  19) = (  -0.0026138   0.2791748   0.9684904  )
        20           O   tau(  20) = (   0.0011772   0.7804995   0.0315096  )
        21           O   tau(  21) = (   0.4973862   0.2499052   0.0315096  )
        22           O   tau(  22) = (   0.5011772   0.8067407   0.9684904  )
        23           O   tau(  23) = (   0.0026138   0.2791748   0.5315097  )
        24           O   tau(  24) = (  -0.0011772   0.7804995   0.4684904  )
        25           O   tau(  25) = (   0.7184903   0.2649810   0.7476006  )
        26           O   tau(  26) = (   0.2815096   0.8001180   0.2533471  )
        27           O   tau(  27) = (   0.7815097   0.2640990   0.2476007  )
        28           O   tau(  28) = (   0.2184904   0.7871222   0.7533470  )
        29           O   tau(  29) = (   0.2815096   0.2649810   0.7523993  )
        30           O   tau(  30) = (   0.7184903   0.8001180   0.2466529  )
        31           O   tau(  31) = (   0.2184904   0.2640990   0.2523993  )
        32           O   tau(  32) = (   0.7815097   0.7871222   0.7466529  )

     number of k points=    64  gaussian smearing, width (Ry)=  0.0007
                       cart. coord. in units 2pi/alat
        k(    1) = (   0.0000000   0.0000000   0.0000000), wk =   0.0092593
        k(    2) = (   0.0000000   0.0000000   0.1666667), wk =   0.0185185
        k(    3) = (   0.0000000   0.0000000   0.3333333), wk =   0.0185185
        k(    4) = (   0.0000000   0.0000000  -0.5000000), wk =   0.0092593
        k(    5) = (   0.0000000   0.1575061   0.0000000), wk =   0.0185185
        k(    6) = (   0.0000000   0.1575061   0.1666667), wk =   0.0370370
        k(    7) = (   0.0000000   0.1575061   0.3333333), wk =   0.0370370
        k(    8) = (   0.0000000   0.1575061  -0.5000000), wk =   0.0185185
        k(    9) = (   0.0000000   0.3150122   0.0000000), wk =   0.0185185
        k(   10) = (   0.0000000   0.3150122   0.1666667), wk =   0.0370370
        k(   11) = (   0.0000000   0.3150122   0.3333333), wk =   0.0370370
        k(   12) = (   0.0000000   0.3150122  -0.5000000), wk =   0.0185185
        k(   13) = (   0.0000000  -0.4725183   0.0000000), wk =   0.0092593
        k(   14) = (   0.0000000  -0.4725183   0.1666667), wk =   0.0185185
        k(   15) = (   0.0000000  -0.4725183   0.3333333), wk =   0.0185185
        k(   16) = (   0.0000000  -0.4725183  -0.5000000), wk =   0.0092593
        k(   17) = (   0.1666667   0.0000000   0.1666667), wk =   0.0370370
        k(   18) = (   0.1666667   0.0000000   0.3333333), wk =   0.0370370
        k(   19) = (   0.1666667   0.0000000  -0.5000000), wk =   0.0185185
        k(   20) = (   0.1666667   0.1575061   0.1666667), wk =   0.0740741
        k(   21) = (   0.1666667   0.1575061   0.3333333), wk =   0.0740741
        k(   22) = (   0.1666667   0.1575061  -0.5000000), wk =   0.0370370
        k(   23) = (   0.1666667   0.3150122   0.1666667), wk =   0.0740741
        k(   24) = (   0.1666667   0.3150122   0.3333333), wk =   0.0740741
        k(   25) = (   0.1666667   0.3150122  -0.5000000), wk =   0.0370370
        k(   26) = (   0.1666667  -0.4725183   0.1666667), wk =   0.0370370
        k(   27) = (   0.1666667  -0.4725183   0.3333333), wk =   0.0370370
        k(   28) = (   0.1666667  -0.4725183  -0.5000000), wk =   0.0185185
        k(   29) = (   0.3333333   0.0000000   0.3333333), wk =   0.0370370
        k(   30) = (   0.3333333   0.0000000  -0.5000000), wk =   0.0185185
        k(   31) = (   0.3333333   0.1575061   0.3333333), wk =   0.0740741
        k(   32) = (   0.3333333   0.1575061  -0.5000000), wk =   0.0370370
        k(   33) = (   0.3333333   0.3150122   0.3333333), wk =   0.0740741
        k(   34) = (   0.3333333   0.3150122  -0.5000000), wk =   0.0370370
        k(   35) = (   0.3333333  -0.4725183   0.3333333), wk =   0.0370370
        k(   36) = (   0.3333333  -0.4725183  -0.5000000), wk =   0.0185185
        k(   37) = (  -0.5000000   0.0000000  -0.5000000), wk =   0.0092593
        k(   38) = (  -0.5000000   0.1575061  -0.5000000), wk =   0.0185185
        k(   39) = (  -0.5000000   0.3150122  -0.5000000), wk =   0.0185185
        k(   40) = (  -0.5000000  -0.4725183  -0.5000000), wk =   0.0092593
        k(   41) = (   0.1666667   0.0000000   0.0000000), wk =   0.0185185
        k(   42) = (   0.3333333   0.0000000   0.0000000), wk =   0.0185185
        k(   43) = (  -0.5000000   0.0000000   0.0000000), wk =   0.0092593
        k(   44) = (   0.1666667  -0.1575061   0.0000000), wk =   0.0370370
        k(   45) = (   0.3333333  -0.1575061   0.0000000), wk =   0.0370370
        k(   46) = (  -0.5000000  -0.1575061   0.0000000), wk =   0.0185185
        k(   47) = (   0.1666667  -0.3150122   0.0000000), wk =   0.0370370
        k(   48) = (   0.3333333  -0.3150122   0.0000000), wk =   0.0370370
        k(   49) = (  -0.5000000  -0.3150122   0.0000000), wk =   0.0185185
        k(   50) = (   0.1666667   0.4725183   0.0000000), wk =   0.0185185
        k(   51) = (   0.3333333   0.4725183   0.0000000), wk =   0.0185185
        k(   52) = (  -0.5000000   0.4725183   0.0000000), wk =   0.0092593
        k(   53) = (   0.3333333   0.0000000   0.1666667), wk =   0.0370370
        k(   54) = (  -0.5000000   0.0000000   0.1666667), wk =   0.0185185
        k(   55) = (   0.3333333  -0.1575061   0.1666667), wk =   0.0740741
        k(   56) = (  -0.5000000  -0.1575061   0.1666667), wk =   0.0370370
        k(   57) = (   0.3333333  -0.3150122   0.1666667), wk =   0.0740741
        k(   58) = (  -0.5000000  -0.3150122   0.1666667), wk =   0.0370370
        k(   59) = (   0.3333333   0.4725183   0.1666667), wk =   0.0370370
        k(   60) = (  -0.5000000   0.4725183   0.1666667), wk =   0.0185185
        k(   61) = (  -0.5000000   0.0000000   0.3333333), wk =   0.0185185
        k(   62) = (  -0.5000000  -0.1575061   0.3333333), wk =   0.0370370
        k(   63) = (  -0.5000000  -0.3150122   0.3333333), wk =   0.0370370
        k(   64) = (  -0.5000000   0.4725183   0.3333333), wk =   0.0185185

     Initial potential from superposition of free atoms

     starting charge  367.99656, renormalised to  368.00000
     Starting wfc are  232 randomized atomic wfcs

     Self-consistent Calculation

     iteration #  1     ecut=   120.00 Ry     beta= 0.70
     Davidson diagonalization with overlap
     ethr =  1.00E-02,  avg # of iterations =  5.2

     total energy              =   -6254.04717265 Ry
     Harris-Foulkes estimate   =   -6264.55759772 Ry
     estimated scf accuracy    <      13.33570762 Ry

[...]

     End of self-consistent calculation

[...]
End final coordinates

     A final scf calculation at the relaxed structure.
     The G-vectors are recalculated for the final unit cell
     Results may differ from those at the preceding step.

     bravais-lattice index     =            0
     lattice parameter (alat)  =      13.8397  a.u.
     unit-cell volume          =    2855.1483 (a.u.)^3
     number of atoms/cell      =           32
     number of atomic types    =            2
     number of electrons       =       368.00
     number of Kohn-Sham states=          221
     kinetic-energy cutoff     =     120.0000  Ry
     charge density cutoff     =     480.0000  Ry
     convergence threshold     =      1.0E-10
     mixing beta               =       0.7000
     number of iterations used =            8  plain     mixing
     Exchange-correlation      = SLA PW NOGX NOGC ( 1  4  0  0 0 0)

     celldm(1)=  13.839685  celldm(2)=   0.000000  celldm(3)=   0.000000
     celldm(4)=   0.000000  celldm(5)=   0.000000  celldm(6)=   0.000000

     crystal axes: (cart. coord. in units of alat)
               a(1) = (   1.015605   0.000000   0.000000 )
               a(2) = (   0.000000   1.043423   0.000000 )
               a(3) = (   0.000000   0.000000   1.016400 )

     reciprocal axes: (cart. coord. in units 2 pi/alat)
               b(1) = (  0.984635  0.000000  0.000000 )
               b(2) = (  0.000000  0.958384  0.000000 )
               b(3) = (  0.000000  0.000000  0.983864 )

     PseudoPot. # 1 for W  read from file:
     /cluster/scratch/mnoe/QE/pps/W_ONCV_LDA-4.0.upf
     MD5 check sum: ba0307d5d4cd419d6f1d13dc49d7c13a
     Pseudo is Norm-conserving + core correction, Zval = 28.0
     Generated using ONCVPSP code by D. R. Hamann
     Using radial grid of 1380 points,  8 beta functions with:
                l(1) =   0
                l(2) =   0
                l(3) =   1
                l(4) =   1
                l(5) =   2
                l(6) =   2
                l(7) =   3
                l(8) =   3

     PseudoPot. # 2 for O  read from file:
     /cluster/scratch/mnoe/QE/pps/O_ONCV_LDA-3.0.upf
     MD5 check sum: a1bd6164e7280c17a38c229939bfbd54
     Pseudo is Norm-conserving + core correction, Zval =  6.0
     Generated using ONCVPSP code by D. R. Hamann
     Using radial grid of  926 points,  5 beta functions with:
                l(1) =   0
                l(2) =   0
                l(3) =   1
                l(4) =   1
                l(5) =   2

     atomic species   valence    mass     pseudopotential
        W             28.00   183.84000     W ( 1.00)
        O              6.00    15.99940     O ( 1.00)

      4 Sym. Ops. (no inversion) found ( 3 have fractional translation)

   Cartesian axes

     site n.     atom                  positions (alat units)
         1           W   tau(   1) = (   0.2452013   0.2860127   0.0048907  )
         2           W   tau(   2) = (   0.7670804   0.7574104  -0.0084126  )
         3           W   tau(   3) = (   0.2626012   0.2356989   0.5130908  )
         4           W   tau(   4) = (   0.7563270   0.8077242   0.4997875  )
         5           W   tau(   5) = (   0.7704037   0.2860127   0.5033094  )
         6           W   tau(   6) = (   0.2485245   0.7574104   0.5166128  )
         7           W   tau(   7) = (   0.7530038   0.2356989  -0.0048907  )
         8           W   tau(   8) = (   0.2592780   0.8077242   0.0084126  )
         9           O   tau(   9) = (   0.2404000   0.0064783  -0.0011813  )
        10           O   tau(  10) = (   0.7741720  -0.0064783  -0.0053162  )
        11           O   tau(  11) = (   0.2674025   0.5152333   0.5070188  )
        12           O   tau(  12) = (   0.7492354   0.5281898   0.5028839  )
        13           O   tau(  13) = (   0.7752050   0.0064783   0.5093814  )
        14           O   tau(  14) = (   0.2414329  -0.0064783   0.5135163  )
        15           O   tau(  15) = (   0.7482025   0.5152333   0.0011813  )
        16           O   tau(  16) = (   0.2663696   0.5281898   0.0053162  )
        17           O   tau(  17) = (   0.5104571   0.2464248   0.4761737  )
        18           O   tau(  18) = (   0.5066069   0.7955051   0.5402266  )
        19           O   tau(  19) = (  -0.0026546   0.2752867   0.9843739  )
        20           O   tau(  20) = (   0.0011956   0.7696295   0.0320264  )
        21           O   tau(  21) = (   0.5051479   0.2464248   0.0320264  )
        22           O   tau(  22) = (   0.5089981   0.7955051   0.9843739  )
        23           O   tau(  23) = (   0.0026546   0.2752867   0.5402266  )
        24           O   tau(  24) = (  -0.0011956   0.7696295   0.4761737  )
        25           O   tau(  25) = (   0.7297024   0.2612906   0.7598615  )
        26           O   tau(  26) = (   0.2859026   0.7889747   0.2575020  )
        27           O   tau(  27) = (   0.7937052   0.2604209   0.2516614  )
        28           O   tau(  28) = (   0.2218999   0.7761600   0.7657021  )
        29           O   tau(  29) = (   0.2859026   0.2612906   0.7647388  )
        30           O   tau(  30) = (   0.7297024   0.7889747   0.2506981  )
        31           O   tau(  31) = (   0.2218999   0.2604209   0.2565387  )
        32           O   tau(  32) = (   0.7937052   0.7761600   0.7588982  )

     number of k points=    64  gaussian smearing, width (Ry)=  0.0007
                       cart. coord. in units 2pi/alat
        k(    1) = (   0.0000000   0.0000000   0.0000000), wk =   0.0092593
        k(    2) = (   0.0000000   0.0000000   0.1639774), wk =   0.0185185
        k(    3) = (   0.0000000   0.0000000   0.3279548), wk =   0.0185185
        k(    4) = (   0.0000000   0.0000000  -0.4919322), wk =   0.0092593
        k(    5) = (   0.0000000   0.1597307   0.0000000), wk =   0.0185185
        k(    6) = (   0.0000000   0.1597307   0.1639774), wk =   0.0370370
        k(    7) = (   0.0000000   0.1597307   0.3279548), wk =   0.0370370
        k(    8) = (   0.0000000   0.1597307  -0.4919322), wk =   0.0185185
        k(    9) = (   0.0000000   0.3194614   0.0000000), wk =   0.0185185
        k(   10) = (   0.0000000   0.3194614   0.1639774), wk =   0.0370370
        k(   11) = (   0.0000000   0.3194614   0.3279548), wk =   0.0370370
        k(   12) = (   0.0000000   0.3194614  -0.4919322), wk =   0.0185185
        k(   13) = (   0.0000000  -0.4791920   0.0000000), wk =   0.0092593
        k(   14) = (   0.0000000  -0.4791920   0.1639774), wk =   0.0185185
        k(   15) = (   0.0000000  -0.4791920   0.3279548), wk =   0.0185185
        k(   16) = (   0.0000000  -0.4791920  -0.4919322), wk =   0.0092593
        k(   17) = (   0.1641058   0.0000000   0.1639774), wk =   0.0370370
        k(   18) = (   0.1641058   0.0000000   0.3279548), wk =   0.0370370
        k(   19) = (   0.1641058   0.0000000  -0.4919322), wk =   0.0185185
        k(   20) = (   0.1641058   0.1597307   0.1639774), wk =   0.0740741
        k(   21) = (   0.1641058   0.1597307   0.3279548), wk =   0.0740741
        k(   22) = (   0.1641058   0.1597307  -0.4919322), wk =   0.0370370
        k(   23) = (   0.1641058   0.3194614   0.1639774), wk =   0.0740741
        k(   24) = (   0.1641058   0.3194614   0.3279548), wk =   0.0740741
        k(   25) = (   0.1641058   0.3194614  -0.4919322), wk =   0.0370370
        k(   26) = (   0.1641058  -0.4791920   0.1639774), wk =   0.0370370
        k(   27) = (   0.1641058  -0.4791920   0.3279548), wk =   0.0370370
        k(   28) = (   0.1641058  -0.4791920  -0.4919322), wk =   0.0185185
        k(   29) = (   0.3282116   0.0000000   0.3279548), wk =   0.0370370
        k(   30) = (   0.3282116   0.0000000  -0.4919322), wk =   0.0185185
        k(   31) = (   0.3282116   0.1597307   0.3279548), wk =   0.0740741
        k(   32) = (   0.3282116   0.1597307  -0.4919322), wk =   0.0370370
        k(   33) = (   0.3282116   0.3194614   0.3279548), wk =   0.0740741
        k(   34) = (   0.3282116   0.3194614  -0.4919322), wk =   0.0370370
        k(   35) = (   0.3282116  -0.4791920   0.3279548), wk =   0.0370370
        k(   36) = (   0.3282116  -0.4791920  -0.4919322), wk =   0.0185185
        k(   37) = (  -0.4923174   0.0000000  -0.4919322), wk =   0.0092593
        k(   38) = (  -0.4923174   0.1597307  -0.4919322), wk =   0.0185185
        k(   39) = (  -0.4923174   0.3194614  -0.4919322), wk =   0.0185185
        k(   40) = (  -0.4923174  -0.4791920  -0.4919322), wk =   0.0092593
        k(   41) = (   0.1641058   0.0000000   0.0000000), wk =   0.0185185
        k(   42) = (   0.3282116   0.0000000   0.0000000), wk =   0.0185185
        k(   43) = (  -0.4923174   0.0000000   0.0000000), wk =   0.0092593
        k(   44) = (   0.1641058  -0.1597307   0.0000000), wk =   0.0370370
        k(   45) = (   0.3282116  -0.1597307   0.0000000), wk =   0.0370370
        k(   46) = (  -0.4923174  -0.1597307   0.0000000), wk =   0.0185185
        k(   47) = (   0.1641058  -0.3194614   0.0000000), wk =   0.0370370
        k(   48) = (   0.3282116  -0.3194614   0.0000000), wk =   0.0370370
        k(   49) = (  -0.4923174  -0.3194614   0.0000000), wk =   0.0185185
        k(   50) = (   0.1641058   0.4791920   0.0000000), wk =   0.0185185
        k(   51) = (   0.3282116   0.4791920   0.0000000), wk =   0.0185185
        k(   52) = (  -0.4923174   0.4791920   0.0000000), wk =   0.0092593
        k(   53) = (   0.3282116   0.0000000   0.1639774), wk =   0.0370370
        k(   54) = (  -0.4923174   0.0000000   0.1639774), wk =   0.0185185
        k(   55) = (   0.3282116  -0.1597307   0.1639774), wk =   0.0740741
        k(   56) = (  -0.4923174  -0.1597307   0.1639774), wk =   0.0370370
        k(   57) = (   0.3282116  -0.3194614   0.1639774), wk =   0.0740741
        k(   58) = (  -0.4923174  -0.3194614   0.1639774), wk =   0.0370370
        k(   59) = (   0.3282116   0.4791920   0.1639774), wk =   0.0370370
        k(   60) = (  -0.4923174   0.4791920   0.1639774), wk =   0.0185185
        k(   61) = (  -0.4923174   0.0000000   0.3279548), wk =   0.0185185
        k(   62) = (  -0.4923174  -0.1597307   0.3279548), wk =   0.0370370
        k(   63) = (  -0.4923174  -0.3194614   0.3279548), wk =   0.0370370
        k(   64) = (  -0.4923174   0.4791920   0.3279548), wk =   0.0185185

     Initial potential from superposition of free atoms

     starting charge  367.99656, renormalised to  368.00000
     Starting wfc are  232 randomized atomic wfcs

     Writing output data file Landau_10.save

     Self-consistent Calculation

[...]

     total energy              =   -6261.10240638 Ry
     Harris-Foulkes estimate   =   -6261.10240638 Ry
     estimated scf accuracy    <          3.5E-10 Ry

     iteration # 16     ecut=   120.00 Ry     beta= 0.70
     Davidson diagonalization with overlap
     ethr =  1.00E-13,  avg # of iterations =  2.3

     End of self-consistent calculation

[...]

          k = 0.3282 0.4792 0.1640 ( 63368 PWs)   bands (ev):

[...]

          k =-0.4923 0.4792 0.3280 ( 63372 PWs)   bands (ev):

   -66.4958 -66.4958 -66.4956 -66.4956 -66.4955 -66.4955 -66.4952 -66.4952
   -30.8306 -30.8306 -30.8283 -30.8283 -30.8261 -30.8261 -30.8249 -30.8249
   -30.8119 -30.8119 -30.8068 -30.8068 -30.7912 -30.7912 -30.7901 -30.7901
   -30.7837 -30.7837 -30.7813 -30.7813 -30.7696 -30.7696 -30.7608 -30.7608
   -20.6649 -20.6649 -20.6647 -20.6647 -20.6646 -20.6646 -20.6645 -20.6645
   -20.6406 -20.6406 -20.6401 -20.6401 -20.6397 -20.6397 -20.6392 -20.6392
   -20.6378 -20.6378 -20.6375 -20.6375 -20.6368 -20.6368 -20.6367 -20.6367
   -20.6361 -20.6361 -20.6358 -20.6358 -20.6356 -20.6355 -20.6353 -20.6353
   -20.6300 -20.6300 -20.6299 -20.6299 -20.6293 -20.6293 -20.6286 -20.6286
   -20.6283 -20.6283 -20.6282 -20.6282 -20.6264 -20.6264 -20.6260 -20.6260
   -20.6255 -20.6255 -20.6249 -20.6249 -20.6240 -20.6240 -20.6237 -20.6237
    -9.4518  -9.4518  -9.4383  -9.4383  -9.0693  -9.0692  -9.0532  -9.0532
    -8.8334  -8.8334  -8.8219  -8.8218  -8.6865  -8.6865  -8.6693  -8.6693
    -8.6558  -8.6558  -8.6387  -8.6386  -8.3945  -8.3945  -8.3745  -8.3745
     1.9404   1.9404   1.9575   1.9575   2.7395   2.7395   2.7817   2.7817
     2.8476   2.8476   2.8702   2.8702   2.9562   2.9562   2.9997   2.9998
     3.1266   3.1266   3.1529   3.1530   3.3539   3.3539   3.4112   3.4112
     3.4913   3.4913   3.5875   3.5875   3.9268   3.9268   3.9437   3.9437
     3.9955   3.9955   4.0389   4.0390   4.1231   4.1231   4.1727   4.1727
     4.3783   4.3783   4.4643   4.4643   4.7468   4.7468   4.7597   4.7597
     6.7588   6.7588   6.8297   6.8297   6.8794   6.8795   6.8885   6.8885
     7.0265   7.0265   7.0828   7.0828   7.1340   7.1340   7.1493   7.1493
     7.2223   7.2223   7.2888   7.2888   7.3735   7.3735   7.4111   7.4111
    11.1348  11.1348  11.1823  11.1823  11.3232  11.3232  11.4055  11.4055
    11.8189  11.8189  11.8631  11.8631  11.9063  11.9063  11.9448  11.9448
    12.1579  12.1579  12.2887  12.2887  12.4854  12.4854  12.5708  12.5708
    16.3047  16.3048  16.3485  16.3485  16.7646  16.7646  16.7936  16.7937
    17.1923  17.1924  17.2966  17.2967  17.3680

     the Fermi energy is     8.6508 ev

!    total energy              =   -6261.10240638 Ry
     Harris-Foulkes estimate   =   -6261.10240638 Ry
     estimated scf accuracy    <          4.6E-11 Ry

     The total energy is the sum of the following terms:

     one-electron contribution =   -4796.53985380 Ry
     hartree contribution      =    2630.90702776 Ry
     xc contribution           =    -965.67248087 Ry
     ewald contribution        =   -3129.79709947 Ry
     smearing contrib. (-TS)   =      -0.00000000 Ry

     convergence has been achieved in  16 iterations

     Forces acting on atoms (cartesian axes, Ry/au):

     atom    1 type  1   force =    -0.00648742    0.01437522    0.00429714
     atom    2 type  1   force =     0.00518647   -0.01446020   -0.00587374
     atom    3 type  1   force =     0.00648742   -0.01437522    0.00429714
     atom    4 type  1   force =    -0.00518647    0.01446020   -0.00587374
     atom    5 type  1   force =     0.00648742    0.01437522   -0.00429714
     atom    6 type  1   force =    -0.00518647   -0.01446020    0.00587374
     atom    7 type  1   force =    -0.00648742   -0.01437522   -0.00429714
     atom    8 type  1   force =     0.00518647    0.01446020    0.00587374
     atom    9 type  2   force =    -0.00009797   -0.00756032   -0.00042174
     atom   10 type  2   force =     0.00006586    0.00754371    0.00039611
     atom   11 type  2   force =     0.00009797    0.00756032   -0.00042174
     atom   12 type  2   force =    -0.00006586   -0.00754371    0.00039611
     atom   13 type  2   force =     0.00009797   -0.00756032    0.00042174
     atom   14 type  2   force =    -0.00006586    0.00754371   -0.00039611
     atom   15 type  2   force =    -0.00009797    0.00756032    0.00042174
     atom   16 type  2   force =     0.00006586   -0.00754371   -0.00039611
     atom   17 type  2   force =    -0.00373067   -0.00050833   -0.00099532
     atom   18 type  2   force =     0.00265702    0.00071086    0.00109188
     atom   19 type  2   force =     0.00373067    0.00050833   -0.00099532
     atom   20 type  2   force =    -0.00265702   -0.00071086    0.00109188
     atom   21 type  2   force =     0.00373067   -0.00050833    0.00099532
     atom   22 type  2   force =    -0.00265702    0.00071086   -0.00109188
     atom   23 type  2   force =    -0.00373067    0.00050833    0.00099532
     atom   24 type  2   force =     0.00265702   -0.00071086   -0.00109188
     atom   25 type  2   force =    -0.00184857    0.00089543    0.00367423
     atom   26 type  2   force =     0.00168321   -0.00064886   -0.00439301
     atom   27 type  2   force =     0.00184857   -0.00089543    0.00367423
     atom   28 type  2   force =    -0.00168321    0.00064886   -0.00439301
     atom   29 type  2   force =     0.00184857    0.00089543   -0.00367423
     atom   30 type  2   force =    -0.00168321   -0.00064886    0.00439301
     atom   31 type  2   force =    -0.00184857   -0.00089543   -0.00367423
     atom   32 type  2   force =     0.00168321    0.00064886    0.00439301

     Total force =     0.000000     Total SCF correction =     0.000000

     Computing stress (Cartesian axis) and pressure

          total   stress  (Ry/bohr**3)                   (kbar)     P=    0.83
   0.00000812   0.00000000   0.00000000          1.19      0.00      0.00
   0.00000000   0.00000026   0.00000000          0.00      0.04      0.00
   0.00000000   0.00000000   0.00000851          0.00      0.00      1.25

     Writing output data file Landau_10.save

     General routines

     Parallel routines

   This run was terminated on:   5:47: 4  24Mar2020

   JOB DONE.