     Program PWSCF v.6.2 (svn rev. 14038) starts on 11Mar2020 at  2:17: 4

     K-points division:     npool     =      40
     Reading input from rscf.in

     Current dimensions of program PWSCF are:
     Max number of different atomic species (ntypx) = 10
     Max number of k-points (npk) =  40000
     Max angular momentum in pseudopotentials (lmaxx) =  3

     Subspace diagonalization in iterative solution of the eigenvalue problem:
     a serial algorithm will be used

     Found symmetry operation: I + (  0.5000  0.0000 -0.5000)
     This is a supercell, fractional translations are disabled

     bravais-lattice index     =            0
     lattice parameter (alat)  =      13.8397  a.u.
     unit-cell volume          =    2804.9816 (a.u.)^3
     number of atoms/cell      =           32
     number of atomic types    =            2
     number of electrons       =       368.00
     number of Kohn-Sham states=          221
     kinetic-energy cutoff     =     120.0000  Ry
     charge density cutoff     =     480.0000  Ry
     convergence threshold     =      1.0E-08
     mixing beta               =       0.7000
     number of iterations used =            8  plain     mixing
     Exchange-correlation      = SLA PW NOGX NOGC ( 1  4  0  0 0 0)
     nstep                     =           50

     celldm(1)=  13.839685  celldm(2)=   0.000000  celldm(3)=   0.000000
     celldm(4)=   0.000000  celldm(5)=   0.000000  celldm(6)=   0.000000

     crystal axes: (cart. coord. in units of alat)
               a(1) = (   1.000000   0.000000   0.000000 )
               a(2) = (   0.000000   1.058160   0.000000 )
               a(3) = (   0.000000   0.000000   1.000000 )

     reciprocal axes: (cart. coord. in units 2 pi/alat)
               b(1) = (  1.000000  0.000000  0.000000 )
               b(2) = (  0.000000  0.945037  0.000000 )
               b(3) = (  0.000000  0.000000  1.000000 )

     PseudoPot. # 1 for W  read from file:
     /cluster/scratch/mnoe/QE/pps/W_ONCV_LDA-4.0.upf
     MD5 check sum: ba0307d5d4cd419d6f1d13dc49d7c13a
     Pseudo is Norm-conserving + core correction, Zval = 28.0
     Generated using ONCVPSP code by D. R. Hamann
     Using radial grid of 1380 points,  8 beta functions with:
                l(1) =   0
                l(2) =   0
                l(3) =   1
                l(4) =   1
                l(5) =   2
                l(6) =   2
                l(7) =   3
                l(8) =   3

     PseudoPot. # 2 for O  read from file:
     /cluster/scratch/mnoe/QE/pps/O_ONCV_LDA-3.0.upf
     MD5 check sum: a1bd6164e7280c17a38c229939bfbd54
     Pseudo is Norm-conserving + core correction, Zval =  6.0
     Generated using ONCVPSP code by D. R. Hamann
     Using radial grid of  926 points,  5 beta functions with:
                l(1) =   0
                l(2) =   0
                l(3) =   1
                l(4) =   1
                l(5) =   2

     atomic species   valence    mass     pseudopotential
        W             28.00   183.84000     W ( 1.00)
        O              6.00    15.99940     O ( 1.00)

      2 Sym. Ops., with inversion, found

   Cartesian axes

     site n.     atom                  positions (alat units)
         1           W   tau(   1) = (   0.2500000   0.2961879   0.0000000  )
         2           W   tau(   2) = (   0.7500000   0.7619721   0.0000000  )
         3           W   tau(   3) = (   0.2500000   0.2328921   0.5000000  )
         4           W   tau(   4) = (   0.7500000   0.8252680   0.5000000  )
         5           W   tau(   5) = (   0.7500000   0.2961879   0.5000000  )
         6           W   tau(   6) = (   0.2500000   0.7619721   0.5000000  )
         7           W   tau(   7) = (   0.7500000   0.2328921   0.0000000  )
         8           W   tau(   8) = (   0.2500000   0.8252680   0.0000000  )
         9           O   tau(   9) = (   0.2500000   0.0082413   0.0000000  )
        10           O   tau(  10) = (   0.7500000   1.0499188   0.0000000  )
        11           O   tau(  11) = (   0.2500000   0.5208387   0.5000000  )
        12           O   tau(  12) = (   0.7500000   0.5373213   0.5000000  )
        13           O   tau(  13) = (   0.7500000   0.0082413   0.5000000  )
        14           O   tau(  14) = (   0.2500000   1.0499188   0.5000000  )
        15           O   tau(  15) = (   0.7500000   0.5208387   0.0000000  )
        16           O   tau(  16) = (   0.2500000   0.5373213   0.0000000  )
        17           O   tau(  17) = (   0.5000000   0.2645400   0.4543119  )
        18           O   tau(  18) = (   0.5000000   0.7936201   0.5456881  )
        19           O   tau(  19) = (   0.0000000   0.2645400   0.9543120  )
        20           O   tau(  20) = (   0.0000000   0.7936201   0.0456881  )
        21           O   tau(  21) = (   0.5000000   0.2645400   0.0456881  )
        22           O   tau(  22) = (   0.5000000   0.7936201   0.9543120  )
        23           O   tau(  23) = (   0.0000000   0.2645400   0.5456881  )
        24           O   tau(  24) = (   0.0000000   0.7936201   0.4543119  )
        25           O   tau(  25) = (   0.7043120   0.2645400   0.7500000  )
        26           O   tau(  26) = (   0.2956881   0.7936201   0.2500000  )
        27           O   tau(  27) = (   0.7956881   0.2645400   0.2500000  )
        28           O   tau(  28) = (   0.2043120   0.7936201   0.7500000  )
        29           O   tau(  29) = (   0.2956881   0.2645400   0.7500000  )
        30           O   tau(  30) = (   0.7043120   0.7936201   0.2500000  )
        31           O   tau(  31) = (   0.2043120   0.2645400   0.2500000  )
        32           O   tau(  32) = (   0.7956881   0.7936201   0.7500000  )

     number of k points=   112  gaussian smearing, width (Ry)=  0.0007

     Number of k-points >= 100: set verbosity='high' to print them.

     Initial potential from superposition of free atoms

     starting charge  367.99656, renormalised to  368.00000
     Starting wfc are  232 randomized atomic wfcs

     Self-consistent Calculation

     iteration #  1     ecut=   120.00 Ry     beta= 0.70
     Davidson diagonalization with overlap
     ethr =  1.00E-02,  avg # of iterations =  5.1

     total energy              =   -6254.01509631 Ry
     Harris-Foulkes estimate   =   -6264.58874576 Ry
     estimated scf accuracy    <      13.39686614 Ry

[...]

     End of self-consistent calculation

     Number of k-points >= 100: set verbosity='high' to print the bands.

     the Fermi energy is     8.9882 ev

!    total energy              =   -6261.10522432 Ry
     Harris-Foulkes estimate   =   -6261.10522432 Ry
     estimated scf accuracy    <          5.8E-09 Ry

     The total energy is the sum of the following terms:

     one-electron contribution =   -4738.31510913 Ry
     hartree contribution      =    2605.87569944 Ry
     xc contribution           =    -965.84870472 Ry
     ewald contribution        =   -3162.81710992 Ry
     smearing contrib. (-TS)   =      -0.00000000 Ry

     convergence has been achieved in  14 iterations

     Forces acting on atoms (cartesian axes, Ry/au):

     atom    1 type  1   force =    -0.00000951    0.01688199   -0.00000760
     atom    2 type  1   force =     0.00000951   -0.01688199    0.00000760
     atom    3 type  1   force =    -0.00000855   -0.01686761    0.00000717
     atom    4 type  1   force =     0.00000855    0.01686761   -0.00000717
     atom    5 type  1   force =     0.00001315    0.01687571    0.00000094
     atom    6 type  1   force =    -0.00001315   -0.01687571   -0.00000094
     atom    7 type  1   force =     0.00001088   -0.01685441   -0.00000063
     atom    8 type  1   force =    -0.00001088    0.01685441    0.00000063
     atom    9 type  2   force =    -0.00000097   -0.00846987   -0.00000029
     atom   10 type  2   force =     0.00000097    0.00846987    0.00000029
     atom   11 type  2   force =    -0.00000067    0.00847415    0.00000018
     atom   12 type  2   force =     0.00000067   -0.00847415   -0.00000018
     atom   13 type  2   force =     0.00000190   -0.00846870   -0.00000059
     atom   14 type  2   force =    -0.00000190    0.00846870    0.00000059
     atom   15 type  2   force =     0.00000169    0.00847319    0.00000051
     atom   16 type  2   force =    -0.00000169   -0.00847319   -0.00000051
     atom   17 type  2   force =     0.00000071   -0.00000021   -0.00443429
     atom   18 type  2   force =    -0.00000071    0.00000021    0.00443429
     atom   19 type  2   force =    -0.00000084   -0.00000044   -0.00443528
     atom   20 type  2   force =     0.00000084    0.00000044    0.00443528
     atom   21 type  2   force =     0.00000060   -0.00000050    0.00443438
     atom   22 type  2   force =    -0.00000060    0.00000050   -0.00443438
     atom   23 type  2   force =    -0.00000083   -0.00000086    0.00443484
     atom   24 type  2   force =     0.00000083    0.00000086   -0.00443484
     atom   25 type  2   force =    -0.00443283   -0.00000072   -0.00000099
     atom   26 type  2   force =     0.00443283    0.00000072    0.00000099
     atom   27 type  2   force =     0.00443574   -0.00000065    0.00000100
     atom   28 type  2   force =    -0.00443574    0.00000065   -0.00000100
     atom   29 type  2   force =     0.00443292   -0.00000090   -0.00000104
     atom   30 type  2   force =    -0.00443292    0.00000090    0.00000104
     atom   31 type  2   force =    -0.00443497   -0.00000042    0.00000048
     atom   32 type  2   force =     0.00443497    0.00000042   -0.00000048

     Total force =     0.000000     Total SCF correction =     0.000000

     Computing stress (Cartesian axis) and pressure

          total   stress  (Ry/bohr**3)                   (kbar)     P=   15.87
   0.00021493  -0.00000000   0.00000000         31.62     -0.00      0.00
  -0.00000000  -0.00010615  -0.00000000         -0.00    -15.61     -0.00
   0.00000000  -0.00000000   0.00021493          0.00     -0.00     31.62

     BFGS Geometry Optimization

     number of scf cycles    =   1
     number of bfgs steps    =   0

     enthalpy new            =   -6261.1052243177 Ry

     new trust radius        =       0.0569169227 bohr
     new conv_thr            =       0.0000000100 Ry

     new unit-cell volume =   2827.68269 a.u.^3 (   419.01934 Ang^3 )
     density =      7.35004 g/cm^3

CELL_PARAMETERS (angstrom)
   7.362998698  -0.000000029   0.000000029
  -0.000000031   7.729024712  -0.000000907
   0.000000029  -0.000000857   7.362997393

ATOMIC_POSITIONS (crystal)
W        0.250000000   0.279908450  -0.000000000    0   0   0
W        0.749999990   0.720091550  -0.000000000    0   0   0
W        0.250000000   0.220091565   0.500000000    0   0   0
W        0.749999990   0.779908440   0.500000000    0   0   0
W        0.749999990   0.279908450   0.500000000    0   0   0
W        0.250000000   0.720091550   0.500000000    0   0   0
W        0.749999990   0.220091565  -0.000000000    0   0   0
W        0.250000000   0.779908440   0.000000000    0   0   0
O        0.250000000   0.007788339  -0.000000000    0   0   0
O        0.749999990   0.992211670   0.000000000    0   0   0
O        0.250000000   0.492211659   0.500000000    0   0   0
O        0.749999990   0.507788330   0.500000000    0   0   0
O        0.749999990   0.007788339   0.500000000    0   0   0
O        0.250000000   0.992211670   0.500000000    0   0   0
O        0.749999990   0.492211659  -0.000000000    0   0   0
O        0.250000000   0.507788330   0.000000000    0   0   0
O        0.500000000   0.250000000   0.454311934    0   0   0
O        0.500000000   0.749999995   0.545688054    0   0   0
O        0.000000000   0.250000000   0.954311967    0   0   0
O       -0.000000000   0.749999995   0.045688064    0   0   0
O        0.500000000   0.250000000   0.045688064    0   0   0
O        0.500000000   0.749999995   0.954311967    0   0   0
O        0.000000000   0.250000000   0.545688054    0   0   0
O        0.000000000   0.749999995   0.454311934    0   0   0
O        0.704311956   0.250000000   0.749999990    0   0   0
O        0.295688056   0.749999995   0.250000000    0   0   0
O        0.795688065   0.250000000   0.250000000    0   0   0
O        0.204311950   0.749999995   0.749999990    0   0   0
O        0.295688056   0.250000000   0.749999990    0   0   0
O        0.704311956   0.749999995   0.250000000    0   0   0
O        0.204311950   0.250000000   0.250000000    0   0   0
O        0.795688065   0.749999995   0.749999990    0   0   0

     Writing output data file Landau_14.save
     NEW-OLD atomic charge density approx. for the potential
     extrapolated charge  370.95433, renormalised to  368.00000

[...]

     enthalpy old            =   -6261.1052243177 Ry
     enthalpy new            =   -6261.1082463790 Ry

     CASE: enthalpy_new < enthalpy_old

[...]

     number of scf cycles    =   4
     number of bfgs steps    =   3

     enthalpy old            =   -6261.1083779761 Ry
     enthalpy new            =   -6261.1083806643 Ry

     CASE: enthalpy_new < enthalpy_old

     new trust radius        =       0.0001809370 bohr
     new conv_thr            =            1.0E-10 Ry

     new unit-cell volume =   2821.33127 a.u.^3 (   418.07816 Ang^3 )
     density =      7.36659 g/cm^3

[...]

ATOMIC_POSITIONS (crystal)
W        0.250000000   0.279908450  -0.000000000    0   0   0
W        0.749999990   0.720091550  -0.000000000    0   0   0
W        0.250000000   0.220091565   0.500000000    0   0   0
W        0.749999990   0.779908440   0.500000000    0   0   0
W        0.749999990   0.279908450   0.500000000    0   0   0
W        0.250000000   0.720091550   0.500000000    0   0   0
W        0.749999990   0.220091565  -0.000000000    0   0   0
W        0.250000000   0.779908440  -0.000000000    0   0   0
O        0.250000000   0.007788339   0.000000000    0   0   0
O        0.749999990   0.992211670   0.000000000    0   0   0
O        0.250000000   0.492211659   0.500000000    0   0   0
O        0.749999990   0.507788330   0.500000000    0   0   0
O        0.749999990   0.007788339   0.500000000    0   0   0
O        0.250000000   0.992211670   0.500000000    0   0   0
O        0.749999990   0.492211659  -0.000000000    0   0   0
O        0.250000000   0.507788330  -0.000000000    0   0   0
O        0.500000000   0.250000000   0.454311934    0   0   0
O        0.500000000   0.749999995   0.545688054    0   0   0
O        0.000000000   0.250000000   0.954311967    0   0   0
O        0.000000000   0.749999995   0.045688064    0   0   0
O        0.500000000   0.250000000   0.045688064    0   0   0
O        0.500000000   0.749999995   0.954311967    0   0   0
O        0.000000000   0.250000000   0.545688054    0   0   0
O        0.000000000   0.749999995   0.454311934    0   0   0
O        0.704311956   0.250000000   0.749999990    0   0   0
O        0.295688056   0.749999995   0.250000000    0   0   0
O        0.795688065   0.250000000   0.250000000    0   0   0
O        0.204311950   0.749999995   0.749999990    0   0   0
O        0.295688056   0.250000000   0.749999990    0   0   0
O        0.704311956   0.749999995   0.250000000    0   0   0
O        0.204311950   0.250000000   0.250000000    0   0   0
O        0.795688065   0.749999995   0.749999990    0   0   0

     Writing output data file Landau_14.save
     NEW-OLD atomic charge density approx. for the potential
     extrapolated charge  368.00017, renormalised to  368.00000

[...]

     Threshold (ethr) on eigenvalues was too large:
     Diagonalizing with lowered threshold

     Davidson diagonalization with overlap
     ethr =  1.98E-12,  avg # of iterations =  4.0

[...]

     bfgs converged in   5 scf cycles and   4 bfgs steps
     (criteria: energy <  1.0E-07 Ry, force <  1.0E-07Ry/Bohr, cell <  5.0E-01kbar)

     End of BFGS Geometry Optimization

     Final enthalpy =   -6261.1083806905 Ry
Begin final coordinates
     new unit-cell volume =   2821.33127 a.u.^3 (   418.07816 Ang^3 )
     density =      7.36659 g/cm^3

CELL_PARAMETERS (angstrom)
   7.356524983   0.000000252   0.000000041
   0.000000269   7.725241499  -0.000000478
   0.000000041  -0.000000454   7.356524694

ATOMIC_POSITIONS (crystal)
W        0.250000000   0.279908450  -0.000000000    0   0   0
W        0.749999990   0.720091550  -0.000000000    0   0   0
W        0.250000000   0.220091565   0.500000000    0   0   0
W        0.749999990   0.779908440   0.500000000    0   0   0
W        0.749999990   0.279908450   0.500000000    0   0   0
W        0.250000000   0.720091550   0.500000000    0   0   0
W        0.749999990   0.220091565  -0.000000000    0   0   0
W        0.250000000   0.779908440  -0.000000000    0   0   0
O        0.250000000   0.007788339   0.000000000    0   0   0
O        0.749999990   0.992211670   0.000000000    0   0   0
O        0.250000000   0.492211659   0.500000000    0   0   0
O        0.749999990   0.507788330   0.500000000    0   0   0
O        0.749999990   0.007788339   0.500000000    0   0   0
O        0.250000000   0.992211670   0.500000000    0   0   0
O        0.749999990   0.492211659  -0.000000000    0   0   0
O        0.250000000   0.507788330  -0.000000000    0   0   0
O        0.500000000   0.250000000   0.454311934    0   0   0
O        0.500000000   0.749999995   0.545688054    0   0   0
O        0.000000000   0.250000000   0.954311967    0   0   0
O        0.000000000   0.749999995   0.045688064    0   0   0
O        0.500000000   0.250000000   0.045688064    0   0   0
O        0.500000000   0.749999995   0.954311967    0   0   0
O        0.000000000   0.250000000   0.545688054    0   0   0
O        0.000000000   0.749999995   0.454311934    0   0   0
O        0.704311956   0.250000000   0.749999990    0   0   0
O        0.295688056   0.749999995   0.250000000    0   0   0
O        0.795688065   0.250000000   0.250000000    0   0   0
O        0.204311950   0.749999995   0.749999990    0   0   0
O        0.295688056   0.250000000   0.749999990    0   0   0
O        0.704311956   0.749999995   0.250000000    0   0   0
O        0.204311950   0.250000000   0.250000000    0   0   0
O        0.795688065   0.749999995   0.749999990    0   0   0
End final coordinates

     A final scf calculation at the relaxed structure.
     The G-vectors are recalculated for the final unit cell
     Results may differ from those at the preceding step.

     bravais-lattice index     =            0
     lattice parameter (alat)  =      13.8397  a.u.
     unit-cell volume          =    2821.3313 (a.u.)^3
     number of atoms/cell      =           32
     number of atomic types    =            2
     number of electrons       =       368.00
     number of Kohn-Sham states=          221
     kinetic-energy cutoff     =     120.0000  Ry
     charge density cutoff     =     480.0000  Ry
     convergence threshold     =      1.0E-10
     mixing beta               =       0.7000
     number of iterations used =            8  plain     mixing
     Exchange-correlation      = SLA PW NOGX NOGC ( 1  4  0  0 0 0)

     celldm(1)=  13.839685  celldm(2)=   0.000000  celldm(3)=   0.000000
     celldm(4)=   0.000000  celldm(5)=   0.000000  celldm(6)=   0.000000

     crystal axes: (cart. coord. in units of alat)
               a(1) = (   1.004489   0.000000   0.000000 )
               a(2) = (   0.000000   1.054835  -0.000000 )
               a(3) = (   0.000000  -0.000000   1.004489 )

     reciprocal axes: (cart. coord. in units 2 pi/alat)
               b(1) = (  0.995531 -0.000000 -0.000000 )
               b(2) = ( -0.000000  0.948015  0.000000 )
               b(3) = ( -0.000000  0.000000  0.995531 )

     PseudoPot. # 1 for W  read from file:
     /cluster/scratch/mnoe/QE/pps/W_ONCV_LDA-4.0.upf
     MD5 check sum: ba0307d5d4cd419d6f1d13dc49d7c13a
     Pseudo is Norm-conserving + core correction, Zval = 28.0
     Generated using ONCVPSP code by D. R. Hamann
     Using radial grid of 1380 points,  8 beta functions with:
                l(1) =   0
                l(2) =   0
                l(3) =   1
                l(4) =   1
                l(5) =   2
                l(6) =   2
                l(7) =   3
                l(8) =   3

     PseudoPot. # 2 for O  read from file:
     /cluster/scratch/mnoe/QE/pps/O_ONCV_LDA-3.0.upf
     MD5 check sum: a1bd6164e7280c17a38c229939bfbd54
     Pseudo is Norm-conserving + core correction, Zval =  6.0
     Generated using ONCVPSP code by D. R. Hamann
     Using radial grid of  926 points,  5 beta functions with:
                l(1) =   0
                l(2) =   0
                l(3) =   1
                l(4) =   1
                l(5) =   2

     atomic species   valence    mass     pseudopotential
        W             28.00   183.84000     W ( 1.00)
        O              6.00    15.99940     O ( 1.00)

      2 Sym. Ops., with inversion, found

   Cartesian axes

     site n.     atom                  positions (alat units)
         1           W   tau(   1) = (   0.2511224   0.2952574  -0.0000000  )
         2           W   tau(   2) = (   0.7533671   0.7595781  -0.0000000  )
         3           W   tau(   3) = (   0.2511224   0.2321604   0.5022447  )
         4           W   tau(   4) = (   0.7533671   0.8226751   0.5022446  )
         5           W   tau(   5) = (   0.7533671   0.2952574   0.5022447  )
         6           W   tau(   6) = (   0.2511224   0.7595781   0.5022446  )
         7           W   tau(   7) = (   0.7533671   0.2321604  -0.0000000  )
         8           W   tau(   8) = (   0.2511224   0.8226751  -0.0000000  )
         9           O   tau(   9) = (   0.2511224   0.0082154   0.0000000  )
        10           O   tau(  10) = (   0.7533671   1.0466201  -0.0000001  )
        11           O   tau(  11) = (   0.2511224   0.5192023   0.5022447  )
        12           O   tau(  12) = (   0.7533671   0.5356331   0.5022447  )
        13           O   tau(  13) = (   0.7533671   0.0082154   0.5022447  )
        14           O   tau(  14) = (   0.2511224   1.0466200   0.5022446  )
        15           O   tau(  15) = (   0.7533671   0.5192023  -0.0000000  )
        16           O   tau(  16) = (   0.2511224   0.5356331  -0.0000000  )
        17           O   tau(  17) = (   0.5022447   0.2637089   0.4563515  )
        18           O   tau(  18) = (   0.5022447   0.7911266   0.5481378  )
        19           O   tau(  19) = (   0.0000000   0.2637088   0.9585962  )
        20           O   tau(  20) = (   0.0000000   0.7911266   0.0458931  )
        21           O   tau(  21) = (   0.5022447   0.2637089   0.0458932  )
        22           O   tau(  22) = (   0.5022447   0.7911265   0.9585962  )
        23           O   tau(  23) = (   0.0000000   0.2637088   0.5481378  )
        24           O   tau(  24) = (   0.0000000   0.7911266   0.4563515  )
        25           O   tau(  25) = (   0.7074739   0.2637088   0.7533670  )
        26           O   tau(  26) = (   0.2970156   0.7911266   0.2511223  )
        27           O   tau(  27) = (   0.7992603   0.2637089   0.2511223  )
        28           O   tau(  28) = (   0.2052292   0.7911265   0.7533670  )
        29           O   tau(  29) = (   0.2970155   0.2637088   0.7533670  )
        30           O   tau(  30) = (   0.7074739   0.7911266   0.2511223  )
        31           O   tau(  31) = (   0.2052292   0.2637089   0.2511223  )
        32           O   tau(  32) = (   0.7992603   0.7911266   0.7533670  )

     number of k points=   112  gaussian smearing, width (Ry)=  0.0007

     Number of k-points >= 100: set verbosity='high' to print them.

     Initial potential from superposition of free atoms

     starting charge  367.99656, renormalised to  368.00000
     Starting wfc are  232 randomized atomic wfcs

     Writing output data file Landau_14.save

     Self-consistent Calculation

[...]

     total energy              =   -6261.10846755 Ry
     Harris-Foulkes estimate   =   -6261.10846755 Ry
     estimated scf accuracy    <          2.3E-10 Ry

     iteration # 17     ecut=   120.00 Ry     beta= 0.70
     Davidson diagonalization with overlap
     ethr =  1.00E-13,  avg # of iterations =  2.0

     End of self-consistent calculation

     Number of k-points >= 100: set verbosity='high' to print the bands.

     the Fermi energy is     8.5034 ev

!    total energy              =   -6261.10846755 Ry
     Harris-Foulkes estimate   =   -6261.10846755 Ry
     estimated scf accuracy    <          5.9E-11 Ry

     The total energy is the sum of the following terms:

     one-electron contribution =   -4746.36117320 Ry
     hartree contribution      =    2608.52442646 Ry
     xc contribution           =    -965.66910515 Ry
     ewald contribution        =   -3157.60261566 Ry
     smearing contrib. (-TS)   =      -0.00000000 Ry

     convergence has been achieved in  17 iterations

     Forces acting on atoms (cartesian axes, Ry/au):

     atom    1 type  1   force =    -0.00000432    0.00495041   -0.00000012
     atom    2 type  1   force =     0.00000432   -0.00495041    0.00000012
     atom    3 type  1   force =     0.00000205   -0.00496010   -0.00000012
     atom    4 type  1   force =    -0.00000205    0.00496010    0.00000012
     atom    5 type  1   force =    -0.00000359    0.00494956   -0.00000022
     atom    6 type  1   force =     0.00000359   -0.00494956    0.00000022
     atom    7 type  1   force =     0.00000444   -0.00496153   -0.00000033
     atom    8 type  1   force =    -0.00000444    0.00496153    0.00000033
     atom    9 type  2   force =    -0.00000004   -0.00249541   -0.00000002
     atom   10 type  2   force =     0.00000004    0.00249541    0.00000002
     atom   11 type  2   force =    -0.00000003    0.00249566    0.00000001
     atom   12 type  2   force =     0.00000003   -0.00249566   -0.00000001
     atom   13 type  2   force =     0.00000004   -0.00249523   -0.00000001
     atom   14 type  2   force =    -0.00000004    0.00249523    0.00000001
     atom   15 type  2   force =    -0.00000009    0.00249538   -0.00000001
     atom   16 type  2   force =     0.00000009   -0.00249538    0.00000001
     atom   17 type  2   force =     0.00000027    0.00000001   -0.00083964
     atom   18 type  2   force =    -0.00000027   -0.00000001    0.00083964
     atom   19 type  2   force =     0.00000021    0.00000003   -0.00083963
     atom   20 type  2   force =    -0.00000021   -0.00000003    0.00083963
     atom   21 type  2   force =    -0.00000031    0.00000013    0.00083960
     atom   22 type  2   force =     0.00000031   -0.00000013   -0.00083960
     atom   23 type  2   force =    -0.00000021    0.00000005    0.00083959
     atom   24 type  2   force =     0.00000021   -0.00000005   -0.00083959
     atom   25 type  2   force =    -0.00083960   -0.00000001    0.00000000
     atom   26 type  2   force =     0.00083960    0.00000001   -0.00000000
     atom   27 type  2   force =     0.00083963   -0.00000003    0.00000005
     atom   28 type  2   force =    -0.00083963    0.00000003   -0.00000005
     atom   29 type  2   force =     0.00083962    0.00000004    0.00000036
     atom   30 type  2   force =    -0.00083962   -0.00000004   -0.00000036
     atom   31 type  2   force =    -0.00083958    0.00000003   -0.00000033
     atom   32 type  2   force =     0.00083958   -0.00000003    0.00000033

     Total force =     0.000000     Total SCF correction =     0.000000

     Computing stress (Cartesian axis) and pressure

          total   stress  (Ry/bohr**3)                   (kbar)     P=    0.15
   0.00000151  -0.00000000  -0.00000000          0.22     -0.00     -0.00
  -0.00000000  -0.00000003   0.00000000         -0.00     -0.00      0.00
  -0.00000000   0.00000000   0.00000150         -0.00      0.00      0.22

     Writing output data file Landau_14.save

     General routines

     Parallel routines

   This run was terminated on:   7:35: 8  11Mar2020

   JOB DONE.