     Program PWSCF v.6.2 (svn rev. 14038) starts on 19Mar2020 at  4: 0:29

     K-points division:     npool     =      40
     Reading input from scf.in

     Current dimensions of program PWSCF are:
     Max number of different atomic species (ntypx) = 10
     Max number of k-points (npk) =  40000
     Max angular momentum in pseudopotentials (lmaxx) =  3

     Subspace diagonalization in iterative solution of the eigenvalue problem:
     a serial algorithm will be used

     bravais-lattice index     =            0
     lattice parameter (alat)  =      14.0272  a.u.
     unit-cell volume          =    2835.3546 (a.u.)^3
     number of atoms/cell      =           32
     number of atomic types    =            2
     number of electrons       =       368.20
     number of Kohn-Sham states=          221
     kinetic-energy cutoff     =     120.0000  Ry
     charge density cutoff     =     480.0000  Ry
     convergence threshold     =      1.0E-08
     mixing beta               =       0.7000
     number of iterations used =            8  plain     mixing
     Exchange-correlation      = SLA PW NOGX NOGC ( 1  4  0  0 0 0)

     celldm(1)=  14.027225  celldm(2)=   0.000000  celldm(3)=   0.000000
     celldm(4)=   0.000000  celldm(5)=   0.000000  celldm(6)=   0.000000

     crystal axes: (cart. coord. in units of alat)
               a(1) = (   1.000000   0.000000   0.000000 )
               a(2) = (   0.000000   1.024101   0.000000 )
               a(3) = (   0.000000   0.000000   1.003111 )

     reciprocal axes: (cart. coord. in units 2 pi/alat)
               b(1) = (  1.000000  0.000000  0.000000 )
               b(2) = (  0.000000  0.976466  0.000000 )
               b(3) = (  0.000000  0.000000  0.996898 )

     PseudoPot. # 1 for W  read from file:
     /cluster/scratch/mnoe/QE/pps/W_ONCV_LDA-4.0.upf
     MD5 check sum: ba0307d5d4cd419d6f1d13dc49d7c13a
     Pseudo is Norm-conserving + core correction, Zval = 28.0
     Generated using ONCVPSP code by D. R. Hamann
     Using radial grid of 1380 points,  8 beta functions with:
                l(1) =   0
                l(2) =   0
                l(3) =   1
                l(4) =   1
                l(5) =   2
                l(6) =   2
                l(7) =   3
                l(8) =   3

     PseudoPot. # 2 for O  read from file:
     /cluster/scratch/mnoe/QE/pps/O_ONCV_LDA-3.0.upf
     MD5 check sum: a1bd6164e7280c17a38c229939bfbd54
     Pseudo is Norm-conserving + core correction, Zval =  6.0
     Generated using ONCVPSP code by D. R. Hamann
     Using radial grid of  926 points,  5 beta functions with:
                l(1) =   0
                l(2) =   0
                l(3) =   1
                l(4) =   1
                l(5) =   2

     atomic species   valence    mass     pseudopotential
        W             28.00   183.84000     W ( 1.00)
        O              6.00    15.99940     O ( 1.00)

      8 Sym. Ops., with inversion, found ( 6 have fractional translation)

   Cartesian axes

     site n.     atom                  positions (alat units)
         1           W   tau(   1) = (   0.2370500   0.2815528   0.0122681  )
         2           W   tau(   2) = (   0.7629499   0.7425486   0.9908433  )
         3           W   tau(   3) = (   0.2629500   0.2304979   0.5138237  )
         4           W   tau(   4) = (   0.7370500   0.7936036   0.4892876  )
         5           W   tau(   5) = (   0.7629499   0.2815528   0.4892876  )
         6           W   tau(   6) = (   0.2370500   0.7425486   0.5138237  )
         7           W   tau(   7) = (   0.7370500   0.2304979   0.9908433  )
         8           W   tau(   8) = (   0.2629500   0.7936036   0.0122681  )
         9           O   tau(   9) = (   0.2261100   0.0065862   0.0038118  )
        10           O   tau(  10) = (   0.7738900   1.0175153   0.9992995  )
        11           O   tau(  11) = (   0.2738900   0.5054646   0.5053674  )
        12           O   tau(  12) = (   0.7261100   0.5186369   0.4977438  )
        13           O   tau(  13) = (   0.7738900   0.0065862   0.4977438  )
        14           O   tau(  14) = (   0.2261100   1.0175153   0.5053674  )
        15           O   tau(  15) = (   0.7261100   0.5054646   0.9992995  )
        16           O   tau(  16) = (   0.2738900   0.5186369   0.0038118  )
        17           O   tau(  17) = (   0.5035400   0.2309246   0.4679447  )
        18           O   tau(  18) = (   0.4964600   0.7931769   0.5351666  )
        19           O   tau(  19) = (   0.9964600   0.2811261   0.9695004  )
        20           O   tau(  20) = (   0.0035400   0.7429754   0.0336109  )
        21           O   tau(  21) = (   0.4964600   0.2309246   0.0336109  )
        22           O   tau(  22) = (   0.5035400   0.7931769   0.9695004  )
        23           O   tau(  23) = (   0.0035400   0.2811261   0.5351666  )
        24           O   tau(  24) = (   0.9964600   0.7429754   0.4679447  )
        25           O   tau(  25) = (   0.7164933   0.2505464   0.7469467  )
        26           O   tau(  26) = (   0.2835066   0.7735550   0.2561645  )
        27           O   tau(  27) = (   0.7835067   0.2615043   0.2453911  )
        28           O   tau(  28) = (   0.2164934   0.7625972   0.7577202  )
        29           O   tau(  29) = (   0.2835066   0.2505464   0.7577202  )
        30           O   tau(  30) = (   0.7164933   0.7735550   0.2453911  )
        31           O   tau(  31) = (   0.2164934   0.2615043   0.2561645  )
        32           O   tau(  32) = (   0.7835067   0.7625972   0.7469467  )

     number of k points=    64  gaussian smearing, width (Ry)=  0.0007
                       cart. coord. in units 2pi/alat
        k(    1) = (   0.0000000   0.0000000   0.0000000), wk =   0.0092593
        k(    2) = (   0.0000000   0.0000000   0.1661497), wk =   0.0185185
        k(    3) = (   0.0000000   0.0000000   0.3322995), wk =   0.0185185
        k(    4) = (   0.0000000   0.0000000  -0.4984492), wk =   0.0092593
        k(    5) = (   0.0000000   0.1627443   0.0000000), wk =   0.0185185
        k(    6) = (   0.0000000   0.1627443   0.1661497), wk =   0.0370370
        k(    7) = (   0.0000000   0.1627443   0.3322995), wk =   0.0370370
        k(    8) = (   0.0000000   0.1627443  -0.4984492), wk =   0.0185185
        k(    9) = (   0.0000000   0.3254886   0.0000000), wk =   0.0185185
        k(   10) = (   0.0000000   0.3254886   0.1661497), wk =   0.0370370
        k(   11) = (   0.0000000   0.3254886   0.3322995), wk =   0.0370370
        k(   12) = (   0.0000000   0.3254886  -0.4984492), wk =   0.0185185
        k(   13) = (   0.0000000  -0.4882329   0.0000000), wk =   0.0092593
        k(   14) = (   0.0000000  -0.4882329   0.1661497), wk =   0.0185185
        k(   15) = (   0.0000000  -0.4882329   0.3322995), wk =   0.0185185
        k(   16) = (   0.0000000  -0.4882329  -0.4984492), wk =   0.0092593
        k(   17) = (   0.1666667   0.0000000   0.0000000), wk =   0.0185185
        k(   18) = (   0.1666667   0.0000000   0.1661497), wk =   0.0370370
        k(   19) = (   0.1666667   0.0000000   0.3322995), wk =   0.0370370
        k(   20) = (   0.1666667   0.0000000  -0.4984492), wk =   0.0185185
        k(   21) = (   0.1666667   0.1627443   0.0000000), wk =   0.0370370
        k(   22) = (   0.1666667   0.1627443   0.1661497), wk =   0.0740741
        k(   23) = (   0.1666667   0.1627443   0.3322995), wk =   0.0740741
        k(   24) = (   0.1666667   0.1627443  -0.4984492), wk =   0.0370370
        k(   25) = (   0.1666667   0.3254886   0.0000000), wk =   0.0370370
        k(   26) = (   0.1666667   0.3254886   0.1661497), wk =   0.0740741
        k(   27) = (   0.1666667   0.3254886   0.3322995), wk =   0.0740741
        k(   28) = (   0.1666667   0.3254886  -0.4984492), wk =   0.0370370
        k(   29) = (   0.1666667  -0.4882329   0.0000000), wk =   0.0185185
        k(   30) = (   0.1666667  -0.4882329   0.1661497), wk =   0.0370370
        k(   31) = (   0.1666667  -0.4882329   0.3322995), wk =   0.0370370
        k(   32) = (   0.1666667  -0.4882329  -0.4984492), wk =   0.0185185
        k(   33) = (   0.3333333   0.0000000   0.0000000), wk =   0.0185185
        k(   34) = (   0.3333333   0.0000000   0.1661497), wk =   0.0370370
        k(   35) = (   0.3333333   0.0000000   0.3322995), wk =   0.0370370
        k(   36) = (   0.3333333   0.0000000  -0.4984492), wk =   0.0185185
        k(   37) = (   0.3333333   0.1627443   0.0000000), wk =   0.0370370
        k(   38) = (   0.3333333   0.1627443   0.1661497), wk =   0.0740741
        k(   39) = (   0.3333333   0.1627443   0.3322995), wk =   0.0740741
        k(   40) = (   0.3333333   0.1627443  -0.4984492), wk =   0.0370370
        k(   41) = (   0.3333333   0.3254886   0.0000000), wk =   0.0370370
        k(   42) = (   0.3333333   0.3254886   0.1661497), wk =   0.0740741
        k(   43) = (   0.3333333   0.3254886   0.3322995), wk =   0.0740741
        k(   44) = (   0.3333333   0.3254886  -0.4984492), wk =   0.0370370
        k(   45) = (   0.3333333  -0.4882329   0.0000000), wk =   0.0185185
        k(   46) = (   0.3333333  -0.4882329   0.1661497), wk =   0.0370370
        k(   47) = (   0.3333333  -0.4882329   0.3322995), wk =   0.0370370
        k(   48) = (   0.3333333  -0.4882329  -0.4984492), wk =   0.0185185
        k(   49) = (  -0.5000000   0.0000000   0.0000000), wk =   0.0092593
        k(   50) = (  -0.5000000   0.0000000   0.1661497), wk =   0.0185185
        k(   51) = (  -0.5000000   0.0000000   0.3322995), wk =   0.0185185
        k(   52) = (  -0.5000000   0.0000000  -0.4984492), wk =   0.0092593
        k(   53) = (  -0.5000000   0.1627443   0.0000000), wk =   0.0185185
        k(   54) = (  -0.5000000   0.1627443   0.1661497), wk =   0.0370370
        k(   55) = (  -0.5000000   0.1627443   0.3322995), wk =   0.0370370
        k(   56) = (  -0.5000000   0.1627443  -0.4984492), wk =   0.0185185
        k(   57) = (  -0.5000000   0.3254886   0.0000000), wk =   0.0185185
        k(   58) = (  -0.5000000   0.3254886   0.1661497), wk =   0.0370370
        k(   59) = (  -0.5000000   0.3254886   0.3322995), wk =   0.0370370
        k(   60) = (  -0.5000000   0.3254886  -0.4984492), wk =   0.0185185
        k(   61) = (  -0.5000000  -0.4882329   0.0000000), wk =   0.0092593
        k(   62) = (  -0.5000000  -0.4882329   0.1661497), wk =   0.0185185
        k(   63) = (  -0.5000000  -0.4882329   0.3322995), wk =   0.0185185
        k(   64) = (  -0.5000000  -0.4882329  -0.4984492), wk =   0.0092593

     Initial potential from superposition of free atoms

     starting charge  367.99656, renormalised to  368.20000
     Starting wfc are  232 randomized atomic wfcs

     Self-consistent Calculation

     iteration #  1     ecut=   120.00 Ry     beta= 0.70
     Davidson diagonalization with overlap
     ethr =  1.00E-02,  avg # of iterations =  5.0

     total energy              =   -6253.79798755 Ry
     Harris-Foulkes estimate   =   -6264.49685520 Ry
     estimated scf accuracy    <      13.52442369 Ry

[...]

     total energy              =   -6260.97215443 Ry
     Harris-Foulkes estimate   =   -6260.97215445 Ry
     estimated scf accuracy    <       0.00000003 Ry

     iteration # 13     ecut=   120.00 Ry     beta= 0.70
     Davidson diagonalization with overlap
     ethr =  8.86E-12,  avg # of iterations =  2.5

     End of self-consistent calculation

          k = 0.0000 0.0000 0.0000 ( 62859 PWs)   bands (ev):

   -66.3138 -66.3132 -66.3131 -66.3130 -66.3125 -66.3124 -66.3122 -66.3117
   -30.7020 -30.6960 -30.6942 -30.6874 -30.6721 -30.6707 -30.6678 -30.6669
   -30.6637 -30.6557 -30.6555 -30.6483 -30.6199 -30.6182 -30.6152 -30.6077
   -30.5793 -30.5782 -30.5738 -30.5730 -30.5726 -30.5655 -30.5627 -30.5570
   -20.4748 -20.4747 -20.4746 -20.4745 -20.4745 -20.4744 -20.4742 -20.4742
   -20.4560 -20.4555 -20.4552 -20.4550 -20.4547 -20.4545 -20.4543 -20.4537
   -20.4517 -20.4516 -20.4509 -20.4508 -20.4505 -20.4501 -20.4496 -20.4495
   -20.4492 -20.4491 -20.4485 -20.4481 -20.4462 -20.4456 -20.4452 -20.4450
   -20.4447 -20.4446 -20.4443 -20.4439 -20.4397 -20.4395 -20.4391 -20.4390
   -20.4389 -20.4387 -20.4380 -20.4377 -20.4327 -20.4326 -20.4316 -20.4315
   -20.4311 -20.4310 -20.4298 -20.4296 -20.4281 -20.4280 -20.4268 -20.4267
   -10.0859  -9.7691  -9.7054  -9.6990  -9.4080  -9.3860  -9.3165  -9.1623
    -9.1370  -9.0983  -9.0722  -9.0679  -7.9932  -7.9232  -7.9162  -7.8967
    -7.8928  -7.8717  -7.8703  -7.8376  -7.8336  -7.8251  -7.7978  -7.7930
     1.0265   1.0377   1.0837   1.1058   1.1203   1.1207   1.1793   1.2958
     1.3673   1.3801   1.4135   1.6218   2.3304   2.3891   2.4298   2.4396
     2.5099   2.5646   4.0894   4.1583   4.2698   4.3955   4.5036   4.5041
     4.5347   4.5559   4.5610   4.6107   4.7495   4.7789   5.0723   5.2324
     5.2988   5.3543   5.4284   5.4309   5.4482   5.4887   5.5658   5.5878
     5.6049   5.6343   5.7480   5.8498   5.8586   5.9109   5.9351   5.9657
     5.9797   6.2178   6.2322   6.2516   6.2525   6.5756   6.7391   6.7983
     6.8098   6.8330   6.8510   6.8655   6.8778   6.9122   7.0009   7.0062
     7.0520   7.0545   7.8654   7.8680   7.8904   7.9322   8.0084   8.0520
     9.2362   9.2778   9.5789   9.6141   9.6151   9.6420  12.1460  12.2660
    12.3587  12.3994  12.4022  12.4037  12.4359  12.4478  12.5067  12.7548
    12.9086  12.9766  13.1211  13.3209  13.5314  13.5479  13.9121  13.9200
    14.3358  14.3827  14.6123  14.6972  14.9154  14.9524  15.5454  15.7021
    15.8043  16.7482  16.8434  16.9390  17.1227

[...]

          k = 0.3333-0.4882-0.4984 ( 62928 PWs)   bands (ev):

[...]

          k =-0.5000 0.0000 0.0000 ( 62936 PWs)   bands (ev):

[...]

          k =-0.5000-0.4882-0.4984 ( 62840 PWs)   bands (ev):

   -66.3128 -66.3128 -66.3127 -66.3127 -66.3127 -66.3127 -66.3127 -66.3127
   -30.6620 -30.6620 -30.6620 -30.6620 -30.6610 -30.6610 -30.6610 -30.6610
   -30.6270 -30.6270 -30.6270 -30.6269 -30.6248 -30.6248 -30.6248 -30.6247
   -30.6024 -30.6024 -30.6024 -30.6023 -30.6002 -30.6002 -30.6002 -30.6002
   -20.4745 -20.4745 -20.4745 -20.4745 -20.4745 -20.4745 -20.4745 -20.4744
   -20.4548 -20.4548 -20.4548 -20.4548 -20.4547 -20.4547 -20.4547 -20.4547
   -20.4499 -20.4498 -20.4498 -20.4498 -20.4498 -20.4498 -20.4498 -20.4498
   -20.4481 -20.4480 -20.4480 -20.4480 -20.4479 -20.4479 -20.4479 -20.4479
   -20.4419 -20.4419 -20.4419 -20.4419 -20.4417 -20.4416 -20.4416 -20.4416
   -20.4354 -20.4353 -20.4353 -20.4353 -20.4353 -20.4353 -20.4352 -20.4352
   -20.4292 -20.4292 -20.4292 -20.4291 -20.4291 -20.4291 -20.4291 -20.4291
    -9.0953  -9.0952  -9.0952  -9.0952  -9.0761  -9.0761  -9.0761  -9.0761
    -8.5780  -8.5779  -8.5779  -8.5779  -8.5494  -8.5494  -8.5494  -8.5494
    -8.5327  -8.5327  -8.5327  -8.5327  -8.5054  -8.5054  -8.5054  -8.5054
     2.7722   2.7722   2.7722   2.7722   2.8688   2.8688   2.8688   2.8688
     2.9774   2.9774   2.9774   2.9775   3.0770   3.0770   3.0770   3.0771
     3.1983   3.1983   3.1983   3.1983   3.3675   3.3675   3.3675   3.3675
     3.9789   3.9789   3.9789   3.9789   4.0160   4.0160   4.0161   4.0161
     4.1134   4.1134   4.1134   4.1134   4.1835   4.1835   4.1835   4.1835
     4.2579   4.2579   4.2579   4.2579   4.3531   4.3531   4.3531   4.3531
     6.9902   6.9902   6.9902   6.9902   7.1226   7.1226   7.1226   7.1226
     7.1640   7.1640   7.1640   7.1640   7.2389   7.2389   7.2389   7.2389
     7.3912   7.3912   7.3912   7.3913   7.4577   7.4577   7.4577   7.4577
    11.7158  11.7158  11.7158  11.7158  11.7800  11.7800  11.7800  11.7800
    11.9334  11.9334  11.9334  11.9334  12.0963  12.0963  12.0963  12.0963
    12.1932  12.1932  12.1932  12.1932  12.2994  12.2994  12.2994  12.2994
    16.9876  16.9876  16.9877  16.9877  17.0828  17.0828  17.0828  17.0828
    17.4094  17.4094  17.4095  17.4097  17.4471

     the Fermi energy is     9.5676 ev

!    total energy              =   -6260.97215444 Ry
     Harris-Foulkes estimate   =   -6260.97215444 Ry
     estimated scf accuracy    <          1.5E-09 Ry

     The total energy is the sum of the following terms:

     one-electron contribution =   -4763.52072711 Ry
     hartree contribution      =    2616.64241760 Ry
     xc contribution           =    -965.88912863 Ry
     ewald contribution        =   -3148.20469449 Ry
     smearing contrib. (-TS)   =      -0.00002180 Ry

     convergence has been achieved in  13 iterations

     Writing output data file Landau_14.save

     General routines

     Parallel routines

   This run was terminated on:   4:30:48  19Mar2020

   JOB DONE.