     Program PWSCF v.6.4.1 starts on 19Nov2019 at 18:48: 9

     K-points division:     npool     =      40
     Reading input from rscf.in

     Current dimensions of program PWSCF are:
     Max number of different atomic species (ntypx) = 10
     Max number of k-points (npk) =  40000
     Max angular momentum in pseudopotentials (lmaxx) =  3

     Subspace diagonalization in iterative solution of the eigenvalue problem:
     a serial algorithm will be used

     Message from routine setup:
     using ibrav=0 with symmetry is DISCOURAGED, use correct ibrav instead

     bravais-lattice index     =            0
     lattice parameter (alat)  =       9.7849  a.u.
     unit-cell volume          =    1402.1515 (a.u.)^3
     number of atoms/cell      =           16
     number of atomic types    =            2
     number of electrons       =       184.00
     number of Kohn-Sham states=          110
     kinetic-energy cutoff     =     120.0000  Ry
     charge density cutoff     =     480.0000  Ry
     convergence threshold     =      1.0E-08
     mixing beta               =       0.7000
     number of iterations used =            8  plain     mixing
     Exchange-correlation      = SLA PW NOGX NOGC ( 1  4  0  0 0 0)
     nstep                     =           50

     celldm(1)=   9.784926  celldm(2)=   0.000000  celldm(3)=   0.000000
     celldm(4)=   0.000000  celldm(5)=   0.000000  celldm(6)=   0.000000

     crystal axes: (cart. coord. in units of alat)
               a(1) = (   1.000000   0.000000   0.000000 )
               a(2) = (   0.000000   1.000000   0.000000 )
               a(3) = (   0.000000   0.000000   1.496657 )

     reciprocal axes: (cart. coord. in units 2 pi/alat)
               b(1) = (  1.000000  0.000000  0.000000 )
               b(2) = (  0.000000  1.000000  0.000000 )
               b(3) = (  0.000000  0.000000  0.668156 )

     PseudoPot. # 1 for W  read from file:
     /cluster/scratch/mnoe/QE/pps/W_ONCV_LDA-4.0.upf
     MD5 check sum: ba0307d5d4cd419d6f1d13dc49d7c13a
     Pseudo is Norm-conserving + core correction, Zval = 28.0
     Generated using ONCVPSP code by D. R. Hamann
     Using radial grid of 1380 points,  8 beta functions with:
                l(1) =   0
                l(2) =   0
                l(3) =   1
                l(4) =   1
                l(5) =   2
                l(6) =   2
                l(7) =   3
                l(8) =   3

     PseudoPot. # 2 for O  read from file:
     /cluster/scratch/mnoe/QE/pps/O_ONCV_LDA-3.0.upf
     MD5 check sum: b55cdb4f45ae2203d24ad12cf8d61a31
     Pseudo is Norm-conserving + core correction, Zval =  6.0
     Generated using ONCVPSP code by D. R. Hamann
     Using radial grid of  926 points,  5 beta functions with:
                l(1) =   0
                l(2) =   0
                l(3) =   1
                l(4) =   1
                l(5) =   2

     atomic species   valence    mass     pseudopotential
        W             28.00   183.84000     W ( 1.00)
        O              6.00    15.99940     O ( 1.00)

     16 Sym. Ops., with inversion, found (14 have fractional translation)

   Cartesian axes

     site n.     atom                  positions (alat units)
         1           W   tau(   1) = (   0.2500000   0.2500000   0.3132400  )
         2           W   tau(   2) = (   0.7500000   0.7500000   1.1834171  )
         3           W   tau(   3) = (   0.7500000   0.7500000   0.4350886  )
         4           W   tau(   4) = (   0.2500000   0.2500000   1.0615684  )
         5           O   tau(   5) = (   0.2500000   0.2500000   0.7108610  )
         6           O   tau(   6) = (   0.7500000   0.7500000   0.7857960  )
         7           O   tau(   7) = (   0.7500000   0.7500000   0.0374675  )
         8           O   tau(   8) = (   0.2500000   0.2500000   1.4591895  )
         9           O   tau(   9) = (   0.4950507   0.5049492   0.3741643  )
        10           O   tau(  10) = (   0.5049493   0.4950508   1.1224928  )
        11           O   tau(  11) = (   0.0049493   0.9950508   0.3741643  )
        12           O   tau(  12) = (   0.9950507   0.0049493   1.1224928  )
        13           O   tau(  13) = (   0.9950508   0.4950507   0.3741643  )
        14           O   tau(  14) = (   0.0049493   0.5049493   1.1224928  )
        15           O   tau(  15) = (   0.5049492   0.0049493   0.3741643  )
        16           O   tau(  16) = (   0.4950508   0.9950507   1.1224928  )

     number of k points=    40  gaussian smearing, width (Ry)=  0.0007
                       cart. coord. in units 2pi/alat
        k(    1) = (   0.0000000   0.0000000   0.0000000), wk =   0.0092593
        k(    2) = (   0.0000000   0.0000000   0.1113593), wk =   0.0185185
        k(    3) = (   0.0000000   0.0000000   0.2227186), wk =   0.0185185
        k(    4) = (   0.0000000   0.0000000  -0.3340779), wk =   0.0092593
        k(    5) = (   0.0000000   0.1666667   0.0000000), wk =   0.0370370
        k(    6) = (   0.0000000   0.1666667   0.1113593), wk =   0.0740741
        k(    7) = (   0.0000000   0.1666667   0.2227186), wk =   0.0740741
        k(    8) = (   0.0000000   0.1666667  -0.3340779), wk =   0.0370370
        k(    9) = (   0.0000000   0.3333333   0.0000000), wk =   0.0370370
        k(   10) = (   0.0000000   0.3333333   0.1113593), wk =   0.0740741
        k(   11) = (   0.0000000   0.3333333   0.2227186), wk =   0.0740741
        k(   12) = (   0.0000000   0.3333333  -0.3340779), wk =   0.0370370
        k(   13) = (   0.0000000  -0.5000000   0.0000000), wk =   0.0185185
        k(   14) = (   0.0000000  -0.5000000   0.1113593), wk =   0.0370370
        k(   15) = (   0.0000000  -0.5000000   0.2227186), wk =   0.0370370
        k(   16) = (   0.0000000  -0.5000000  -0.3340779), wk =   0.0185185
        k(   17) = (   0.1666667   0.1666667   0.0000000), wk =   0.0370370
        k(   18) = (   0.1666667   0.1666667   0.1113593), wk =   0.0740741
        k(   19) = (   0.1666667   0.1666667   0.2227186), wk =   0.0740741
        k(   20) = (   0.1666667   0.1666667  -0.3340779), wk =   0.0370370
        k(   21) = (   0.1666667   0.3333333   0.0000000), wk =   0.0740741
        k(   22) = (   0.1666667   0.3333333   0.1113593), wk =   0.1481481
        k(   23) = (   0.1666667   0.3333333   0.2227186), wk =   0.1481481
        k(   24) = (   0.1666667   0.3333333  -0.3340779), wk =   0.0740741
        k(   25) = (   0.1666667  -0.5000000   0.0000000), wk =   0.0370370
        k(   26) = (   0.1666667  -0.5000000   0.1113593), wk =   0.0740741
        k(   27) = (   0.1666667  -0.5000000   0.2227186), wk =   0.0740741
        k(   28) = (   0.1666667  -0.5000000  -0.3340779), wk =   0.0370370
        k(   29) = (   0.3333333   0.3333333   0.0000000), wk =   0.0370370
        k(   30) = (   0.3333333   0.3333333   0.1113593), wk =   0.0740741
        k(   31) = (   0.3333333   0.3333333   0.2227186), wk =   0.0740741
        k(   32) = (   0.3333333   0.3333333  -0.3340779), wk =   0.0370370
        k(   33) = (   0.3333333  -0.5000000   0.0000000), wk =   0.0370370
        k(   34) = (   0.3333333  -0.5000000   0.1113593), wk =   0.0740741
        k(   35) = (   0.3333333  -0.5000000   0.2227186), wk =   0.0740741
        k(   36) = (   0.3333333  -0.5000000  -0.3340779), wk =   0.0370370
        k(   37) = (  -0.5000000  -0.5000000   0.0000000), wk =   0.0092593
        k(   38) = (  -0.5000000  -0.5000000   0.1113593), wk =   0.0185185
        k(   39) = (  -0.5000000  -0.5000000   0.2227186), wk =   0.0185185
        k(   40) = (  -0.5000000  -0.5000000  -0.3340779), wk =   0.0092593

     Initial potential from superposition of free atoms

     starting charge  183.99828, renormalised to  184.00000
     Starting wfcs are  116 randomized atomic wfcs

     Self-consistent Calculation

     iteration #  1     ecut=   120.00 Ry     beta= 0.70
     Davidson diagonalization with overlap
     ethr =  1.00E-02,  avg # of iterations =  4.2

     total energy              =   -3126.88686791 Ry
     Harris-Foulkes estimate   =   -3132.27197593 Ry
     estimated scf accuracy    <       6.82364403 Ry

[...]

     End of self-consistent calculation

          k = 0.0000 0.0000 0.0000 ( 31095 PWs)   bands (ev):

   -66.1498 -66.1494 -66.1482 -66.1478 -30.5560 -30.5560 -30.5526 -30.5526
   -30.4627 -30.4627 -30.4601 -30.4601 -30.4399 -30.4351 -30.3803 -30.3769
   -20.3017 -20.3016 -20.3016 -20.3015 -20.2927 -20.2927 -20.2927 -20.2927
   -20.2903 -20.2903 -20.2902 -20.2902 -20.2734 -20.2733 -20.2733 -20.2731
   -20.2717 -20.2715 -20.2670 -20.2670 -20.2659 -20.2658 -20.2658 -20.2657
   -20.2639 -20.2639 -20.2626 -20.2626 -10.0843  -9.8281  -9.1834  -9.1634
    -8.8737  -8.6607  -7.7609  -7.7609  -7.7416  -7.7416  -7.6171  -7.4807
     0.8393   0.8418   1.2492   1.3100   1.6441   1.7441   2.2397   2.3361
     2.5381   2.5381   3.9123   3.9123   4.9564   5.1739   5.1739   5.6128
     5.6128   5.7992   5.7992   5.9550   6.1482   6.1482   6.1809   6.8098
     6.8098   6.8238   7.0723   7.1478   7.1478   7.1944   7.1944   7.2726
     8.4034   8.4115   8.4213   8.4213   8.9617   8.9661   9.6821   9.6821
    12.3770  12.3770  13.5803  13.6320  13.6320  14.1252  14.1423  14.3484
    14.3484  14.5641  14.5711  14.6756  15.4344  16.7027

[...]

          k =-0.5000-0.5000 0.0000 ( 31144 PWs)   bands (ev):

[...]

     the Fermi energy is     8.6165 ev

!    total energy              =   -3130.49468099 Ry
     Harris-Foulkes estimate   =   -3130.49468099 Ry
     estimated scf accuracy    <          1.2E-10 Ry

     The total energy is the sum of the following terms:

     one-electron contribution =   -2383.25465199 Ry
     hartree contribution      =    1310.20187715 Ry
     xc contribution           =    -483.09320845 Ry
     ewald contribution        =   -1574.34869771 Ry
     smearing contrib. (-TS)   =      -0.00000000 Ry

     convergence has been achieved in  13 iterations

     Forces acting on atoms (cartesian axes, Ry/au):

     atom    1 type  1   force =     0.00000000    0.00000000   -0.05922898
     atom    2 type  1   force =     0.00000000    0.00000000    0.05922898
     atom    3 type  1   force =     0.00000000    0.00000000    0.05922898
     atom    4 type  1   force =     0.00000000    0.00000000   -0.05922898
     atom    5 type  2   force =     0.00000000    0.00000000    0.10122369
     atom    6 type  2   force =     0.00000000    0.00000000   -0.10122369
     atom    7 type  2   force =     0.00000000    0.00000000   -0.10122369
     atom    8 type  2   force =     0.00000000    0.00000000    0.10122369
     atom    9 type  2   force =    -0.00130812    0.00130812    0.00000000
     atom   10 type  2   force =     0.00130812   -0.00130812    0.00000000
     atom   11 type  2   force =     0.00130812   -0.00130812    0.00000000
     atom   12 type  2   force =    -0.00130812    0.00130812    0.00000000
     atom   13 type  2   force =    -0.00130812   -0.00130812    0.00000000
     atom   14 type  2   force =     0.00130812    0.00130812    0.00000000
     atom   15 type  2   force =     0.00130812    0.00130812    0.00000000
[...]
   0.00000000   0.00000000  -0.00045883          0.00      0.00    -67.50

     BFGS Geometry Optimization

     number of scf cycles    =   1
     number of bfgs steps    =   0

     enthalpy new            =   -3130.4946809903 Ry

     new trust radius        =       0.1241931256 bohr
     new conv_thr            =       0.0000000100 Ry

     new unit-cell volume =   1432.42009 a.u.^3 (   212.26276 Ang^3 )
     density =      7.25471 g/cm^3

CELL_PARAMETERS (angstrom)
   5.263827411   0.000000000   0.000000000
   0.000000000   5.263827411   0.000000000
   0.000000000   0.000000000   7.660736331

ATOMIC_POSITIONS (crystal)
W        0.250000000   0.250000000   0.209293087    0   0   0
W        0.750000023   0.750000023   0.790706928    0   0   0
W        0.750000023   0.750000023   0.290706928    0   0   0
W        0.250000000   0.250000000   0.709293072    0   0   0
O        0.250000000   0.250000000   0.474965886    0   0   0
O        0.750000023   0.750000023   0.525034114    0   0   0
O        0.750000023   0.750000023   0.025034127    0   0   0
O        0.250000000   0.250000000   0.974965886    0   0   0
O        0.495050720   0.504949234   0.250000000    0   0   0
O        0.504949280   0.495050766   0.750000000    0   0   0
O        0.004949263   0.995050766   0.250000000    0   0   0
O        0.995050674   0.004949297   0.750000000    0   0   0
O        0.995050766   0.495050720   0.250000000    0   0   0
O        0.004949297   0.504949280   0.750000000    0   0   0
O        0.504949234   0.004949263   0.250000000    0   0   0
O        0.495050766   0.995050674   0.750000000    0   0   0

     Writing output data file Landau_26.save/
     NEW-OLD atomic charge density approx. for the potential
     extrapolated charge  187.88808, renormalised to  184.00000

[...]

     enthalpy old            =   -3130.4946809903 Ry
     enthalpy new            =   -3130.5119307064 Ry

     CASE: enthalpy_new < enthalpy_old

[...]

     number of scf cycles    =   4
     number of bfgs steps    =   3

     enthalpy old            =   -3130.5123691727 Ry
     enthalpy new            =   -3130.5123988612 Ry

     CASE: enthalpy_new < enthalpy_old

     new trust radius        =       0.0002717878 bohr
     new conv_thr            =            1.0E-10 Ry

     new unit-cell volume =   1423.78030 a.u.^3 (   210.98247 Ang^3 )
     density =      7.29874 g/cm^3

[...]

ATOMIC_POSITIONS (crystal)
W        0.250000000   0.250000000   0.209293087    0   0   0
W        0.750000023   0.750000023   0.790706928    0   0   0
W        0.750000023   0.750000023   0.290706928    0   0   0
W        0.250000000   0.250000000   0.709293072    0   0   0
O        0.250000000   0.250000000   0.474965886    0   0   0
O        0.750000023   0.750000023   0.525034114    0   0   0
O        0.750000023   0.750000023   0.025034127    0   0   0
O        0.250000000   0.250000000   0.974965886    0   0   0
O        0.495050720   0.504949234   0.250000000    0   0   0
O        0.504949280   0.495050766   0.750000000    0   0   0
O        0.004949263   0.995050766   0.250000000    0   0   0
O        0.995050674   0.004949297   0.750000000    0   0   0
O        0.995050766   0.495050720   0.250000000    0   0   0
O        0.004949297   0.504949280   0.750000000    0   0   0
O        0.504949234   0.004949263   0.250000000    0   0   0
O        0.495050766   0.995050674   0.750000000    0   0   0

     Writing output data file Landau_26.save/
     NEW-OLD atomic charge density approx. for the potential
     extrapolated charge  183.99964, renormalised to  184.00000

[...]

     Threshold (ethr) on eigenvalues was too large:
     Diagonalizing with lowered threshold

     Davidson diagonalization with overlap
     ethr =  1.51E-11,  avg # of iterations =  4.0

[...]

     bfgs converged in   5 scf cycles and   4 bfgs steps
     (criteria: energy <  1.0E-07 Ry, force <  1.0E-07Ry/Bohr, cell <  5.0E-01kbar)

     End of BFGS Geometry Optimization

     Final enthalpy =   -3130.5123989133 Ry
Begin final coordinates
     new unit-cell volume =   1423.78030 a.u.^3 (   210.98247 Ang^3 )
     density =      7.29874 g/cm^3

CELL_PARAMETERS (angstrom)
   5.253273956   0.000000000   0.000000000
   0.000000000   5.253273956   0.000000000
   0.000000000   0.000000000   7.645154609

ATOMIC_POSITIONS (crystal)
W        0.250000000   0.250000000   0.209293087    0   0   0
W        0.750000023   0.750000023   0.790706928    0   0   0
W        0.750000023   0.750000023   0.290706928    0   0   0
W        0.250000000   0.250000000   0.709293072    0   0   0
O        0.250000000   0.250000000   0.474965886    0   0   0
O        0.750000023   0.750000023   0.525034114    0   0   0
O        0.750000023   0.750000023   0.025034127    0   0   0
O        0.250000000   0.250000000   0.974965886    0   0   0
O        0.495050720   0.504949234   0.250000000    0   0   0
O        0.504949280   0.495050766   0.750000000    0   0   0
O        0.004949263   0.995050766   0.250000000    0   0   0
O        0.995050674   0.004949297   0.750000000    0   0   0
O        0.995050766   0.495050720   0.250000000    0   0   0
O        0.004949297   0.504949280   0.750000000    0   0   0
O        0.504949234   0.004949263   0.250000000    0   0   0
O        0.495050766   0.995050674   0.750000000    0   0   0
End final coordinates

     Writing output data file Landau_26.save/

     Final scf calculation at the relaxed structure.
     The G-vectors are recalculated for the final unit cell
     Results may differ from those at the preceding step.

     bravais-lattice index     =            0
     lattice parameter (alat)  =       9.7849  a.u.
     unit-cell volume          =    1423.7803 (a.u.)^3
     number of atoms/cell      =           16
     number of atomic types    =            2
     number of electrons       =       184.00
     number of Kohn-Sham states=          110
     kinetic-energy cutoff     =     120.0000  Ry
     charge density cutoff     =     480.0000  Ry
     convergence threshold     =      1.0E-10
     mixing beta               =       0.7000
     number of iterations used =            8  plain     mixing
     Exchange-correlation      = SLA PW NOGX NOGC ( 1  4  0  0 0 0)

     celldm(1)=   9.784926  celldm(2)=   0.000000  celldm(3)=   0.000000
     celldm(4)=   0.000000  celldm(5)=   0.000000  celldm(6)=   0.000000

     crystal axes: (cart. coord. in units of alat)
               a(1) = (   1.014545   0.000000   0.000000 )
               a(2) = (   0.000000   1.014545   0.000000 )
               a(3) = (   0.000000   0.000000   1.476480 )

     reciprocal axes: (cart. coord. in units 2 pi/alat)
               b(1) = (  0.985663  0.000000  0.000000 )
               b(2) = (  0.000000  0.985663  0.000000 )
               b(3) = (  0.000000  0.000000  0.677286 )

     PseudoPot. # 1 for W  read from file:
     /cluster/scratch/mnoe/QE/pps/W_ONCV_LDA-4.0.upf
     MD5 check sum: ba0307d5d4cd419d6f1d13dc49d7c13a
     Pseudo is Norm-conserving + core correction, Zval = 28.0
     Generated using ONCVPSP code by D. R. Hamann
     Using radial grid of 1380 points,  8 beta functions with:
                l(1) =   0
                l(2) =   0
                l(3) =   1
                l(4) =   1
                l(5) =   2
                l(6) =   2
                l(7) =   3
                l(8) =   3

     PseudoPot. # 2 for O  read from file:
     /cluster/scratch/mnoe/QE/pps/O_ONCV_LDA-3.0.upf
     MD5 check sum: b55cdb4f45ae2203d24ad12cf8d61a31
     Pseudo is Norm-conserving + core correction, Zval =  6.0
     Generated using ONCVPSP code by D. R. Hamann
     Using radial grid of  926 points,  5 beta functions with:
                l(1) =   0
                l(2) =   0
                l(3) =   1
                l(4) =   1
                l(5) =   2

     atomic species   valence    mass     pseudopotential
        W             28.00   183.84000     W ( 1.00)
        O              6.00    15.99940     O ( 1.00)

     16 Sym. Ops., with inversion, found (14 have fractional translation)

   Cartesian axes

     site n.     atom                  positions (alat units)
         1           W   tau(   1) = (   0.2536363   0.2536363   0.3090171  )
         2           W   tau(   2) = (   0.7609089   0.7609089   1.1674630  )
         3           W   tau(   3) = (   0.7609089   0.7609089   0.4292230  )
         4           W   tau(   4) = (   0.2536363   0.2536363   1.0472571  )
         5           O   tau(   5) = (   0.2536363   0.2536363   0.7012777  )
         6           O   tau(   6) = (   0.7609089   0.7609089   0.7752024  )
         7           O   tau(   7) = (   0.7609089   0.7609089   0.0369624  )
         8           O   tau(   8) = (   0.2536363   0.2536363   1.4395177  )
         9           O   tau(   9) = (   0.5022513   0.5122938   0.3691200  )
        10           O   tau(  10) = (   0.5122938   0.5022513   1.1073601  )
        11           O   tau(  11) = (   0.0050213   1.0095239   0.3691200  )
        12           O   tau(  12) = (   1.0095238   0.0050213   1.1073601  )
        13           O   tau(  13) = (   1.0095239   0.5022513   0.3691200  )
        14           O   tau(  14) = (   0.0050213   0.5122938   1.1073601  )
        15           O   tau(  15) = (   0.5122938   0.0050213   0.3691200  )
        16           O   tau(  16) = (   0.5022513   1.0095238   1.1073601  )

     number of k points=    40  gaussian smearing, width (Ry)=  0.0007
                       cart. coord. in units 2pi/alat
        k(    1) = (   0.0000000   0.0000000   0.0000000), wk =   0.0092593
        k(    2) = (   0.0000000   0.0000000   0.1128811), wk =   0.0185185
        k(    3) = (   0.0000000   0.0000000   0.2257622), wk =   0.0185185
        k(    4) = (   0.0000000   0.0000000  -0.3386432), wk =   0.0092593
        k(    5) = (   0.0000000   0.1642772   0.0000000), wk =   0.0370370
        k(    6) = (   0.0000000   0.1642772   0.1128811), wk =   0.0740741
        k(    7) = (   0.0000000   0.1642772   0.2257622), wk =   0.0740741
        k(    8) = (   0.0000000   0.1642772  -0.3386432), wk =   0.0370370
        k(    9) = (   0.0000000   0.3285545   0.0000000), wk =   0.0370370
        k(   10) = (   0.0000000   0.3285545   0.1128811), wk =   0.0740741
        k(   11) = (   0.0000000   0.3285545   0.2257622), wk =   0.0740741
        k(   12) = (   0.0000000   0.3285545  -0.3386432), wk =   0.0370370
        k(   13) = (   0.0000000  -0.4928317   0.0000000), wk =   0.0185185
        k(   14) = (   0.0000000  -0.4928317   0.1128811), wk =   0.0370370
        k(   15) = (   0.0000000  -0.4928317   0.2257622), wk =   0.0370370
        k(   16) = (   0.0000000  -0.4928317  -0.3386432), wk =   0.0185185
        k(   17) = (   0.1642772   0.1642772   0.0000000), wk =   0.0370370
        k(   18) = (   0.1642772   0.1642772   0.1128811), wk =   0.0740741
        k(   19) = (   0.1642772   0.1642772   0.2257622), wk =   0.0740741
        k(   20) = (   0.1642772   0.1642772  -0.3386432), wk =   0.0370370
        k(   21) = (   0.1642772   0.3285545   0.0000000), wk =   0.0740741
        k(   22) = (   0.1642772   0.3285545   0.1128811), wk =   0.1481481
        k(   23) = (   0.1642772   0.3285545   0.2257622), wk =   0.1481481
        k(   24) = (   0.1642772   0.3285545  -0.3386432), wk =   0.0740741
        k(   25) = (   0.1642772  -0.4928317   0.0000000), wk =   0.0370370
        k(   26) = (   0.1642772  -0.4928317   0.1128811), wk =   0.0740741
        k(   27) = (   0.1642772  -0.4928317   0.2257622), wk =   0.0740741
        k(   28) = (   0.1642772  -0.4928317  -0.3386432), wk =   0.0370370
        k(   29) = (   0.3285545   0.3285545   0.0000000), wk =   0.0370370
        k(   30) = (   0.3285545   0.3285545   0.1128811), wk =   0.0740741
        k(   31) = (   0.3285545   0.3285545   0.2257622), wk =   0.0740741
        k(   32) = (   0.3285545   0.3285545  -0.3386432), wk =   0.0370370
        k(   33) = (   0.3285545  -0.4928317   0.0000000), wk =   0.0370370
        k(   34) = (   0.3285545  -0.4928317   0.1128811), wk =   0.0740741
        k(   35) = (   0.3285545  -0.4928317   0.2257622), wk =   0.0740741
        k(   36) = (   0.3285545  -0.4928317  -0.3386432), wk =   0.0370370
        k(   37) = (  -0.4928317  -0.4928317   0.0000000), wk =   0.0092593
        k(   38) = (  -0.4928317  -0.4928317   0.1128811), wk =   0.0185185
        k(   39) = (  -0.4928317  -0.4928317   0.2257622), wk =   0.0185185
        k(   40) = (  -0.4928317  -0.4928317  -0.3386432), wk =   0.0092593

     Initial potential from superposition of free atoms

     starting charge  183.99828, renormalised to  184.00000
     Starting wfcs are  116 randomized atomic wfcs

     Self-consistent Calculation

[...]

     total energy              =   -3130.51261074 Ry
     Harris-Foulkes estimate   =   -3130.51261074 Ry
     estimated scf accuracy    <          2.2E-09 Ry

     iteration # 13     ecut=   120.00 Ry     beta= 0.70
     Davidson diagonalization with overlap
     ethr =  1.17E-12,  avg # of iterations =  3.0

     End of self-consistent calculation

[...]

          k = 0.3286-0.4928-0.3386 ( 31636 PWs)   bands (ev):

[...]

          k =-0.4928-0.4928-0.3386 ( 31648 PWs)   bands (ev):

   -66.4399 -66.4399 -66.4399 -66.4399 -30.7787 -30.7787 -30.7787 -30.7787
   -30.7437 -30.7437 -30.7436 -30.7436 -30.6918 -30.6918 -30.6918 -30.6918
   -20.6078 -20.6078 -20.6078 -20.6078 -20.6025 -20.6025 -20.6024 -20.6024
   -20.5968 -20.5968 -20.5968 -20.5968 -20.5800 -20.5800 -20.5800 -20.5800
   -20.5744 -20.5744 -20.5744 -20.5744 -20.5695 -20.5695 -20.5695 -20.5695
   -20.5668 -20.5668 -20.5668 -20.5668  -9.5705  -9.5705  -9.5704  -9.5704
    -8.6414  -8.6414  -8.6414  -8.6414  -7.9669  -7.9669  -7.9669  -7.9669
     1.0529   1.0529   1.0529   1.0529   2.9016   2.9016   2.9016   2.9016
     3.1533   3.1533   3.1533   3.1533   4.4802   4.4802   4.4802   4.4802
     5.1879   5.1879   5.1879   5.1879   5.8163   5.8163   5.8163   5.8163
     6.0847   6.0847   6.0847   6.0847   6.5493   6.5493   6.5493   6.5493
     7.3803   7.3803   7.3804   7.3804  11.0172  11.0172  11.0172  11.0172
    12.3092  12.3092  12.3092  12.3092  13.4392  13.4392  13.4392  13.4392
    14.8558  14.8558  14.8558  14.8558  17.8318  17.8318

     the Fermi energy is     8.6302 ev

!    total energy              =   -3130.51261074 Ry
     Harris-Foulkes estimate   =   -3130.51261074 Ry
     estimated scf accuracy    <          9.9E-11 Ry

     The total energy is the sum of the following terms:

     one-electron contribution =   -2395.34237744 Ry
     hartree contribution      =    1314.45224650 Ry
     xc contribution           =    -482.86227616 Ry
     ewald contribution        =   -1566.76020364 Ry
     smearing contrib. (-TS)   =      -0.00000000 Ry

     convergence has been achieved in  13 iterations

     Forces acting on atoms (cartesian axes, Ry/au):

     atom    1 type  1   force =     0.00000000    0.00000000   -0.01614345
     atom    2 type  1   force =     0.00000000    0.00000000    0.01614345
     atom    3 type  1   force =     0.00000000    0.00000000    0.01614345
     atom    4 type  1   force =     0.00000000    0.00000000   -0.01614345
     atom    5 type  2   force =     0.00000000    0.00000000    0.08139791
     atom    6 type  2   force =     0.00000000    0.00000000   -0.08139791
     atom    7 type  2   force =     0.00000000    0.00000000   -0.08139791
     atom    8 type  2   force =     0.00000000    0.00000000    0.08139791
     atom    9 type  2   force =    -0.00038606    0.00038606    0.00000000
     atom   10 type  2   force =     0.00038606   -0.00038606    0.00000000
     atom   11 type  2   force =     0.00038606   -0.00038606    0.00000000
     atom   12 type  2   force =    -0.00038606    0.00038606    0.00000000
     atom   13 type  2   force =    -0.00038606   -0.00038606    0.00000000
     atom   14 type  2   force =     0.00038606    0.00038606    0.00000000
     atom   15 type  2   force =     0.00038606    0.00038606    0.00000000
     atom   16 type  2   force =    -0.00038606   -0.00038606    0.00000000

     Total force =     0.000000     Total SCF correction =     0.000000

     Computing stress (Cartesian axis) and pressure

          total   stress  (Ry/bohr**3)                   (kbar)     P=    0.68
   0.00000694   0.00000000   0.00000000          1.02      0.00      0.00
   0.00000000   0.00000694   0.00000000          0.00      1.02      0.00
   0.00000000   0.00000000  -0.00000007          0.00      0.00     -0.01

     Writing output data file Landau_26.save/

     General routines

     Parallel routines

   This run was terminated on:  19:11:42  19Nov2019

   JOB DONE.