     Program PWSCF v.6.4.1 starts on 21Nov2019 at 17:47: 0

     K-points division:     npool     =      40
     Reading input from rscf.in

     Current dimensions of program PWSCF are:
     Max number of different atomic species (ntypx) = 10
     Max number of k-points (npk) =  40000
     Max angular momentum in pseudopotentials (lmaxx) =  3

     Subspace diagonalization in iterative solution of the eigenvalue problem:
     a serial algorithm will be used

     Message from routine setup:
     using ibrav=0 with symmetry is DISCOURAGED, use correct ibrav instead

     bravais-lattice index     =            0
     lattice parameter (alat)  =       9.7849  a.u.
     unit-cell volume          =    1402.1515 (a.u.)^3
     number of atoms/cell      =           16
     number of atomic types    =            2
     number of electrons       =       184.00
     number of Kohn-Sham states=          110
     kinetic-energy cutoff     =     120.0000  Ry
     charge density cutoff     =     480.0000  Ry
     convergence threshold     =      1.0E-08
     mixing beta               =       0.7000
     number of iterations used =            8  plain     mixing
     Exchange-correlation      = SLA PW NOGX NOGC ( 1  4  0  0 0 0)
     nstep                     =           50

     celldm(1)=   9.784926  celldm(2)=   0.000000  celldm(3)=   0.000000
     celldm(4)=   0.000000  celldm(5)=   0.000000  celldm(6)=   0.000000

     crystal axes: (cart. coord. in units of alat)
               a(1) = (   1.000000   0.000000   0.000000 )
               a(2) = (   0.000000   1.000000   0.000000 )
               a(3) = (   0.000000   0.000000   1.496657 )

     reciprocal axes: (cart. coord. in units 2 pi/alat)
               b(1) = (  1.000000  0.000000  0.000000 )
               b(2) = (  0.000000  1.000000  0.000000 )
               b(3) = (  0.000000  0.000000  0.668156 )

     PseudoPot. # 1 for W  read from file:
     /cluster/scratch/mnoe/QE/pps/W_ONCV_LDA-4.0.upf
     MD5 check sum: ba0307d5d4cd419d6f1d13dc49d7c13a
     Pseudo is Norm-conserving + core correction, Zval = 28.0
     Generated using ONCVPSP code by D. R. Hamann
     Using radial grid of 1380 points,  8 beta functions with:
                l(1) =   0
                l(2) =   0
                l(3) =   1
                l(4) =   1
                l(5) =   2
                l(6) =   2
                l(7) =   3
                l(8) =   3

     PseudoPot. # 2 for O  read from file:
     /cluster/scratch/mnoe/QE/pps/O_ONCV_LDA-3.0.upf
     MD5 check sum: b55cdb4f45ae2203d24ad12cf8d61a31
     Pseudo is Norm-conserving + core correction, Zval =  6.0
     Generated using ONCVPSP code by D. R. Hamann
     Using radial grid of  926 points,  5 beta functions with:
                l(1) =   0
                l(2) =   0
                l(3) =   1
                l(4) =   1
                l(5) =   2

     atomic species   valence    mass     pseudopotential
        W             28.00   183.84000     W ( 1.00)
        O              6.00    15.99940     O ( 1.00)

     16 Sym. Ops., with inversion, found (14 have fractional translation)

   Cartesian axes

     site n.     atom                  positions (alat units)
         1           W   tau(   1) = (   0.2500000   0.2500000   0.3132400  )
         2           W   tau(   2) = (   0.7500000   0.7500000   1.1834171  )
         3           W   tau(   3) = (   0.7500000   0.7500000   0.4350886  )
         4           W   tau(   4) = (   0.2500000   0.2500000   1.0615684  )
         5           O   tau(   5) = (   0.2500000   0.2500000   0.7108610  )
         6           O   tau(   6) = (   0.7500000   0.7500000   0.7857960  )
         7           O   tau(   7) = (   0.7500000   0.7500000   0.0374675  )
         8           O   tau(   8) = (   0.2500000   0.2500000   1.4591895  )
         9           O   tau(   9) = (   0.4950507   0.5049492   0.3741643  )
        10           O   tau(  10) = (   0.5049493   0.4950508   1.1224928  )
        11           O   tau(  11) = (   0.0049493   0.9950508   0.3741643  )
        12           O   tau(  12) = (   0.9950507   0.0049493   1.1224928  )
        13           O   tau(  13) = (   0.9950508   0.4950507   0.3741643  )
        14           O   tau(  14) = (   0.0049493   0.5049493   1.1224928  )
        15           O   tau(  15) = (   0.5049492   0.0049493   0.3741643  )
        16           O   tau(  16) = (   0.4950508   0.9950507   1.1224928  )

     number of k points=    60  gaussian smearing, width (Ry)=  0.0007
                       cart. coord. in units 2pi/alat
        k(    1) = (   0.0000000   0.0000000   0.0000000), wk =   0.0041152
        k(    2) = (   0.0000000   0.0000000   0.1113593), wk =   0.0082305
        k(    3) = (   0.0000000   0.0000000   0.2227186), wk =   0.0082305
        k(    4) = (   0.0000000   0.0000000  -0.3340779), wk =   0.0041152
        k(    5) = (   0.0000000   0.1111111   0.0000000), wk =   0.0164609
        k(    6) = (   0.0000000   0.1111111   0.1113593), wk =   0.0329218
        k(    7) = (   0.0000000   0.1111111   0.2227186), wk =   0.0329218
        k(    8) = (   0.0000000   0.1111111  -0.3340779), wk =   0.0164609
        k(    9) = (   0.0000000   0.2222222   0.0000000), wk =   0.0164609
        k(   10) = (   0.0000000   0.2222222   0.1113593), wk =   0.0329218
        k(   11) = (   0.0000000   0.2222222   0.2227186), wk =   0.0329218
        k(   12) = (   0.0000000   0.2222222  -0.3340779), wk =   0.0164609
        k(   13) = (   0.0000000   0.3333333   0.0000000), wk =   0.0164609
        k(   14) = (   0.0000000   0.3333333   0.1113593), wk =   0.0329218
        k(   15) = (   0.0000000   0.3333333   0.2227186), wk =   0.0329218
        k(   16) = (   0.0000000   0.3333333  -0.3340779), wk =   0.0164609
        k(   17) = (   0.0000000   0.4444444   0.0000000), wk =   0.0164609
        k(   18) = (   0.0000000   0.4444444   0.1113593), wk =   0.0329218
        k(   19) = (   0.0000000   0.4444444   0.2227186), wk =   0.0329218
        k(   20) = (   0.0000000   0.4444444  -0.3340779), wk =   0.0164609
        k(   21) = (   0.1111111   0.1111111   0.0000000), wk =   0.0164609
        k(   22) = (   0.1111111   0.1111111   0.1113593), wk =   0.0329218
        k(   23) = (   0.1111111   0.1111111   0.2227186), wk =   0.0329218
        k(   24) = (   0.1111111   0.1111111  -0.3340779), wk =   0.0164609
        k(   25) = (   0.1111111   0.2222222   0.0000000), wk =   0.0329218
        k(   26) = (   0.1111111   0.2222222   0.1113593), wk =   0.0658436
        k(   27) = (   0.1111111   0.2222222   0.2227186), wk =   0.0658436
        k(   28) = (   0.1111111   0.2222222  -0.3340779), wk =   0.0329218
        k(   29) = (   0.1111111   0.3333333   0.0000000), wk =   0.0329218
        k(   30) = (   0.1111111   0.3333333   0.1113593), wk =   0.0658436
        k(   31) = (   0.1111111   0.3333333   0.2227186), wk =   0.0658436
        k(   32) = (   0.1111111   0.3333333  -0.3340779), wk =   0.0329218
        k(   33) = (   0.1111111   0.4444444   0.0000000), wk =   0.0329218
        k(   34) = (   0.1111111   0.4444444   0.1113593), wk =   0.0658436
        k(   35) = (   0.1111111   0.4444444   0.2227186), wk =   0.0658436
        k(   36) = (   0.1111111   0.4444444  -0.3340779), wk =   0.0329218
        k(   37) = (   0.2222222   0.2222222   0.0000000), wk =   0.0164609
        k(   38) = (   0.2222222   0.2222222   0.1113593), wk =   0.0329218
        k(   39) = (   0.2222222   0.2222222   0.2227186), wk =   0.0329218
        k(   40) = (   0.2222222   0.2222222  -0.3340779), wk =   0.0164609
        k(   41) = (   0.2222222   0.3333333   0.0000000), wk =   0.0329218
        k(   42) = (   0.2222222   0.3333333   0.1113593), wk =   0.0658436
        k(   43) = (   0.2222222   0.3333333   0.2227186), wk =   0.0658436
        k(   44) = (   0.2222222   0.3333333  -0.3340779), wk =   0.0329218
        k(   45) = (   0.2222222   0.4444444   0.0000000), wk =   0.0329218
        k(   46) = (   0.2222222   0.4444444   0.1113593), wk =   0.0658436
        k(   47) = (   0.2222222   0.4444444   0.2227186), wk =   0.0658436
        k(   48) = (   0.2222222   0.4444444  -0.3340779), wk =   0.0329218
        k(   49) = (   0.3333333   0.3333333   0.0000000), wk =   0.0164609
        k(   50) = (   0.3333333   0.3333333   0.1113593), wk =   0.0329218
        k(   51) = (   0.3333333   0.3333333   0.2227186), wk =   0.0329218
        k(   52) = (   0.3333333   0.3333333  -0.3340779), wk =   0.0164609
        k(   53) = (   0.3333333   0.4444444   0.0000000), wk =   0.0329218
        k(   54) = (   0.3333333   0.4444444   0.1113593), wk =   0.0658436
        k(   55) = (   0.3333333   0.4444444   0.2227186), wk =   0.0658436
        k(   56) = (   0.3333333   0.4444444  -0.3340779), wk =   0.0329218
        k(   57) = (   0.4444444   0.4444444   0.0000000), wk =   0.0164609
        k(   58) = (   0.4444444   0.4444444   0.1113593), wk =   0.0329218
        k(   59) = (   0.4444444   0.4444444   0.2227186), wk =   0.0329218
        k(   60) = (   0.4444444   0.4444444  -0.3340779), wk =   0.0164609

     Initial potential from superposition of free atoms

     starting charge  183.99828, renormalised to  184.00000
     Starting wfcs are  116 randomized atomic wfcs

     Self-consistent Calculation

     iteration #  1     ecut=   120.00 Ry     beta= 0.70
     Davidson diagonalization with overlap
     ethr =  1.00E-02,  avg # of iterations =  4.4

     total energy              =   -3126.88734825 Ry
     Harris-Foulkes estimate   =   -3132.27217210 Ry
     estimated scf accuracy    <       6.82326523 Ry

[...]

     End of self-consistent calculation

          k = 0.0000 0.0000 0.0000 ( 31095 PWs)   bands (ev):

   -66.1489 -66.1485 -66.1473 -66.1469 -30.5551 -30.5551 -30.5517 -30.5517
   -30.4618 -30.4618 -30.4592 -30.4592 -30.4393 -30.4345 -30.3797 -30.3763
   -20.3007 -20.3007 -20.3006 -20.3005 -20.2916 -20.2916 -20.2916 -20.2916
   -20.2891 -20.2891 -20.2891 -20.2891 -20.2725 -20.2725 -20.2724 -20.2723
   -20.2709 -20.2707 -20.2662 -20.2662 -20.2651 -20.2650 -20.2650 -20.2649
   -20.2631 -20.2631 -20.2618 -20.2618 -10.0846  -9.8286  -9.1839  -9.1638
    -8.8735  -8.6607  -7.7614  -7.7614  -7.7420  -7.7420  -7.6169  -7.4805
     0.8393   0.8417   1.2491   1.3099   1.6442   1.7444   2.2394   2.3359
     2.5381   2.5381   3.9122   3.9122   4.9563   5.1742   5.1742   5.6125
     5.6125   5.7989   5.7989   5.9547   6.1483   6.1483   6.1811   6.8098
     6.8098   6.8233   7.0718   7.1472   7.1472   7.1938   7.1938   7.2725
     8.4027   8.4108   8.4212   8.4212   8.9624   8.9667   9.6825   9.6825
    12.3774  12.3774  13.5807  13.6322  13.6322  14.1255  14.1427  14.3487
    14.3487  14.5646  14.5716  14.6755  15.4348  16.7029

[...]

     the Fermi energy is     8.7665 ev

!    total energy              =   -3130.49479714 Ry
     Harris-Foulkes estimate   =   -3130.49479714 Ry
     estimated scf accuracy    <          1.5E-10 Ry

     The total energy is the sum of the following terms:

     one-electron contribution =   -2383.25931795 Ry
     hartree contribution      =    1310.20626564 Ry
[...]
O        0.004949297   0.504949280   0.750000000    0   0   0
O        0.504949234   0.004949263   0.250000000    0   0   0
O        0.495050766   0.995050674   0.750000000    0   0   0

     Writing output data file Landau_26.save/
     NEW-OLD atomic charge density approx. for the potential
     extrapolated charge  187.88756, renormalised to  184.00000

[...]

     enthalpy old            =   -3130.4947971417 Ry
     enthalpy new            =   -3130.5120472237 Ry

     CASE: enthalpy_new < enthalpy_old

[...]

     number of scf cycles    =   4
     number of bfgs steps    =   3

     enthalpy old            =   -3130.5124849361 Ry
     enthalpy new            =   -3130.5125149997 Ry

     CASE: enthalpy_new < enthalpy_old

     new trust radius        =       0.0002729467 bohr
     new conv_thr            =            1.0E-10 Ry

     new unit-cell volume =   1423.78036 a.u.^3 (   210.98248 Ang^3 )
     density =      7.29874 g/cm^3

[...]

ATOMIC_POSITIONS (crystal)
W        0.250000000   0.250000000   0.209293087    0   0   0
W        0.750000023   0.750000023   0.790706928    0   0   0
W        0.750000023   0.750000023   0.290706928    0   0   0
W        0.250000000   0.250000000   0.709293072    0   0   0
O        0.250000000   0.250000000   0.474965886    0   0   0
O        0.750000023   0.750000023   0.525034114    0   0   0
O        0.750000023   0.750000023   0.025034127    0   0   0
O        0.250000000   0.250000000   0.974965886    0   0   0
O        0.495050720   0.504949234   0.250000000    0   0   0
O        0.504949280   0.495050766   0.750000000    0   0   0
O        0.004949263   0.995050766   0.250000000    0   0   0
O        0.995050674   0.004949297   0.750000000    0   0   0
O        0.995050766   0.495050720   0.250000000    0   0   0
O        0.004949297   0.504949280   0.750000000    0   0   0
O        0.504949234   0.004949263   0.250000000    0   0   0
O        0.495050766   0.995050674   0.750000000    0   0   0

     Writing output data file Landau_26.save/
     NEW-OLD atomic charge density approx. for the potential
     extrapolated charge  183.99970, renormalised to  184.00000

[...]

     Threshold (ethr) on eigenvalues was too large:
     Diagonalizing with lowered threshold

     Davidson diagonalization with overlap
     ethr =  1.19E-11,  avg # of iterations =  4.0

[...]

     bfgs converged in   5 scf cycles and   4 bfgs steps
     (criteria: energy <  1.0E-07 Ry, force <  1.0E-07Ry/Bohr, cell <  5.0E-01kbar)

     End of BFGS Geometry Optimization

     Final enthalpy =   -3130.5125150528 Ry
Begin final coordinates
     new unit-cell volume =   1423.78036 a.u.^3 (   210.98248 Ang^3 )
     density =      7.29874 g/cm^3

CELL_PARAMETERS (angstrom)
   5.253275131   0.000000000   0.000000000
   0.000000000   5.253275131   0.000000000
   0.000000000   0.000000000   7.645151532

ATOMIC_POSITIONS (crystal)
W        0.250000000   0.250000000   0.209293087    0   0   0
W        0.750000023   0.750000023   0.790706928    0   0   0
W        0.750000023   0.750000023   0.290706928    0   0   0
W        0.250000000   0.250000000   0.709293072    0   0   0
O        0.250000000   0.250000000   0.474965886    0   0   0
O        0.750000023   0.750000023   0.525034114    0   0   0
O        0.750000023   0.750000023   0.025034127    0   0   0
O        0.250000000   0.250000000   0.974965886    0   0   0
O        0.495050720   0.504949234   0.250000000    0   0   0
O        0.504949280   0.495050766   0.750000000    0   0   0
O        0.004949263   0.995050766   0.250000000    0   0   0
O        0.995050674   0.004949297   0.750000000    0   0   0
O        0.995050766   0.495050720   0.250000000    0   0   0
O        0.004949297   0.504949280   0.750000000    0   0   0
O        0.504949234   0.004949263   0.250000000    0   0   0
O        0.495050766   0.995050674   0.750000000    0   0   0
End final coordinates

     Writing output data file Landau_26.save/

     Final scf calculation at the relaxed structure.
     The G-vectors are recalculated for the final unit cell
     Results may differ from those at the preceding step.

     bravais-lattice index     =            0
     lattice parameter (alat)  =       9.7849  a.u.
     unit-cell volume          =    1423.7804 (a.u.)^3
     number of atoms/cell      =           16
     number of atomic types    =            2
     number of electrons       =       184.00
     number of Kohn-Sham states=          110
     kinetic-energy cutoff     =     120.0000  Ry
     charge density cutoff     =     480.0000  Ry
     convergence threshold     =      1.0E-10
     mixing beta               =       0.7000
     number of iterations used =            8  plain     mixing
     Exchange-correlation      = SLA PW NOGX NOGC ( 1  4  0  0 0 0)

     celldm(1)=   9.784926  celldm(2)=   0.000000  celldm(3)=   0.000000
     celldm(4)=   0.000000  celldm(5)=   0.000000  celldm(6)=   0.000000

     crystal axes: (cart. coord. in units of alat)
               a(1) = (   1.014545   0.000000   0.000000 )
               a(2) = (   0.000000   1.014545   0.000000 )
               a(3) = (   0.000000   0.000000   1.476479 )

     reciprocal axes: (cart. coord. in units 2 pi/alat)
               b(1) = (  0.985663  0.000000  0.000000 )
               b(2) = (  0.000000  0.985663  0.000000 )
               b(3) = (  0.000000  0.000000  0.677287 )

     PseudoPot. # 1 for W  read from file:
     /cluster/scratch/mnoe/QE/pps/W_ONCV_LDA-4.0.upf
     MD5 check sum: ba0307d5d4cd419d6f1d13dc49d7c13a
     Pseudo is Norm-conserving + core correction, Zval = 28.0
     Generated using ONCVPSP code by D. R. Hamann
     Using radial grid of 1380 points,  8 beta functions with:
                l(1) =   0
                l(2) =   0
                l(3) =   1
                l(4) =   1
                l(5) =   2
                l(6) =   2
                l(7) =   3
                l(8) =   3

     PseudoPot. # 2 for O  read from file:
     /cluster/scratch/mnoe/QE/pps/O_ONCV_LDA-3.0.upf
     MD5 check sum: b55cdb4f45ae2203d24ad12cf8d61a31
     Pseudo is Norm-conserving + core correction, Zval =  6.0
     Generated using ONCVPSP code by D. R. Hamann
     Using radial grid of  926 points,  5 beta functions with:
                l(1) =   0
                l(2) =   0
                l(3) =   1
                l(4) =   1
                l(5) =   2

     atomic species   valence    mass     pseudopotential
        W             28.00   183.84000     W ( 1.00)
        O              6.00    15.99940     O ( 1.00)

     16 Sym. Ops., with inversion, found (14 have fractional translation)

   Cartesian axes

     site n.     atom                  positions (alat units)
         1           W   tau(   1) = (   0.2536363   0.2536363   0.3090169  )
         2           W   tau(   2) = (   0.7609090   0.7609090   1.1674625  )
         3           W   tau(   3) = (   0.7609090   0.7609090   0.4292228  )
         4           W   tau(   4) = (   0.2536363   0.2536363   1.0472567  )
         5           O   tau(   5) = (   0.2536363   0.2536363   0.7012774  )
         6           O   tau(   6) = (   0.7609090   0.7609090   0.7752021  )
         7           O   tau(   7) = (   0.7609090   0.7609090   0.0369624  )
         8           O   tau(   8) = (   0.2536363   0.2536363   1.4395171  )
         9           O   tau(   9) = (   0.5022514   0.5122939   0.3691199  )
        10           O   tau(  10) = (   0.5122939   0.5022515   1.1073596  )
        11           O   tau(  11) = (   0.0050213   1.0095241   0.3691199  )
        12           O   tau(  12) = (   1.0095240   0.0050213   1.1073596  )
        13           O   tau(  13) = (   1.0095241   0.5022514   0.3691199  )
        14           O   tau(  14) = (   0.0050213   0.5122939   1.1073596  )
        15           O   tau(  15) = (   0.5122939   0.0050213   0.3691199  )
        16           O   tau(  16) = (   0.5022515   1.0095240   1.1073596  )

     number of k points=    60  gaussian smearing, width (Ry)=  0.0007
                       cart. coord. in units 2pi/alat
        k(    1) = (   0.0000000   0.0000000   0.0000000), wk =   0.0041152
        k(    2) = (   0.0000000   0.0000000   0.1128811), wk =   0.0082305
        k(    3) = (   0.0000000   0.0000000   0.2257623), wk =   0.0082305
        k(    4) = (   0.0000000   0.0000000  -0.3386434), wk =   0.0041152
        k(    5) = (   0.0000000   0.1095181   0.0000000), wk =   0.0164609
        k(    6) = (   0.0000000   0.1095181   0.1128811), wk =   0.0329218
        k(    7) = (   0.0000000   0.1095181   0.2257623), wk =   0.0329218
        k(    8) = (   0.0000000   0.1095181  -0.3386434), wk =   0.0164609
        k(    9) = (   0.0000000   0.2190363   0.0000000), wk =   0.0164609
        k(   10) = (   0.0000000   0.2190363   0.1128811), wk =   0.0329218
        k(   11) = (   0.0000000   0.2190363   0.2257623), wk =   0.0329218
        k(   12) = (   0.0000000   0.2190363  -0.3386434), wk =   0.0164609
        k(   13) = (   0.0000000   0.3285544   0.0000000), wk =   0.0164609
        k(   14) = (   0.0000000   0.3285544   0.1128811), wk =   0.0329218
        k(   15) = (   0.0000000   0.3285544   0.2257623), wk =   0.0329218
        k(   16) = (   0.0000000   0.3285544  -0.3386434), wk =   0.0164609
        k(   17) = (   0.0000000   0.4380725   0.0000000), wk =   0.0164609
        k(   18) = (   0.0000000   0.4380725   0.1128811), wk =   0.0329218
        k(   19) = (   0.0000000   0.4380725   0.2257623), wk =   0.0329218
        k(   20) = (   0.0000000   0.4380725  -0.3386434), wk =   0.0164609
        k(   21) = (   0.1095181   0.1095181   0.0000000), wk =   0.0164609
        k(   22) = (   0.1095181   0.1095181   0.1128811), wk =   0.0329218
        k(   23) = (   0.1095181   0.1095181   0.2257623), wk =   0.0329218
        k(   24) = (   0.1095181   0.1095181  -0.3386434), wk =   0.0164609
        k(   25) = (   0.1095181   0.2190363   0.0000000), wk =   0.0329218
        k(   26) = (   0.1095181   0.2190363   0.1128811), wk =   0.0658436
        k(   27) = (   0.1095181   0.2190363   0.2257623), wk =   0.0658436
        k(   28) = (   0.1095181   0.2190363  -0.3386434), wk =   0.0329218
        k(   29) = (   0.1095181   0.3285544   0.0000000), wk =   0.0329218
        k(   30) = (   0.1095181   0.3285544   0.1128811), wk =   0.0658436
        k(   31) = (   0.1095181   0.3285544   0.2257623), wk =   0.0658436
        k(   32) = (   0.1095181   0.3285544  -0.3386434), wk =   0.0329218
        k(   33) = (   0.1095181   0.4380725   0.0000000), wk =   0.0329218
        k(   34) = (   0.1095181   0.4380725   0.1128811), wk =   0.0658436
        k(   35) = (   0.1095181   0.4380725   0.2257623), wk =   0.0658436
        k(   36) = (   0.1095181   0.4380725  -0.3386434), wk =   0.0329218
        k(   37) = (   0.2190363   0.2190363   0.0000000), wk =   0.0164609
        k(   38) = (   0.2190363   0.2190363   0.1128811), wk =   0.0329218
        k(   39) = (   0.2190363   0.2190363   0.2257623), wk =   0.0329218
        k(   40) = (   0.2190363   0.2190363  -0.3386434), wk =   0.0164609
        k(   41) = (   0.2190363   0.3285544   0.0000000), wk =   0.0329218
        k(   42) = (   0.2190363   0.3285544   0.1128811), wk =   0.0658436
        k(   43) = (   0.2190363   0.3285544   0.2257623), wk =   0.0658436
        k(   44) = (   0.2190363   0.3285544  -0.3386434), wk =   0.0329218
        k(   45) = (   0.2190363   0.4380725   0.0000000), wk =   0.0329218
        k(   46) = (   0.2190363   0.4380725   0.1128811), wk =   0.0658436
        k(   47) = (   0.2190363   0.4380725   0.2257623), wk =   0.0658436
        k(   48) = (   0.2190363   0.4380725  -0.3386434), wk =   0.0329218
        k(   49) = (   0.3285544   0.3285544   0.0000000), wk =   0.0164609
        k(   50) = (   0.3285544   0.3285544   0.1128811), wk =   0.0329218
        k(   51) = (   0.3285544   0.3285544   0.2257623), wk =   0.0329218
        k(   52) = (   0.3285544   0.3285544  -0.3386434), wk =   0.0164609
        k(   53) = (   0.3285544   0.4380725   0.0000000), wk =   0.0329218
        k(   54) = (   0.3285544   0.4380725   0.1128811), wk =   0.0658436
        k(   55) = (   0.3285544   0.4380725   0.2257623), wk =   0.0658436
        k(   56) = (   0.3285544   0.4380725  -0.3386434), wk =   0.0329218
        k(   57) = (   0.4380725   0.4380725   0.0000000), wk =   0.0164609
        k(   58) = (   0.4380725   0.4380725   0.1128811), wk =   0.0329218
        k(   59) = (   0.4380725   0.4380725   0.2257623), wk =   0.0329218
        k(   60) = (   0.4380725   0.4380725  -0.3386434), wk =   0.0164609

     Initial potential from superposition of free atoms

     starting charge  183.99828, renormalised to  184.00000
     Starting wfcs are  116 randomized atomic wfcs

     Self-consistent Calculation

[...]

     total energy              =   -3130.51272728 Ry
     Harris-Foulkes estimate   =   -3130.51272728 Ry
     estimated scf accuracy    <          1.4E-10 Ry

     iteration # 14     ecut=   120.00 Ry     beta= 0.70
     Davidson diagonalization with overlap
     ethr =  1.00E-13,  avg # of iterations =  2.0

     End of self-consistent calculation

[...]

          k = 0.4381 0.4381-0.3386 ( 31608 PWs)   bands (ev):

   -66.4390 -66.4390 -66.4390 -66.4390 -30.7776 -30.7776 -30.7755 -30.7755
   -30.7432 -30.7432 -30.7428 -30.7428 -30.6933 -30.6933 -30.6911 -30.6911
   -20.6068 -20.6068 -20.6068 -20.6068 -20.6013 -20.6013 -20.6012 -20.6012
   -20.5959 -20.5958 -20.5958 -20.5958 -20.5792 -20.5792 -20.5792 -20.5792
   -20.5736 -20.5736 -20.5736 -20.5736 -20.5687 -20.5687 -20.5686 -20.5686
   -20.5660 -20.5660 -20.5659 -20.5659  -9.5757  -9.5757  -9.5351  -9.5350
    -8.6439  -8.6439  -8.6385  -8.6385  -8.0192  -8.0192  -7.9658  -7.9658
     1.0532   1.0532   1.1668   1.1668   2.9006   2.9006   2.9075   2.9075
     3.1529   3.1529   3.1765   3.1765   4.3272   4.3272   4.5129   4.5129
     5.0713   5.0713   5.2052   5.2052   5.6597   5.6597   5.8240   5.8240
     6.0915   6.0915   6.2252   6.2252   6.5469   6.5469   6.6477   6.6477
     7.3749   7.3750   7.3831   7.3831  11.0159  11.0159  11.0735  11.0735
    12.2193  12.2193  12.3321  12.3321  13.3432  13.3432  13.4407  13.4407
    14.8504  14.8504  15.0450  15.0450  17.6670  17.6671

     the Fermi energy is     8.5205 ev

!    total energy              =   -3130.51272728 Ry
     Harris-Foulkes estimate   =   -3130.51272728 Ry
     estimated scf accuracy    <          1.4E-12 Ry

     The total energy is the sum of the following terms:

     one-electron contribution =   -2395.34757353 Ry
     hartree contribution      =    1314.45715621 Ry
     xc contribution           =    -482.86213565 Ry
     ewald contribution        =   -1566.76017431 Ry
     smearing contrib. (-TS)   =      -0.00000000 Ry

     convergence has been achieved in  14 iterations

     Forces acting on atoms (cartesian axes, Ry/au):

     atom    1 type  1   force =     0.00000000    0.00000000   -0.01617407
     atom    2 type  1   force =     0.00000000    0.00000000    0.01617407
     atom    3 type  1   force =     0.00000000    0.00000000    0.01617407
     atom    4 type  1   force =     0.00000000    0.00000000   -0.01617407
     atom    5 type  2   force =     0.00000000    0.00000000    0.08139165
     atom    6 type  2   force =     0.00000000    0.00000000   -0.08139165
     atom    7 type  2   force =     0.00000000    0.00000000   -0.08139165
     atom    8 type  2   force =     0.00000000    0.00000000    0.08139165
     atom    9 type  2   force =    -0.00038546    0.00038546    0.00000000
     atom   10 type  2   force =     0.00038546   -0.00038546    0.00000000
     atom   11 type  2   force =     0.00038546   -0.00038546    0.00000000
     atom   12 type  2   force =    -0.00038546    0.00038546    0.00000000
     atom   13 type  2   force =    -0.00038546   -0.00038546    0.00000000
     atom   14 type  2   force =     0.00038546    0.00038546    0.00000000
     atom   15 type  2   force =     0.00038546    0.00038546    0.00000000
     atom   16 type  2   force =    -0.00038546   -0.00038546    0.00000000

     Total force =     0.000000     Total SCF correction =     0.000000

     Computing stress (Cartesian axis) and pressure

          total   stress  (Ry/bohr**3)                   (kbar)     P=    0.70
   0.00000709   0.00000000   0.00000000          1.04      0.00      0.00
   0.00000000   0.00000709   0.00000000          0.00      1.04      0.00
   0.00000000   0.00000000   0.00000006          0.00      0.00      0.01

     Writing output data file Landau_26.save/

     General routines

     Parallel routines

   This run was terminated on:  18:33:31  21Nov2019

   JOB DONE.