     Program PWSCF v.6.4.1 starts on 16Dec2019 at 23:22: 8

     K-points division:     npool     =      40
     Reading input from scf.in

     Current dimensions of program PWSCF are:
     Max number of different atomic species (ntypx) = 10
     Max number of k-points (npk) =  40000
     Max angular momentum in pseudopotentials (lmaxx) =  3

     Subspace diagonalization in iterative solution of the eigenvalue problem:
     a serial algorithm will be used

     Message from routine setup:
     using ibrav=0 with symmetry is DISCOURAGED, use correct ibrav instead

     bravais-lattice index     =            0
     lattice parameter (alat)  =      14.0439  a.u.
     unit-cell volume          =    2844.0623 (a.u.)^3
     number of atoms/cell      =           32
     number of atomic types    =            2
     number of electrons       =       368.00
     number of Kohn-Sham states=          221
     kinetic-energy cutoff     =     120.0000  Ry
     charge density cutoff     =     480.0000  Ry
     convergence threshold     =      1.0E-08
     mixing beta               =       0.7000
     number of iterations used =            8  plain     mixing
     Exchange-correlation      = SLA PW NOGX NOGC ( 1  4  0  0 0 0)

     celldm(1)=  14.043878  celldm(2)=   0.000000  celldm(3)=   0.000000
     celldm(4)=   0.000000  celldm(5)=   0.000000  celldm(6)=   0.000000

     crystal axes: (cart. coord. in units of alat)
               a(1) = (   1.000000   0.000000   0.000000 )
               a(2) = (   0.000000   1.026918   0.000000 )
               a(3) = (   0.000000   0.000000   0.999867 )

     reciprocal axes: (cart. coord. in units 2 pi/alat)
               b(1) = (  1.000000  0.000000  0.000000 )
               b(2) = (  0.000000  0.973788  0.000000 )
               b(3) = (  0.000000  0.000000  1.000133 )

     PseudoPot. # 1 for W  read from file:
     /cluster/scratch/mnoe/QE/pps/W_ONCV_LDA-4.0.upf
     MD5 check sum: ba0307d5d4cd419d6f1d13dc49d7c13a
     Pseudo is Norm-conserving + core correction, Zval = 28.0
     Generated using ONCVPSP code by D. R. Hamann
     Using radial grid of 1380 points,  8 beta functions with:
                l(1) =   0
                l(2) =   0
                l(3) =   1
                l(4) =   1
                l(5) =   2
                l(6) =   2
                l(7) =   3
                l(8) =   3

     PseudoPot. # 2 for O  read from file:
     /cluster/scratch/mnoe/QE/pps/O_ONCV_LDA-3.0.upf
     MD5 check sum: b55cdb4f45ae2203d24ad12cf8d61a31
     Pseudo is Norm-conserving + core correction, Zval =  6.0
     Generated using ONCVPSP code by D. R. Hamann
     Using radial grid of  926 points,  5 beta functions with:
                l(1) =   0
                l(2) =   0
                l(3) =   1
                l(4) =   1
                l(5) =   2

     atomic species   valence    mass     pseudopotential
        W             28.00   183.84000     W ( 1.00)
        O              6.00    15.99940     O ( 1.00)

      8 Sym. Ops., with inversion, found ( 6 have fractional translation)

   Cartesian axes

     site n.     atom                  positions (alat units)
         1           W   tau(   1) = (   0.2407500   0.2964218   0.0087388  )
         2           W   tau(   2) = (   0.7592500   0.7304958   0.9911283  )
         3           W   tau(   3) = (   0.2592500   0.2170370   0.5086724  )
         4           W   tau(   4) = (   0.7407500   0.8098806   0.4911947  )
         5           W   tau(   5) = (   0.7592500   0.2964218   0.4911947  )
         6           W   tau(   6) = (   0.2407500   0.7304958   0.5086724  )
         7           W   tau(   7) = (   0.7407500   0.2170370   0.9911283  )
         8           W   tau(   8) = (   0.2592500   0.8098806   0.0087388  )
         9           O   tau(   9) = (   0.2329400   0.0217419   0.0027196  )
        10           O   tau(  10) = (   0.7670600   1.0051758   0.9971475  )
        11           O   tau(  11) = (   0.2670600   0.4917169   0.5026532  )
        12           O   tau(  12) = (   0.7329400   0.5352007   0.4972139  )
        13           O   tau(  13) = (   0.7670600   0.0217419   0.4972139  )
        14           O   tau(  14) = (   0.2329400   1.0051758   0.5026532  )
        15           O   tau(  15) = (   0.7329400   0.4917169   0.9971475  )
        16           O   tau(  16) = (   0.2670600   0.5352007   0.0027196  )
        17           O   tau(  17) = (   0.5025300   0.2387584   0.4845816  )
        18           O   tau(  18) = (   0.4974700   0.7881593   0.5152855  )
        19           O   tau(  19) = (   0.9974700   0.2747005   0.9845152  )
        20           O   tau(  20) = (   0.0025300   0.7522172   0.0153520  )
        21           O   tau(  21) = (   0.4974700   0.2387584   0.0153520  )
        22           O   tau(  22) = (   0.5025300   0.7881593   0.9845152  )
        23           O   tau(  23) = (   0.0025300   0.2747005   0.5152855  )
        24           O   tau(  24) = (   0.9974700   0.7522172   0.4845816  )
        25           O   tau(  25) = (   0.7346461   0.2528066   0.7460608  )
        26           O   tau(  26) = (   0.2653540   0.7741111   0.2538063  )
        27           O   tau(  27) = (   0.7653540   0.2606523   0.2461273  )
        28           O   tau(  28) = (   0.2346460   0.7662654   0.7537399  )
        29           O   tau(  29) = (   0.2653540   0.2528066   0.7537399  )
        30           O   tau(  30) = (   0.7346461   0.7741111   0.2461273  )
        31           O   tau(  31) = (   0.2346460   0.2606523   0.2538063  )
        32           O   tau(  32) = (   0.7653540   0.7662654   0.7460608  )

     number of k points=    64  gaussian smearing, width (Ry)=  0.0007
                       cart. coord. in units 2pi/alat
        k(    1) = (   0.0000000   0.0000000   0.0000000), wk =   0.0092593
        k(    2) = (   0.0000000   0.0000000   0.1666888), wk =   0.0185185
        k(    3) = (   0.0000000   0.0000000   0.3333776), wk =   0.0185185
        k(    4) = (   0.0000000   0.0000000  -0.5000664), wk =   0.0092593
        k(    5) = (   0.0000000   0.1622980   0.0000000), wk =   0.0185185
        k(    6) = (   0.0000000   0.1622980   0.1666888), wk =   0.0370370
        k(    7) = (   0.0000000   0.1622980   0.3333776), wk =   0.0370370
        k(    8) = (   0.0000000   0.1622980  -0.5000664), wk =   0.0185185
        k(    9) = (   0.0000000   0.3245960   0.0000000), wk =   0.0185185
        k(   10) = (   0.0000000   0.3245960   0.1666888), wk =   0.0370370
        k(   11) = (   0.0000000   0.3245960   0.3333776), wk =   0.0370370
        k(   12) = (   0.0000000   0.3245960  -0.5000664), wk =   0.0185185
        k(   13) = (   0.0000000  -0.4868939   0.0000000), wk =   0.0092593
        k(   14) = (   0.0000000  -0.4868939   0.1666888), wk =   0.0185185
        k(   15) = (   0.0000000  -0.4868939   0.3333776), wk =   0.0185185
        k(   16) = (   0.0000000  -0.4868939  -0.5000664), wk =   0.0092593
        k(   17) = (   0.1666667   0.0000000   0.0000000), wk =   0.0185185
        k(   18) = (   0.1666667   0.0000000   0.1666888), wk =   0.0370370
        k(   19) = (   0.1666667   0.0000000   0.3333776), wk =   0.0370370
        k(   20) = (   0.1666667   0.0000000  -0.5000664), wk =   0.0185185
        k(   21) = (   0.1666667   0.1622980   0.0000000), wk =   0.0370370
        k(   22) = (   0.1666667   0.1622980   0.1666888), wk =   0.0740741
        k(   23) = (   0.1666667   0.1622980   0.3333776), wk =   0.0740741
        k(   24) = (   0.1666667   0.1622980  -0.5000664), wk =   0.0370370
        k(   25) = (   0.1666667   0.3245960   0.0000000), wk =   0.0370370
        k(   26) = (   0.1666667   0.3245960   0.1666888), wk =   0.0740741
        k(   27) = (   0.1666667   0.3245960   0.3333776), wk =   0.0740741
        k(   28) = (   0.1666667   0.3245960  -0.5000664), wk =   0.0370370
        k(   29) = (   0.1666667  -0.4868939   0.0000000), wk =   0.0185185
        k(   30) = (   0.1666667  -0.4868939   0.1666888), wk =   0.0370370
        k(   31) = (   0.1666667  -0.4868939   0.3333776), wk =   0.0370370
        k(   32) = (   0.1666667  -0.4868939  -0.5000664), wk =   0.0185185
        k(   33) = (   0.3333333   0.0000000   0.0000000), wk =   0.0185185
        k(   34) = (   0.3333333   0.0000000   0.1666888), wk =   0.0370370
        k(   35) = (   0.3333333   0.0000000   0.3333776), wk =   0.0370370
        k(   36) = (   0.3333333   0.0000000  -0.5000664), wk =   0.0185185
        k(   37) = (   0.3333333   0.1622980   0.0000000), wk =   0.0370370
        k(   38) = (   0.3333333   0.1622980   0.1666888), wk =   0.0740741
        k(   39) = (   0.3333333   0.1622980   0.3333776), wk =   0.0740741
        k(   40) = (   0.3333333   0.1622980  -0.5000664), wk =   0.0370370
        k(   41) = (   0.3333333   0.3245960   0.0000000), wk =   0.0370370
        k(   42) = (   0.3333333   0.3245960   0.1666888), wk =   0.0740741
        k(   43) = (   0.3333333   0.3245960   0.3333776), wk =   0.0740741
        k(   44) = (   0.3333333   0.3245960  -0.5000664), wk =   0.0370370
        k(   45) = (   0.3333333  -0.4868939   0.0000000), wk =   0.0185185
        k(   46) = (   0.3333333  -0.4868939   0.1666888), wk =   0.0370370
        k(   47) = (   0.3333333  -0.4868939   0.3333776), wk =   0.0370370
        k(   48) = (   0.3333333  -0.4868939  -0.5000664), wk =   0.0185185
        k(   49) = (  -0.5000000   0.0000000   0.0000000), wk =   0.0092593
        k(   50) = (  -0.5000000   0.0000000   0.1666888), wk =   0.0185185
        k(   51) = (  -0.5000000   0.0000000   0.3333776), wk =   0.0185185
        k(   52) = (  -0.5000000   0.0000000  -0.5000664), wk =   0.0092593
        k(   53) = (  -0.5000000   0.1622980   0.0000000), wk =   0.0185185
        k(   54) = (  -0.5000000   0.1622980   0.1666888), wk =   0.0370370
        k(   55) = (  -0.5000000   0.1622980   0.3333776), wk =   0.0370370
        k(   56) = (  -0.5000000   0.1622980  -0.5000664), wk =   0.0185185
        k(   57) = (  -0.5000000   0.3245960   0.0000000), wk =   0.0185185
        k(   58) = (  -0.5000000   0.3245960   0.1666888), wk =   0.0370370
        k(   59) = (  -0.5000000   0.3245960   0.3333776), wk =   0.0370370
        k(   60) = (  -0.5000000   0.3245960  -0.5000664), wk =   0.0185185
        k(   61) = (  -0.5000000  -0.4868939   0.0000000), wk =   0.0092593
        k(   62) = (  -0.5000000  -0.4868939   0.1666888), wk =   0.0185185
        k(   63) = (  -0.5000000  -0.4868939   0.3333776), wk =   0.0185185
        k(   64) = (  -0.5000000  -0.4868939  -0.5000664), wk =   0.0092593

     Initial potential from superposition of free atoms

     starting charge  367.99656, renormalised to  368.00000
     Starting wfcs are  232 randomized atomic wfcs

     Self-consistent Calculation

     iteration #  1     ecut=   120.00 Ry     beta= 0.70
     Davidson diagonalization with overlap
     ethr =  1.00E-02,  avg # of iterations =  5.1

     total energy              =   -6253.83243249 Ry
     Harris-Foulkes estimate   =   -6264.58926756 Ry
     estimated scf accuracy    <      13.61548206 Ry

[...]

     total energy              =   -6261.06250417 Ry
     Harris-Foulkes estimate   =   -6261.06250419 Ry
     estimated scf accuracy    <       0.00000005 Ry

     iteration # 13     ecut=   120.00 Ry     beta= 0.70
     Davidson diagonalization with overlap
     ethr =  1.39E-11,  avg # of iterations =  2.5

     End of self-consistent calculation

          k = 0.0000 0.0000 0.0000 ( 63135 PWs)   bands (ev):

   -66.3945 -66.3940 -66.3939 -66.3938 -66.3933 -66.3933 -66.3932 -66.3927
   -30.7587 -30.7543 -30.7493 -30.7455 -30.7449 -30.7435 -30.7421 -30.7392
   -30.7389 -30.7311 -30.7300 -30.7258 -30.6788 -30.6767 -30.6725 -30.6669
   -30.6642 -30.6632 -30.6607 -30.6543 -30.6525 -30.6524 -30.6487 -30.6440
   -20.5630 -20.5629 -20.5625 -20.5625 -20.5619 -20.5619 -20.5616 -20.5615
   -20.5508 -20.5508 -20.5497 -20.5496 -20.5486 -20.5485 -20.5475 -20.5474
   -20.5429 -20.5428 -20.5416 -20.5415 -20.5409 -20.5407 -20.5396 -20.5394
   -20.5312 -20.5308 -20.5304 -20.5299 -20.5287 -20.5285 -20.5277 -20.5275
   -20.5273 -20.5269 -20.5265 -20.5260 -20.5224 -20.5219 -20.5215 -20.5212
   -20.5212 -20.5206 -20.5204 -20.5199 -20.5196 -20.5193 -20.5187 -20.5183
   -20.5142 -20.5141 -20.5138 -20.5137 -20.5129 -20.5127 -20.5124 -20.5122
   -10.1655  -9.7991  -9.7851  -9.7830  -9.4437  -9.4320  -9.3508  -9.1650
    -9.1391  -9.0404  -9.0399  -9.0384  -8.0449  -7.9789  -7.9665  -7.9562
    -7.9553  -7.9301  -7.9158  -7.9100  -7.9046  -7.8741  -7.8589  -7.8450
     0.9639   0.9644   1.0537   1.0579   1.0707   1.0810   1.1210   1.2682
     1.2699   1.2928   1.3016   1.4452   2.2985   2.3047   2.3417   2.3664
     2.3887   2.4449   3.9266   3.9667   4.1025   4.1637   4.4471   4.4647
     4.4937   4.5106   4.5734   4.6585   4.6670   4.6773   4.9637   5.3642
     5.3676   5.3702   5.3884   5.4393   5.4528   5.4990   5.5584   5.6755
     5.7344   5.7438   5.7520   5.7574   5.7709   5.8091   5.9427   6.0195
     6.0564   6.1758   6.2472   6.2866   6.2943   6.5141   6.5370   6.5605
     6.5686   6.6332   6.9294   6.9461   6.9613   6.9613   6.9695   6.9702
     6.9871   6.9899   8.0193   8.0329   8.1146   8.1255   8.1303   8.1384
     8.9797   8.9964   9.5367   9.5537   9.6525   9.6817  12.2753  12.3357
    12.3458  12.3469  12.3664  12.4011  12.4138  12.4317  12.7693  12.9757
    13.0405  13.1068  13.2740  13.4621  13.4855  13.5694  13.9191  13.9512
    13.9916  14.0425  14.3421  14.3610  14.4464  14.5723  15.2859  15.3528
    15.4634  16.3128  16.7679  16.8176  16.9554

[...]

          k = 0.3333-0.4869-0.5001 ( 63120 PWs)   bands (ev):

[...]

          k =-0.5000 0.0000 0.0000 ( 63124 PWs)   bands (ev):

[...]

          k =-0.5000-0.4869-0.5001 ( 63056 PWs)   bands (ev):

   -66.3936 -66.3936 -66.3936 -66.3936 -66.3936 -66.3936 -66.3936 -66.3936
   -30.7207 -30.7207 -30.7207 -30.7207 -30.7188 -30.7188 -30.7187 -30.7187
   -30.7045 -30.7045 -30.7045 -30.7045 -30.7034 -30.7034 -30.7034 -30.7034
   -30.6825 -30.6825 -30.6825 -30.6825 -30.6810 -30.6810 -30.6810 -30.6810
   -20.5623 -20.5623 -20.5623 -20.5623 -20.5622 -20.5622 -20.5622 -20.5622
   -20.5491 -20.5491 -20.5491 -20.5491 -20.5491 -20.5491 -20.5491 -20.5491
   -20.5412 -20.5412 -20.5412 -20.5412 -20.5411 -20.5411 -20.5411 -20.5411
   -20.5293 -20.5293 -20.5293 -20.5293 -20.5290 -20.5290 -20.5290 -20.5290
   -20.5246 -20.5246 -20.5246 -20.5246 -20.5244 -20.5244 -20.5244 -20.5244
   -20.5200 -20.5200 -20.5199 -20.5199 -20.5198 -20.5198 -20.5198 -20.5198
   -20.5133 -20.5133 -20.5133 -20.5133 -20.5133 -20.5133 -20.5133 -20.5133
    -9.1821  -9.1821  -9.1821  -9.1821  -9.1604  -9.1604  -9.1604  -9.1604
    -8.6069  -8.6069  -8.6069  -8.6069  -8.5932  -8.5932  -8.5932  -8.5932
    -8.5258  -8.5258  -8.5258  -8.5258  -8.4910  -8.4910  -8.4910  -8.4910
     2.6284   2.6284   2.6284   2.6284   2.7456   2.7456   2.7457   2.7457
     2.7897   2.7897   2.7897   2.7897   2.9478   2.9478   2.9478   2.9478
     3.1295   3.1295   3.1295   3.1295   3.2568   3.2568   3.2568   3.2568
     3.9557   3.9557   3.9557   3.9557   4.0091   4.0091   4.0091   4.0091
     4.1524   4.1524   4.1524   4.1524   4.1935   4.1935   4.1936   4.1936
     4.3082   4.3082   4.3082   4.3082   4.3694   4.3694   4.3694   4.3694
     7.0018   7.0018   7.0018   7.0018   7.1291   7.1291   7.1291   7.1291
     7.1630   7.1630   7.1630   7.1631   7.2301   7.2301   7.2301   7.2301
     7.4177   7.4177   7.4177   7.4177   7.4768   7.4768   7.4768   7.4768
    11.6350  11.6350  11.6350  11.6350  11.6998  11.6998  11.6998  11.6999
    11.9928  11.9928  11.9928  11.9928  12.1278  12.1278  12.1278  12.1278
    12.1929  12.1929  12.1929  12.1929  12.2912  12.2912  12.2912  12.2912
    16.7504  16.7504  16.7504  16.7505  16.8575  16.8575  16.8575  16.8575
    17.2906  17.2906  17.2906  17.2906  17.3591

     the Fermi energy is     8.6493 ev

!    total energy              =   -6261.06250417 Ry
     Harris-Foulkes estimate   =   -6261.06250417 Ry
     estimated scf accuracy    <          2.1E-09 Ry

     The total energy is the sum of the following terms:

     one-electron contribution =   -4778.85796102 Ry
     hartree contribution      =    2623.35273436 Ry
     xc contribution           =    -965.70922458 Ry
     ewald contribution        =   -3139.84805294 Ry
     smearing contrib. (-TS)   =      -0.00000000 Ry

     convergence has been achieved in  13 iterations

     Writing output data file chempot_0.save/

     General routines

     Parallel routines

   This run was terminated on:  23:56:15  16Dec2019

   JOB DONE.