     Program PWSCF v.6.4.1 starts on 22Nov2019 at  0:28: 9

     K-points division:     npool     =      40
     Reading input from scf.in

     Current dimensions of program PWSCF are:
     Max number of different atomic species (ntypx) = 10
     Max number of k-points (npk) =  40000
     Max angular momentum in pseudopotentials (lmaxx) =  3

     Subspace diagonalization in iterative solution of the eigenvalue problem:
     a serial algorithm will be used

     Message from routine setup:
     using ibrav=0 with symmetry is DISCOURAGED, use correct ibrav instead

     bravais-lattice index     =            0
     lattice parameter (alat)  =      14.0872  a.u.
     unit-cell volume          =    2828.3007 (a.u.)^3
     number of atoms/cell      =           32
     number of atomic types    =            2
     number of electrons       =       368.20
     number of Kohn-Sham states=          221
     kinetic-energy cutoff     =     120.0000  Ry
     charge density cutoff     =     480.0000  Ry
     convergence threshold     =      1.0E-08
     mixing beta               =       0.7000
     number of iterations used =            8  plain     mixing
     Exchange-correlation      = SLA PW NOGX NOGC ( 1  4  0  0 0 0)

     celldm(1)=  14.087219  celldm(2)=   0.000000  celldm(3)=   0.000000
     celldm(4)=   0.000000  celldm(5)=   0.000000  celldm(6)=   0.000000

     crystal axes: (cart. coord. in units of alat)
               a(1) = (   1.000000   0.000000   0.000000 )
               a(2) = (   0.000000   1.014487   0.000000 )
               a(3) = (   0.000000   0.000000   0.997249 )

     reciprocal axes: (cart. coord. in units 2 pi/alat)
               b(1) = (  1.000000  0.000000  0.000000 )
               b(2) = (  0.000000  0.985720  0.000000 )
               b(3) = (  0.000000  0.000000  1.002759 )

     PseudoPot. # 1 for W  read from file:
     /cluster/scratch/mnoe/QE/pps/W_ONCV_LDA-4.0.upf
     MD5 check sum: ba0307d5d4cd419d6f1d13dc49d7c13a
     Pseudo is Norm-conserving + core correction, Zval = 28.0
     Generated using ONCVPSP code by D. R. Hamann
     Using radial grid of 1380 points,  8 beta functions with:
                l(1) =   0
                l(2) =   0
                l(3) =   1
                l(4) =   1
                l(5) =   2
                l(6) =   2
                l(7) =   3
                l(8) =   3

     PseudoPot. # 2 for O  read from file:
     /cluster/scratch/mnoe/QE/pps/O_ONCV_LDA-3.0.upf
     MD5 check sum: b55cdb4f45ae2203d24ad12cf8d61a31
     Pseudo is Norm-conserving + core correction, Zval =  6.0
     Generated using ONCVPSP code by D. R. Hamann
     Using radial grid of  926 points,  5 beta functions with:
                l(1) =   0
                l(2) =   0
                l(3) =   1
                l(4) =   1
                l(5) =   2

     atomic species   valence    mass     pseudopotential
        W             28.00   183.84000     W ( 1.00)
        O              6.00    15.99940     O ( 1.00)

      8 Sym. Ops., with inversion, found ( 6 have fractional translation)

   Cartesian axes

     site n.     atom                  positions (alat units)
         1           W   tau(   1) = (   0.2361300   0.2962788   0.0130640  )
         2           W   tau(   2) = (   0.7638700   0.7182078   0.9841846  )
         3           W   tau(   3) = (   0.2638700   0.2109645   0.5116883  )
         4           W   tau(   4) = (   0.7361300   0.8035220   0.4855604  )
         5           W   tau(   5) = (   0.7638700   0.2962788   0.4855604  )
         6           W   tau(   6) = (   0.2361300   0.7182078   0.5116883  )
         7           W   tau(   7) = (   0.7361300   0.2109645   0.9841846  )
         8           W   tau(   8) = (   0.2638700   0.8035220   0.0130640  )
         9           O   tau(   9) = (   0.2244100   0.0279978   0.0040688  )
        10           O   tau(  10) = (   0.7755900   0.9864888   0.9931799  )
        11           O   tau(  11) = (   0.2755900   0.4792455   0.5026931  )
        12           O   tau(  12) = (   0.7244100   0.5352411   0.4945555  )
        13           O   tau(  13) = (   0.7755900   0.0279978   0.4945555  )
        14           O   tau(  14) = (   0.2244100   0.9864888   0.5026931  )
        15           O   tau(  15) = (   0.7244100   0.4792455   0.9931799  )
        16           O   tau(  16) = (   0.2755900   0.5352411   0.0040688  )
        17           O   tau(  17) = (   0.5037900   0.2269812   0.5008173  )
        18           O   tau(  18) = (   0.4962100   0.7875054   0.4964314  )
        19           O   tau(  19) = (   0.9962100   0.2802621   0.9994416  )
        20           O   tau(  20) = (   0.0037900   0.7342245  -0.0021929  )
        21           O   tau(  21) = (   0.4962100   0.2269812  -0.0021929  )
        22           O   tau(  22) = (   0.5037900   0.7875054   0.9994416  )
        23           O   tau(  23) = (   0.0037900   0.2802621   0.4964314  )
        24           O   tau(  24) = (   0.9962100   0.7342245   0.5008173  )
        25           O   tau(  25) = (   0.7521991   0.2478086   0.7422023  )
        26           O   tau(  26) = (   0.2478010   0.7666780   0.2550463  )
        27           O   tau(  27) = (   0.7478010   0.2594347   0.2435780  )
        28           O   tau(  28) = (   0.2521991   0.7550519   0.7536707  )
        29           O   tau(  29) = (   0.2478010   0.2478086   0.7536707  )
        30           O   tau(  30) = (   0.7521991   0.7666780   0.2435780  )
        31           O   tau(  31) = (   0.2521991   0.2594347   0.2550463  )
        32           O   tau(  32) = (   0.7478010   0.7550519   0.7422023  )

     number of k points=    64  gaussian smearing, width (Ry)=  0.0007
                       cart. coord. in units 2pi/alat
        k(    1) = (   0.0000000   0.0000000   0.0000000), wk =   0.0092593
        k(    2) = (   0.0000000   0.0000000   0.1671265), wk =   0.0185185
        k(    3) = (   0.0000000   0.0000000   0.3342530), wk =   0.0185185
        k(    4) = (   0.0000000   0.0000000  -0.5013795), wk =   0.0092593
        k(    5) = (   0.0000000   0.1642867   0.0000000), wk =   0.0185185
        k(    6) = (   0.0000000   0.1642867   0.1671265), wk =   0.0370370
        k(    7) = (   0.0000000   0.1642867   0.3342530), wk =   0.0370370
        k(    8) = (   0.0000000   0.1642867  -0.5013795), wk =   0.0185185
        k(    9) = (   0.0000000   0.3285734   0.0000000), wk =   0.0185185
        k(   10) = (   0.0000000   0.3285734   0.1671265), wk =   0.0370370
        k(   11) = (   0.0000000   0.3285734   0.3342530), wk =   0.0370370
        k(   12) = (   0.0000000   0.3285734  -0.5013795), wk =   0.0185185
        k(   13) = (   0.0000000  -0.4928601   0.0000000), wk =   0.0092593
        k(   14) = (   0.0000000  -0.4928601   0.1671265), wk =   0.0185185
        k(   15) = (   0.0000000  -0.4928601   0.3342530), wk =   0.0185185
        k(   16) = (   0.0000000  -0.4928601  -0.5013795), wk =   0.0092593
        k(   17) = (   0.1666667   0.0000000   0.0000000), wk =   0.0185185
        k(   18) = (   0.1666667   0.0000000   0.1671265), wk =   0.0370370
        k(   19) = (   0.1666667   0.0000000   0.3342530), wk =   0.0370370
        k(   20) = (   0.1666667   0.0000000  -0.5013795), wk =   0.0185185
        k(   21) = (   0.1666667   0.1642867   0.0000000), wk =   0.0370370
        k(   22) = (   0.1666667   0.1642867   0.1671265), wk =   0.0740741
        k(   23) = (   0.1666667   0.1642867   0.3342530), wk =   0.0740741
        k(   24) = (   0.1666667   0.1642867  -0.5013795), wk =   0.0370370
        k(   25) = (   0.1666667   0.3285734   0.0000000), wk =   0.0370370
        k(   26) = (   0.1666667   0.3285734   0.1671265), wk =   0.0740741
        k(   27) = (   0.1666667   0.3285734   0.3342530), wk =   0.0740741
        k(   28) = (   0.1666667   0.3285734  -0.5013795), wk =   0.0370370
        k(   29) = (   0.1666667  -0.4928601   0.0000000), wk =   0.0185185
        k(   30) = (   0.1666667  -0.4928601   0.1671265), wk =   0.0370370
        k(   31) = (   0.1666667  -0.4928601   0.3342530), wk =   0.0370370
        k(   32) = (   0.1666667  -0.4928601  -0.5013795), wk =   0.0185185
        k(   33) = (   0.3333333   0.0000000   0.0000000), wk =   0.0185185
        k(   34) = (   0.3333333   0.0000000   0.1671265), wk =   0.0370370
        k(   35) = (   0.3333333   0.0000000   0.3342530), wk =   0.0370370
        k(   36) = (   0.3333333   0.0000000  -0.5013795), wk =   0.0185185
        k(   37) = (   0.3333333   0.1642867   0.0000000), wk =   0.0370370
        k(   38) = (   0.3333333   0.1642867   0.1671265), wk =   0.0740741
        k(   39) = (   0.3333333   0.1642867   0.3342530), wk =   0.0740741
        k(   40) = (   0.3333333   0.1642867  -0.5013795), wk =   0.0370370
        k(   41) = (   0.3333333   0.3285734   0.0000000), wk =   0.0370370
        k(   42) = (   0.3333333   0.3285734   0.1671265), wk =   0.0740741
        k(   43) = (   0.3333333   0.3285734   0.3342530), wk =   0.0740741
        k(   44) = (   0.3333333   0.3285734  -0.5013795), wk =   0.0370370
        k(   45) = (   0.3333333  -0.4928601   0.0000000), wk =   0.0185185
        k(   46) = (   0.3333333  -0.4928601   0.1671265), wk =   0.0370370
        k(   47) = (   0.3333333  -0.4928601   0.3342530), wk =   0.0370370
        k(   48) = (   0.3333333  -0.4928601  -0.5013795), wk =   0.0185185
        k(   49) = (  -0.5000000   0.0000000   0.0000000), wk =   0.0092593
        k(   50) = (  -0.5000000   0.0000000   0.1671265), wk =   0.0185185
        k(   51) = (  -0.5000000   0.0000000   0.3342530), wk =   0.0185185
        k(   52) = (  -0.5000000   0.0000000  -0.5013795), wk =   0.0092593
        k(   53) = (  -0.5000000   0.1642867   0.0000000), wk =   0.0185185
        k(   54) = (  -0.5000000   0.1642867   0.1671265), wk =   0.0370370
        k(   55) = (  -0.5000000   0.1642867   0.3342530), wk =   0.0370370
        k(   56) = (  -0.5000000   0.1642867  -0.5013795), wk =   0.0185185
        k(   57) = (  -0.5000000   0.3285734   0.0000000), wk =   0.0185185
        k(   58) = (  -0.5000000   0.3285734   0.1671265), wk =   0.0370370
        k(   59) = (  -0.5000000   0.3285734   0.3342530), wk =   0.0370370
        k(   60) = (  -0.5000000   0.3285734  -0.5013795), wk =   0.0185185
        k(   61) = (  -0.5000000  -0.4928601   0.0000000), wk =   0.0092593
        k(   62) = (  -0.5000000  -0.4928601   0.1671265), wk =   0.0185185
        k(   63) = (  -0.5000000  -0.4928601   0.3342530), wk =   0.0185185
        k(   64) = (  -0.5000000  -0.4928601  -0.5013795), wk =   0.0092593

     Initial potential from superposition of free atoms

     starting charge  367.99656, renormalised to  368.20000
     Starting wfcs are  232 randomized atomic wfcs

     Self-consistent Calculation

     iteration #  1     ecut=   120.00 Ry     beta= 0.70
     Davidson diagonalization with overlap
     ethr =  1.00E-02,  avg # of iterations =  5.0

     total energy              =   -6253.54652494 Ry
     Harris-Foulkes estimate   =   -6264.44375726 Ry
     estimated scf accuracy    <      13.76504547 Ry

[...]

     total energy              =   -6260.87128457 Ry
     Harris-Foulkes estimate   =   -6260.87128458 Ry
     estimated scf accuracy    <       0.00000003 Ry

     iteration # 13     ecut=   120.00 Ry     beta= 0.70
     Davidson diagonalization with overlap
     ethr =  7.75E-12,  avg # of iterations =  2.8

     End of self-consistent calculation

          k = 0.0000 0.0000 0.0000 ( 62801 PWs)   bands (ev):

   -66.2446 -66.2440 -66.2440 -66.2440 -66.2434 -66.2434 -66.2434 -66.2427
   -30.6298 -30.6248 -30.6225 -30.6170 -30.5962 -30.5937 -30.5930 -30.5911
   -30.5871 -30.5832 -30.5773 -30.5683 -30.5490 -30.5461 -30.5385 -30.5344
   -30.5197 -30.5161 -30.5062 -30.5008 -30.5004 -30.4946 -30.4931 -30.4876
   -20.4113 -20.4112 -20.4108 -20.4108 -20.4101 -20.4100 -20.4097 -20.4097
   -20.4003 -20.4002 -20.3998 -20.3997 -20.3988 -20.3986 -20.3984 -20.3982
   -20.3863 -20.3860 -20.3851 -20.3850 -20.3848 -20.3845 -20.3837 -20.3833
   -20.3833 -20.3832 -20.3830 -20.3828 -20.3801 -20.3796 -20.3796 -20.3790
   -20.3717 -20.3717 -20.3717 -20.3716 -20.3691 -20.3690 -20.3682 -20.3681
   -20.3664 -20.3662 -20.3654 -20.3652 -20.3645 -20.3645 -20.3643 -20.3642
   -20.3567 -20.3566 -20.3565 -20.3564 -20.3556 -20.3555 -20.3553 -20.3552
   -10.0792  -9.6957  -9.6921  -9.6656  -9.3122  -9.2844  -9.2576  -9.0083
    -8.9743  -8.8984  -8.8976  -8.8965  -8.0081  -7.9267  -7.9227  -7.8716
    -7.8703  -7.8587  -7.8445  -7.8360  -7.7513  -7.7200  -7.6995  -7.6761
     1.1519   1.1554   1.1736   1.2018   1.2284   1.2410   1.3317   1.3432
     1.3505   1.4260   1.4560   1.5593   2.3540   2.3819   2.4132   2.4582
     2.4582   2.5820   3.9690   4.0693   4.1513   4.2856   4.5121   4.5571
     4.5844   4.6235   4.6312   4.7292   4.7862   4.8135   5.1417   5.4549
     5.4825   5.4946   5.5307   5.5850   5.6035   5.7033   5.7643   5.7887
     5.8042   5.8134   5.8657   5.9356   5.9366   5.9453   6.0461   6.0720
     6.1393   6.3532   6.3603   6.3828   6.3847   6.6311   6.6587   6.6915
     6.7131   6.7204   6.9623   6.9715   7.0093   7.0203   7.0429   7.0433
     7.1005   7.1033   8.0849   8.1321   8.2415   8.2637   8.3275   8.3534
     9.3111   9.3222   9.6188   9.7214   9.7632   9.8827  12.3965  12.4564
    12.5114  12.5754  12.5772  12.6464  12.6670  12.7032  12.7068  12.7554
    13.0684  13.1340  13.1496  13.3151  13.7983  13.8326  13.9572  13.9714
    14.0677  14.0708  14.3665  14.6356  14.7092  14.7285  15.2511  15.4107
    15.7013  16.2901  16.8062  16.9045  17.0317

[...]

          k = 0.3333-0.4929-0.5014 ( 62720 PWs)   bands (ev):

[...]

          k =-0.5000 0.0000 0.0000 ( 62714 PWs)   bands (ev):

[...]

          k =-0.5000-0.4929-0.5014 ( 62744 PWs)   bands (ev):

   -66.2437 -66.2437 -66.2437 -66.2437 -66.2437 -66.2437 -66.2437 -66.2437
   -30.5897 -30.5897 -30.5897 -30.5897 -30.5881 -30.5881 -30.5881 -30.5881
   -30.5584 -30.5584 -30.5584 -30.5584 -30.5578 -30.5578 -30.5578 -30.5578
   -30.5257 -30.5257 -30.5257 -30.5257 -30.5243 -30.5243 -30.5243 -30.5243
   -20.4106 -20.4105 -20.4105 -20.4105 -20.4105 -20.4104 -20.4104 -20.4104
   -20.3993 -20.3993 -20.3992 -20.3992 -20.3991 -20.3991 -20.3991 -20.3991
   -20.3847 -20.3847 -20.3847 -20.3847 -20.3846 -20.3846 -20.3846 -20.3846
   -20.3817 -20.3817 -20.3817 -20.3817 -20.3815 -20.3815 -20.3815 -20.3815
   -20.3690 -20.3690 -20.3690 -20.3690 -20.3688 -20.3688 -20.3688 -20.3688
   -20.3665 -20.3665 -20.3665 -20.3665 -20.3663 -20.3663 -20.3663 -20.3663
   -20.3560 -20.3560 -20.3560 -20.3560 -20.3560 -20.3560 -20.3560 -20.3560
    -9.1044  -9.1043  -9.1043  -9.1043  -9.0676  -9.0675  -9.0675  -9.0675
    -8.4930  -8.4930  -8.4930  -8.4930  -8.4718  -8.4718  -8.4717  -8.4717
    -8.3924  -8.3924  -8.3924  -8.3924  -8.3397  -8.3397  -8.3397  -8.3397
     2.6588   2.6588   2.6589   2.6589   2.7801   2.7801   2.7802   2.7802
     2.9148   2.9148   2.9148   2.9148   3.1002   3.1002   3.1002   3.1002
     3.2100   3.2100   3.2100   3.2100   3.3707   3.3707   3.3707   3.3707
     4.0738   4.0738   4.0738   4.0738   4.1534   4.1534   4.1534   4.1534
     4.2576   4.2576   4.2576   4.2576   4.3198   4.3199   4.3199   4.3199
     4.4479   4.4479   4.4479   4.4479   4.5428   4.5428   4.5428   4.5428
     7.1123   7.1123   7.1123   7.1123   7.2202   7.2202   7.2203   7.2203
     7.3130   7.3130   7.3131   7.3131   7.4079   7.4080   7.4080   7.4080
     7.5325   7.5325   7.5325   7.5325   7.6199   7.6199   7.6199   7.6199
    11.7869  11.7869  11.7869  11.7869  11.9220  11.9220  11.9220  11.9220
    12.1140  12.1140  12.1140  12.1140  12.1966  12.1966  12.1966  12.1966
    12.3083  12.3083  12.3083  12.3083  12.4073  12.4073  12.4073  12.4073
    16.7429  16.7429  16.7429  16.7429  16.9270  16.9271  16.9271  16.9271
    17.3073  17.3073  17.3075  17.3079  17.3672

     the Fermi energy is     9.6098 ev

!    total energy              =   -6260.87128457 Ry
     Harris-Foulkes estimate   =   -6260.87128457 Ry
     estimated scf accuracy    <          2.5E-09 Ry

     The total energy is the sum of the following terms:

     one-electron contribution =   -4754.29419437 Ry
     hartree contribution      =    2613.07608587 Ry
     xc contribution           =    -965.92833584 Ry
     ewald contribution        =   -3153.72482196 Ry
     smearing contrib. (-TS)   =      -0.00001828 Ry

     convergence has been achieved in  13 iterations

     Writing output data file Landau_30.save/

     General routines

     Parallel routines

   This run was terminated on:   0:55: 6  22Nov2019

   JOB DONE.