     Program PWSCF v.6.4.1 starts on 21Nov2019 at 22:26:46

     K-points division:     npool     =      40
     Reading input from scf.in

     Current dimensions of program PWSCF are:
     Max number of different atomic species (ntypx) = 10
     Max number of k-points (npk) =  40000
     Max angular momentum in pseudopotentials (lmaxx) =  3

     Subspace diagonalization in iterative solution of the eigenvalue problem:
     a serial algorithm will be used

     Message from routine setup:
     using ibrav=0 with symmetry is DISCOURAGED, use correct ibrav instead

     bravais-lattice index     =            0
     lattice parameter (alat)  =       9.8153  a.u.
     unit-cell volume          =    1408.2450 (a.u.)^3
     number of atoms/cell      =           16
     number of atomic types    =            2
     number of electrons       =       184.26
     number of Kohn-Sham states=          111
     kinetic-energy cutoff     =     120.0000  Ry
     charge density cutoff     =     480.0000  Ry
     convergence threshold     =      1.0E-08
     mixing beta               =       0.7000
     number of iterations used =            8  plain     mixing
     Exchange-correlation      = SLA PW NOGX NOGC ( 1  4  0  0 0 0)

     celldm(1)=   9.815267  celldm(2)=   0.000000  celldm(3)=   0.000000
     celldm(4)=   0.000000  celldm(5)=   0.000000  celldm(6)=   0.000000

     crystal axes: (cart. coord. in units of alat)
               a(1) = (   1.000000   0.000000   0.000000 )
               a(2) = (   0.000000   1.000000   0.000000 )
               a(3) = (   0.000000   0.000000   1.489265 )

     reciprocal axes: (cart. coord. in units 2 pi/alat)
               b(1) = (  1.000000  0.000000  0.000000 )
               b(2) = (  0.000000  1.000000  0.000000 )
               b(3) = (  0.000000  0.000000  0.671472 )

     PseudoPot. # 1 for W  read from file:
     /cluster/scratch/mnoe/QE/pps/W_ONCV_LDA-4.0.upf
     MD5 check sum: ba0307d5d4cd419d6f1d13dc49d7c13a
     Pseudo is Norm-conserving + core correction, Zval = 28.0
     Generated using ONCVPSP code by D. R. Hamann
     Using radial grid of 1380 points,  8 beta functions with:
                l(1) =   0
                l(2) =   0
                l(3) =   1
                l(4) =   1
                l(5) =   2
                l(6) =   2
                l(7) =   3
                l(8) =   3

     PseudoPot. # 2 for O  read from file:
     /cluster/scratch/mnoe/QE/pps/O_ONCV_LDA-3.0.upf
     MD5 check sum: b55cdb4f45ae2203d24ad12cf8d61a31
     Pseudo is Norm-conserving + core correction, Zval =  6.0
     Generated using ONCVPSP code by D. R. Hamann
     Using radial grid of  926 points,  5 beta functions with:
                l(1) =   0
                l(2) =   0
                l(3) =   1
                l(4) =   1
                l(5) =   2

     atomic species   valence    mass     pseudopotential
        W             28.00   183.84000     W ( 1.00)
        O              6.00    15.99940     O ( 1.00)

     16 Sym. Ops., with inversion, found (14 have fractional translation)

   Cartesian axes

     site n.     atom                  positions (alat units)
         1           W   tau(   1) = (   0.2500000   0.2500000   0.3233216  )
         2           W   tau(   2) = (   0.7500000   0.7500000   1.1659431  )
         3           W   tau(   3) = (   0.7500000   0.7500000   0.4213108  )
         4           W   tau(   4) = (   0.2500000   0.2500000   1.0679539  )
         5           O   tau(   5) = (   0.2500000   0.2500000   0.7293564  )
         6           O   tau(   6) = (   0.7500000   0.7500000   0.7599083  )
         7           O   tau(   7) = (   0.7500000   0.7500000   0.0152760  )
         8           O   tau(   8) = (   0.2500000   0.2500000   1.4739887  )
         9           O   tau(   9) = (   0.4546762   0.5453237   0.3723162  )
        10           O   tau(  10) = (   0.5453238   0.4546763   1.1169485  )
        11           O   tau(  11) = (   0.0453238   0.9546763   0.3723162  )
        12           O   tau(  12) = (   0.9546762   0.0453238   1.1169485  )
        13           O   tau(  13) = (   0.9546763   0.4546762   0.3723162  )
        14           O   tau(  14) = (   0.0453238   0.5453238   1.1169485  )
        15           O   tau(  15) = (   0.5453237   0.0453238   0.3723162  )
        16           O   tau(  16) = (   0.4546763   0.9546762   1.1169485  )

     number of k points=    60  gaussian smearing, width (Ry)=  0.0007
                       cart. coord. in units 2pi/alat
        k(    1) = (   0.0000000   0.0000000   0.0000000), wk =   0.0041152
        k(    2) = (   0.0000000   0.0000000   0.1119121), wk =   0.0082305
        k(    3) = (   0.0000000   0.0000000   0.2238241), wk =   0.0082305
        k(    4) = (   0.0000000   0.0000000  -0.3357362), wk =   0.0041152
        k(    5) = (   0.0000000   0.1111111   0.0000000), wk =   0.0164609
        k(    6) = (   0.0000000   0.1111111   0.1119121), wk =   0.0329218
        k(    7) = (   0.0000000   0.1111111   0.2238241), wk =   0.0329218
        k(    8) = (   0.0000000   0.1111111  -0.3357362), wk =   0.0164609
        k(    9) = (   0.0000000   0.2222222   0.0000000), wk =   0.0164609
        k(   10) = (   0.0000000   0.2222222   0.1119121), wk =   0.0329218
        k(   11) = (   0.0000000   0.2222222   0.2238241), wk =   0.0329218
        k(   12) = (   0.0000000   0.2222222  -0.3357362), wk =   0.0164609
        k(   13) = (   0.0000000   0.3333333   0.0000000), wk =   0.0164609
        k(   14) = (   0.0000000   0.3333333   0.1119121), wk =   0.0329218
        k(   15) = (   0.0000000   0.3333333   0.2238241), wk =   0.0329218
        k(   16) = (   0.0000000   0.3333333  -0.3357362), wk =   0.0164609
        k(   17) = (   0.0000000   0.4444444   0.0000000), wk =   0.0164609
        k(   18) = (   0.0000000   0.4444444   0.1119121), wk =   0.0329218
        k(   19) = (   0.0000000   0.4444444   0.2238241), wk =   0.0329218
        k(   20) = (   0.0000000   0.4444444  -0.3357362), wk =   0.0164609
        k(   21) = (   0.1111111   0.1111111   0.0000000), wk =   0.0164609
        k(   22) = (   0.1111111   0.1111111   0.1119121), wk =   0.0329218
        k(   23) = (   0.1111111   0.1111111   0.2238241), wk =   0.0329218
        k(   24) = (   0.1111111   0.1111111  -0.3357362), wk =   0.0164609
        k(   25) = (   0.1111111   0.2222222   0.0000000), wk =   0.0329218
        k(   26) = (   0.1111111   0.2222222   0.1119121), wk =   0.0658436
        k(   27) = (   0.1111111   0.2222222   0.2238241), wk =   0.0658436
        k(   28) = (   0.1111111   0.2222222  -0.3357362), wk =   0.0329218
        k(   29) = (   0.1111111   0.3333333   0.0000000), wk =   0.0329218
        k(   30) = (   0.1111111   0.3333333   0.1119121), wk =   0.0658436
        k(   31) = (   0.1111111   0.3333333   0.2238241), wk =   0.0658436
        k(   32) = (   0.1111111   0.3333333  -0.3357362), wk =   0.0329218
        k(   33) = (   0.1111111   0.4444444   0.0000000), wk =   0.0329218
        k(   34) = (   0.1111111   0.4444444   0.1119121), wk =   0.0658436
        k(   35) = (   0.1111111   0.4444444   0.2238241), wk =   0.0658436
        k(   36) = (   0.1111111   0.4444444  -0.3357362), wk =   0.0329218
        k(   37) = (   0.2222222   0.2222222   0.0000000), wk =   0.0164609
        k(   38) = (   0.2222222   0.2222222   0.1119121), wk =   0.0329218
        k(   39) = (   0.2222222   0.2222222   0.2238241), wk =   0.0329218
        k(   40) = (   0.2222222   0.2222222  -0.3357362), wk =   0.0164609
        k(   41) = (   0.2222222   0.3333333   0.0000000), wk =   0.0329218
        k(   42) = (   0.2222222   0.3333333   0.1119121), wk =   0.0658436
        k(   43) = (   0.2222222   0.3333333   0.2238241), wk =   0.0658436
        k(   44) = (   0.2222222   0.3333333  -0.3357362), wk =   0.0329218
        k(   45) = (   0.2222222   0.4444444   0.0000000), wk =   0.0329218
        k(   46) = (   0.2222222   0.4444444   0.1119121), wk =   0.0658436
        k(   47) = (   0.2222222   0.4444444   0.2238241), wk =   0.0658436
        k(   48) = (   0.2222222   0.4444444  -0.3357362), wk =   0.0329218
        k(   49) = (   0.3333333   0.3333333   0.0000000), wk =   0.0164609
        k(   50) = (   0.3333333   0.3333333   0.1119121), wk =   0.0329218
        k(   51) = (   0.3333333   0.3333333   0.2238241), wk =   0.0329218
        k(   52) = (   0.3333333   0.3333333  -0.3357362), wk =   0.0164609
        k(   53) = (   0.3333333   0.4444444   0.0000000), wk =   0.0329218
        k(   54) = (   0.3333333   0.4444444   0.1119121), wk =   0.0658436
        k(   55) = (   0.3333333   0.4444444   0.2238241), wk =   0.0658436
        k(   56) = (   0.3333333   0.4444444  -0.3357362), wk =   0.0329218
        k(   57) = (   0.4444444   0.4444444   0.0000000), wk =   0.0164609
        k(   58) = (   0.4444444   0.4444444   0.1119121), wk =   0.0329218
        k(   59) = (   0.4444444   0.4444444   0.2238241), wk =   0.0329218
        k(   60) = (   0.4444444   0.4444444  -0.3357362), wk =   0.0164609

     Initial potential from superposition of free atoms

     starting charge  183.99828, renormalised to  184.26000
     Starting wfcs are  116 randomized atomic wfcs

     Self-consistent Calculation

     iteration #  1     ecut=   120.00 Ry     beta= 0.70
     Davidson diagonalization with overlap
     ethr =  1.00E-02,  avg # of iterations =  5.0

     total energy              =   -3126.75957954 Ry
     Harris-Foulkes estimate   =   -3132.16090890 Ry
     estimated scf accuracy    <       6.80879202 Ry

[...]

     total energy              =   -3130.37353905 Ry
     Harris-Foulkes estimate   =   -3130.37353907 Ry
     estimated scf accuracy    <       0.00000005 Ry

     iteration # 12     ecut=   120.00 Ry     beta= 0.70
     Davidson diagonalization with overlap
     ethr =  2.62E-11,  avg # of iterations =  2.0

     End of self-consistent calculation

          k = 0.0000 0.0000 0.0000 ( 31215 PWs)   bands (ev):

   -66.1232 -66.1228 -66.1213 -66.1209 -30.5538 -30.5476 -30.4924 -30.4875
   -30.4576 -30.4576 -30.4542 -30.4542 -30.3643 -30.3643 -30.3615 -30.3615
   -20.2737 -20.2736 -20.2736 -20.2735 -20.2735 -20.2731 -20.2679 -20.2674
   -20.2614 -20.2614 -20.2605 -20.2605 -20.2588 -20.2588 -20.2578 -20.2578
   -20.2503 -20.2501 -20.2496 -20.2495 -20.2270 -20.2270 -20.2270 -20.2270
   -20.2224 -20.2224 -20.2224 -20.2224  -9.9835  -9.6819  -9.1496  -9.0579
    -9.0440  -8.9219  -7.9042  -7.7931  -7.6604  -7.6604  -7.6386  -7.6386
     1.1712   1.1715   1.3106   1.5596   1.5929   1.7834   2.4028   2.4831
     2.6552   2.6552   4.1069   4.1069   4.9574   4.9574   5.0174   5.4986
     5.4986   5.5134   5.5134   5.7710   5.7710   5.9057   5.9228   6.7324
     6.7324   6.8458   7.0053   7.0097   7.3353   7.3353   7.3725   7.3725
     7.8804   7.8927   8.0573   8.0573   9.2126   9.2182   9.9553   9.9553
    12.3032  12.3032  13.0060  13.0076  13.3901  13.3901  13.7362  14.1651
    14.1651  14.7864  15.3007  15.3104  15.4756  16.7530  17.3476

[...]

          k = 0.4444 0.4444-0.3357 ( 31296 PWs)   bands (ev):

   -66.1221 -66.1221 -66.1220 -66.1220 -30.5206 -30.5205 -30.5204 -30.5204
   -30.4610 -30.4609 -30.4581 -30.4581 -30.3615 -30.3615 -30.3587 -30.3587
   -20.2736 -20.2736 -20.2736 -20.2736 -20.2705 -20.2705 -20.2705 -20.2705
   -20.2610 -20.2610 -20.2609 -20.2609 -20.2583 -20.2583 -20.2582 -20.2582
   -20.2499 -20.2499 -20.2499 -20.2499 -20.2284 -20.2284 -20.2283 -20.2283
   -20.2211 -20.2211 -20.2210 -20.2210  -9.3597  -9.3597  -9.3152  -9.3152
    -8.4996  -8.4996  -8.4941  -8.4941  -7.8340  -7.8340  -7.7745  -7.7745
     1.2777   1.2778   1.3912   1.3913   3.1464   3.1464   3.1521   3.1521
     3.3991   3.3991   3.4247   3.4247   4.6114   4.6114   4.8388   4.8388
     5.1894   5.1894   5.2813   5.2813   5.8990   5.8990   6.0614   6.0614
     6.1135   6.1135   6.2630   6.2630   6.6997   6.6997   6.7912   6.7912
     7.4169   7.4169   7.4270   7.4270  11.2910  11.2910  11.3493  11.3493
    12.2980  12.2981  12.3668  12.3668  13.4961  13.4961  13.5803  13.5803
    15.5687  15.5687  15.7063  15.7063  17.9625  17.9625  18.1766

     the Fermi energy is     9.7858 ev

!    total energy              =   -3130.37353905 Ry
     Harris-Foulkes estimate   =   -3130.37353905 Ry
     estimated scf accuracy    <          3.5E-09 Ry

     The total energy is the sum of the following terms:

     one-electron contribution =   -2369.96712502 Ry
     hartree contribution      =    1303.67320316 Ry
     xc contribution           =    -483.12493705 Ry
     ewald contribution        =   -1580.95467254 Ry
     smearing contrib. (-TS)   =      -0.00000760 Ry

     convergence has been achieved in  12 iterations

     Writing output data file Landau_3.save/

     General routines

     Parallel routines

   This run was terminated on:  22:33: 1  21Nov2019

   JOB DONE.