     Program PWSCF v.6.4.1 starts on 21Nov2019 at 22: 4:54

     K-points division:     npool     =      40
     Reading input from scf.in

     Current dimensions of program PWSCF are:
     Max number of different atomic species (ntypx) = 10
     Max number of k-points (npk) =  40000
     Max angular momentum in pseudopotentials (lmaxx) =  3

     Subspace diagonalization in iterative solution of the eigenvalue problem:
     a serial algorithm will be used

     Message from routine setup:
     using ibrav=0 with symmetry is DISCOURAGED, use correct ibrav instead

     bravais-lattice index     =            0
     lattice parameter (alat)  =       9.7849  a.u.
     unit-cell volume          =    1402.1515 (a.u.)^3
     number of atoms/cell      =           16
     number of atomic types    =            2
     number of electrons       =       184.05
     number of Kohn-Sham states=          110
     kinetic-energy cutoff     =     120.0000  Ry
     charge density cutoff     =     480.0000  Ry
     convergence threshold     =      1.0E-08
     mixing beta               =       0.7000
     number of iterations used =            8  plain     mixing
     Exchange-correlation      = SLA PW NOGX NOGC ( 1  4  0  0 0 0)

     celldm(1)=   9.784926  celldm(2)=   0.000000  celldm(3)=   0.000000
     celldm(4)=   0.000000  celldm(5)=   0.000000  celldm(6)=   0.000000

     crystal axes: (cart. coord. in units of alat)
               a(1) = (   1.000000   0.000000   0.000000 )
               a(2) = (   0.000000   1.000000   0.000000 )
               a(3) = (   0.000000   0.000000   1.496657 )

     reciprocal axes: (cart. coord. in units 2 pi/alat)
               b(1) = (  1.000000  0.000000  0.000000 )
               b(2) = (  0.000000  1.000000  0.000000 )
               b(3) = (  0.000000  0.000000  0.668156 )

     PseudoPot. # 1 for W  read from file:
     /cluster/scratch/mnoe/QE/pps/W_ONCV_LDA-4.0.upf
     MD5 check sum: ba0307d5d4cd419d6f1d13dc49d7c13a
     Pseudo is Norm-conserving + core correction, Zval = 28.0
     Generated using ONCVPSP code by D. R. Hamann
     Using radial grid of 1380 points,  8 beta functions with:
                l(1) =   0
                l(2) =   0
                l(3) =   1
                l(4) =   1
                l(5) =   2
                l(6) =   2
                l(7) =   3
                l(8) =   3

     PseudoPot. # 2 for O  read from file:
     /cluster/scratch/mnoe/QE/pps/O_ONCV_LDA-3.0.upf
     MD5 check sum: b55cdb4f45ae2203d24ad12cf8d61a31
     Pseudo is Norm-conserving + core correction, Zval =  6.0
     Generated using ONCVPSP code by D. R. Hamann
     Using radial grid of  926 points,  5 beta functions with:
                l(1) =   0
                l(2) =   0
                l(3) =   1
                l(4) =   1
                l(5) =   2

     atomic species   valence    mass     pseudopotential
        W             28.00   183.84000     W ( 1.00)
        O              6.00    15.99940     O ( 1.00)

     16 Sym. Ops., with inversion, found (14 have fractional translation)

   Cartesian axes

     site n.     atom                  positions (alat units)
         1           W   tau(   1) = (   0.2500000   0.2500000   0.3264508  )
         2           W   tau(   2) = (   0.7500000   0.7500000   1.1702062  )
         3           W   tau(   3) = (   0.7500000   0.7500000   0.4218777  )
         4           W   tau(   4) = (   0.2500000   0.2500000   1.0747793  )
         5           O   tau(   5) = (   0.2500000   0.2500000   0.7358614  )
         6           O   tau(   6) = (   0.7500000   0.7500000   0.7607956  )
         7           O   tau(   7) = (   0.7500000   0.7500000   0.0124671  )
         8           O   tau(   8) = (   0.2500000   0.2500000   1.4841899  )
         9           O   tau(   9) = (   0.4494100   0.5505900   0.3741643  )
        10           O   tau(  10) = (   0.5505900   0.4494100   1.1224928  )
        11           O   tau(  11) = (   0.0505900   0.9494100   0.3741643  )
        12           O   tau(  12) = (   0.9494099   0.0505900   1.1224928  )
        13           O   tau(  13) = (   0.9494100   0.4494100   0.3741643  )
        14           O   tau(  14) = (   0.0505900   0.5505900   1.1224928  )
        15           O   tau(  15) = (   0.5505900   0.0505900   0.3741643  )
        16           O   tau(  16) = (   0.4494100   0.9494099   1.1224928  )

     number of k points=    60  gaussian smearing, width (Ry)=  0.0007
                       cart. coord. in units 2pi/alat
        k(    1) = (   0.0000000   0.0000000   0.0000000), wk =   0.0041152
        k(    2) = (   0.0000000   0.0000000   0.1113593), wk =   0.0082305
        k(    3) = (   0.0000000   0.0000000   0.2227186), wk =   0.0082305
        k(    4) = (   0.0000000   0.0000000  -0.3340779), wk =   0.0041152
        k(    5) = (   0.0000000   0.1111111   0.0000000), wk =   0.0164609
        k(    6) = (   0.0000000   0.1111111   0.1113593), wk =   0.0329218
        k(    7) = (   0.0000000   0.1111111   0.2227186), wk =   0.0329218
        k(    8) = (   0.0000000   0.1111111  -0.3340779), wk =   0.0164609
        k(    9) = (   0.0000000   0.2222222   0.0000000), wk =   0.0164609
        k(   10) = (   0.0000000   0.2222222   0.1113593), wk =   0.0329218
        k(   11) = (   0.0000000   0.2222222   0.2227186), wk =   0.0329218
        k(   12) = (   0.0000000   0.2222222  -0.3340779), wk =   0.0164609
        k(   13) = (   0.0000000   0.3333333   0.0000000), wk =   0.0164609
        k(   14) = (   0.0000000   0.3333333   0.1113593), wk =   0.0329218
        k(   15) = (   0.0000000   0.3333333   0.2227186), wk =   0.0329218
        k(   16) = (   0.0000000   0.3333333  -0.3340779), wk =   0.0164609
        k(   17) = (   0.0000000   0.4444444   0.0000000), wk =   0.0164609
        k(   18) = (   0.0000000   0.4444444   0.1113593), wk =   0.0329218
        k(   19) = (   0.0000000   0.4444444   0.2227186), wk =   0.0329218
        k(   20) = (   0.0000000   0.4444444  -0.3340779), wk =   0.0164609
        k(   21) = (   0.1111111   0.1111111   0.0000000), wk =   0.0164609
        k(   22) = (   0.1111111   0.1111111   0.1113593), wk =   0.0329218
        k(   23) = (   0.1111111   0.1111111   0.2227186), wk =   0.0329218
        k(   24) = (   0.1111111   0.1111111  -0.3340779), wk =   0.0164609
        k(   25) = (   0.1111111   0.2222222   0.0000000), wk =   0.0329218
        k(   26) = (   0.1111111   0.2222222   0.1113593), wk =   0.0658436
        k(   27) = (   0.1111111   0.2222222   0.2227186), wk =   0.0658436
        k(   28) = (   0.1111111   0.2222222  -0.3340779), wk =   0.0329218
        k(   29) = (   0.1111111   0.3333333   0.0000000), wk =   0.0329218
        k(   30) = (   0.1111111   0.3333333   0.1113593), wk =   0.0658436
        k(   31) = (   0.1111111   0.3333333   0.2227186), wk =   0.0658436
        k(   32) = (   0.1111111   0.3333333  -0.3340779), wk =   0.0329218
        k(   33) = (   0.1111111   0.4444444   0.0000000), wk =   0.0329218
        k(   34) = (   0.1111111   0.4444444   0.1113593), wk =   0.0658436
        k(   35) = (   0.1111111   0.4444444   0.2227186), wk =   0.0658436
        k(   36) = (   0.1111111   0.4444444  -0.3340779), wk =   0.0329218
        k(   37) = (   0.2222222   0.2222222   0.0000000), wk =   0.0164609
        k(   38) = (   0.2222222   0.2222222   0.1113593), wk =   0.0329218
        k(   39) = (   0.2222222   0.2222222   0.2227186), wk =   0.0329218
        k(   40) = (   0.2222222   0.2222222  -0.3340779), wk =   0.0164609
        k(   41) = (   0.2222222   0.3333333   0.0000000), wk =   0.0329218
        k(   42) = (   0.2222222   0.3333333   0.1113593), wk =   0.0658436
        k(   43) = (   0.2222222   0.3333333   0.2227186), wk =   0.0658436
        k(   44) = (   0.2222222   0.3333333  -0.3340779), wk =   0.0329218
        k(   45) = (   0.2222222   0.4444444   0.0000000), wk =   0.0329218
        k(   46) = (   0.2222222   0.4444444   0.1113593), wk =   0.0658436
        k(   47) = (   0.2222222   0.4444444   0.2227186), wk =   0.0658436
        k(   48) = (   0.2222222   0.4444444  -0.3340779), wk =   0.0329218
        k(   49) = (   0.3333333   0.3333333   0.0000000), wk =   0.0164609
        k(   50) = (   0.3333333   0.3333333   0.1113593), wk =   0.0329218
        k(   51) = (   0.3333333   0.3333333   0.2227186), wk =   0.0329218
        k(   52) = (   0.3333333   0.3333333  -0.3340779), wk =   0.0164609
        k(   53) = (   0.3333333   0.4444444   0.0000000), wk =   0.0329218
        k(   54) = (   0.3333333   0.4444444   0.1113593), wk =   0.0658436
        k(   55) = (   0.3333333   0.4444444   0.2227186), wk =   0.0658436
        k(   56) = (   0.3333333   0.4444444  -0.3340779), wk =   0.0329218
        k(   57) = (   0.4444444   0.4444444   0.0000000), wk =   0.0164609
        k(   58) = (   0.4444444   0.4444444   0.1113593), wk =   0.0329218
        k(   59) = (   0.4444444   0.4444444   0.2227186), wk =   0.0329218
        k(   60) = (   0.4444444   0.4444444  -0.3340779), wk =   0.0164609

     Initial potential from superposition of free atoms

     starting charge  183.99828, renormalised to  184.05000
     Starting wfcs are  116 randomized atomic wfcs

     Self-consistent Calculation

     iteration #  1     ecut=   120.00 Ry     beta= 0.70
     Davidson diagonalization with overlap
     ethr =  1.00E-02,  avg # of iterations =  4.2

     total energy              =   -3126.93928362 Ry
     Harris-Foulkes estimate   =   -3132.26645233 Ry
     estimated scf accuracy    <       6.73921993 Ry

[...]

     total energy              =   -3130.52070848 Ry
     Harris-Foulkes estimate   =   -3130.52070849 Ry
     estimated scf accuracy    <       0.00000002 Ry

     iteration # 12     ecut=   120.00 Ry     beta= 0.70
     Davidson diagonalization with overlap
     ethr =  1.28E-11,  avg # of iterations =  2.0

     End of self-consistent calculation

          k = 0.0000 0.0000 0.0000 ( 31095 PWs)   bands (ev):

   -66.1467 -66.1463 -66.1447 -66.1443 -30.5497 -30.5433 -30.4905 -30.4852
   -30.4851 -30.4851 -30.4818 -30.4818 -30.3893 -30.3893 -30.3867 -30.3867
   -20.3047 -20.3046 -20.3045 -20.3045 -20.2911 -20.2906 -20.2856 -20.2851
   -20.2819 -20.2819 -20.2816 -20.2816 -20.2805 -20.2805 -20.2800 -20.2800
   -20.2733 -20.2732 -20.2725 -20.2725 -20.2705 -20.2705 -20.2704 -20.2704
   -20.2635 -20.2635 -20.2632 -20.2632  -9.9429  -9.6655  -9.0685  -9.0440
    -9.0321  -8.8701  -7.8502  -7.7396  -7.6151  -7.6151  -7.5941  -7.5941
     1.2004   1.2010   1.3775   1.6430   1.6519   1.8670   2.3970   2.4701
     2.7344   2.7344   4.1410   4.1410   5.0418   5.0418   5.0711   5.5257
     5.5257   5.5341   5.5341   5.8157   5.8157   5.9476   5.9661   6.8087
     6.8087   6.8906   7.0273   7.0275   7.4036   7.4036   7.4484   7.4484
     7.7862   7.7999   8.0815   8.0815   9.2491   9.2566  10.0411  10.0411
    12.2941  12.2941  12.8692  12.8720  13.4181  13.4181  13.7833  14.1680
    14.1680  14.9112  15.4293  15.4404  15.4700  16.8213

[...]

          k = 0.4444 0.4444-0.3341 ( 31138 PWs)   bands (ev):

   -66.1455 -66.1455 -66.1455 -66.1455 -30.5174 -30.5174 -30.5174 -30.5174
   -30.4886 -30.4886 -30.4856 -30.4856 -30.3866 -30.3866 -30.3838 -30.3838
   -20.3046 -20.3046 -20.3046 -20.3046 -20.2882 -20.2882 -20.2881 -20.2881
   -20.2817 -20.2817 -20.2817 -20.2817 -20.2803 -20.2803 -20.2803 -20.2803
   -20.2730 -20.2730 -20.2729 -20.2729 -20.2714 -20.2714 -20.2711 -20.2711
   -20.2627 -20.2627 -20.2625 -20.2625  -9.3178  -9.3178  -9.2721  -9.2721
    -8.4384  -8.4384  -8.4330  -8.4329  -7.8143  -7.8143  -7.7539  -7.7539
     1.3011   1.3011   1.4138   1.4138   3.2039   3.2039   3.2102   3.2102
     3.4671   3.4671   3.4919   3.4919   4.6586   4.6586   4.8992   4.8992
     5.2438   5.2438   5.3273   5.3273   5.9319   5.9319   6.0948   6.0948
     6.1186   6.1186   6.2707   6.2708   6.7543   6.7543   6.8453   6.8453
     7.4618   7.4618   7.4722   7.4722  11.3301  11.3301  11.3880  11.3880
    12.2623  12.2623  12.3224  12.3224  13.5017  13.5017  13.5843  13.5843
    15.6554  15.6554  15.7844  15.7844  18.0837  18.0838

     the Fermi energy is     9.5415 ev

!    total energy              =   -3130.52070848 Ry
     Harris-Foulkes estimate   =   -3130.52070848 Ry
     estimated scf accuracy    <          1.3E-09 Ry

     The total energy is the sum of the following terms:

     one-electron contribution =   -2360.57736341 Ry
     hartree contribution      =    1298.81944823 Ry
     xc contribution           =    -482.88950102 Ry
     ewald contribution        =   -1585.87329152 Ry
     smearing contrib. (-TS)   =      -0.00000076 Ry

     convergence has been achieved in  12 iterations

     Writing output data file Landau_0.save/

     General routines

     Parallel routines

   This run was terminated on:  22: 9:48  21Nov2019

   JOB DONE.