     Program PWSCF v.6.4.1 starts on 21Nov2019 at 22: 4:45

     K-points division:     npool     =      40
     Reading input from scf.in

     Current dimensions of program PWSCF are:
     Max number of different atomic species (ntypx) = 10
     Max number of k-points (npk) =  40000
     Max angular momentum in pseudopotentials (lmaxx) =  3

     Subspace diagonalization in iterative solution of the eigenvalue problem:
     a serial algorithm will be used

     Message from routine setup:
     using ibrav=0 with symmetry is DISCOURAGED, use correct ibrav instead

     bravais-lattice index     =            0
     lattice parameter (alat)  =       9.9109  a.u.
     unit-cell volume          =    1424.8715 (a.u.)^3
     number of atoms/cell      =           16
     number of atomic types    =            2
     number of electrons       =       184.05
     number of Kohn-Sham states=          110
     kinetic-energy cutoff     =     120.0000  Ry
     charge density cutoff     =     480.0000  Ry
     convergence threshold     =      1.0E-08
     mixing beta               =       0.7000
     number of iterations used =            8  plain     mixing
     Exchange-correlation      = SLA PW NOGX NOGC ( 1  4  0  0 0 0)

     celldm(1)=   9.910914  celldm(2)=   0.000000  celldm(3)=   0.000000
     celldm(4)=   0.000000  celldm(5)=   0.000000  celldm(6)=   0.000000

     crystal axes: (cart. coord. in units of alat)
               a(1) = (   1.000000   0.000000   0.000000 )
               a(2) = (   0.000000   1.000000   0.000000 )
               a(3) = (   0.000000   0.000000   1.463641 )

     reciprocal axes: (cart. coord. in units 2 pi/alat)
               b(1) = (  1.000000  0.000000  0.000000 )
               b(2) = (  0.000000  1.000000  0.000000 )
               b(3) = (  0.000000  0.000000  0.683228 )

     PseudoPot. # 1 for W  read from file:
     /cluster/scratch/mnoe/QE/pps/W_ONCV_LDA-4.0.upf
     MD5 check sum: ba0307d5d4cd419d6f1d13dc49d7c13a
     Pseudo is Norm-conserving + core correction, Zval = 28.0
     Generated using ONCVPSP code by D. R. Hamann
     Using radial grid of 1380 points,  8 beta functions with:
                l(1) =   0
                l(2) =   0
                l(3) =   1
                l(4) =   1
                l(5) =   2
                l(6) =   2
                l(7) =   3
                l(8) =   3

     PseudoPot. # 2 for O  read from file:
     /cluster/scratch/mnoe/QE/pps/O_ONCV_LDA-3.0.upf
     MD5 check sum: b55cdb4f45ae2203d24ad12cf8d61a31
     Pseudo is Norm-conserving + core correction, Zval =  6.0
     Generated using ONCVPSP code by D. R. Hamann
     Using radial grid of  926 points,  5 beta functions with:
                l(1) =   0
                l(2) =   0
                l(3) =   1
                l(4) =   1
                l(5) =   2

     atomic species   valence    mass     pseudopotential
        W             28.00   183.84000     W ( 1.00)
        O              6.00    15.99940     O ( 1.00)

     16 Sym. Ops., with inversion, found (14 have fractional translation)

   Cartesian axes

     site n.     atom                  positions (alat units)
         1           W   tau(   1) = (   0.2500000   0.2500000   0.3108021  )
         2           W   tau(   2) = (   0.7500000   0.7500000   1.1528390  )
         3           W   tau(   3) = (   0.7500000   0.7500000   0.4210185  )
         4           W   tau(   4) = (   0.2500000   0.2500000   1.0426226  )
         5           O   tau(   5) = (   0.2500000   0.2500000   0.7036427  )
         6           O   tau(   6) = (   0.7500000   0.7500000   0.7599984  )
         7           O   tau(   7) = (   0.7500000   0.7500000   0.0281779  )
         8           O   tau(   8) = (   0.2500000   0.2500000   1.4354632  )
         9           O   tau(   9) = (   0.4792520   0.5207480   0.3659103  )
        10           O   tau(  10) = (   0.5207480   0.4792520   1.0977308  )
        11           O   tau(  11) = (   0.0207480   0.9792520   0.3659103  )
        12           O   tau(  12) = (   0.9792520   0.0207480   1.0977308  )
        13           O   tau(  13) = (   0.9792520   0.4792520   0.3659103  )
        14           O   tau(  14) = (   0.0207480   0.5207480   1.0977308  )
        15           O   tau(  15) = (   0.5207480   0.0207480   0.3659103  )
        16           O   tau(  16) = (   0.4792520   0.9792520   1.0977308  )

     number of k points=    60  gaussian smearing, width (Ry)=  0.0007
                       cart. coord. in units 2pi/alat
        k(    1) = (   0.0000000   0.0000000   0.0000000), wk =   0.0041152
        k(    2) = (   0.0000000   0.0000000   0.1138713), wk =   0.0082305
        k(    3) = (   0.0000000   0.0000000   0.2277425), wk =   0.0082305
        k(    4) = (   0.0000000   0.0000000  -0.3416138), wk =   0.0041152
        k(    5) = (   0.0000000   0.1111111   0.0000000), wk =   0.0164609
        k(    6) = (   0.0000000   0.1111111   0.1138713), wk =   0.0329218
        k(    7) = (   0.0000000   0.1111111   0.2277425), wk =   0.0329218
        k(    8) = (   0.0000000   0.1111111  -0.3416138), wk =   0.0164609
        k(    9) = (   0.0000000   0.2222222   0.0000000), wk =   0.0164609
        k(   10) = (   0.0000000   0.2222222   0.1138713), wk =   0.0329218
        k(   11) = (   0.0000000   0.2222222   0.2277425), wk =   0.0329218
        k(   12) = (   0.0000000   0.2222222  -0.3416138), wk =   0.0164609
        k(   13) = (   0.0000000   0.3333333   0.0000000), wk =   0.0164609
        k(   14) = (   0.0000000   0.3333333   0.1138713), wk =   0.0329218
        k(   15) = (   0.0000000   0.3333333   0.2277425), wk =   0.0329218
        k(   16) = (   0.0000000   0.3333333  -0.3416138), wk =   0.0164609
        k(   17) = (   0.0000000   0.4444444   0.0000000), wk =   0.0164609
        k(   18) = (   0.0000000   0.4444444   0.1138713), wk =   0.0329218
        k(   19) = (   0.0000000   0.4444444   0.2277425), wk =   0.0329218
        k(   20) = (   0.0000000   0.4444444  -0.3416138), wk =   0.0164609
        k(   21) = (   0.1111111   0.1111111   0.0000000), wk =   0.0164609
        k(   22) = (   0.1111111   0.1111111   0.1138713), wk =   0.0329218
        k(   23) = (   0.1111111   0.1111111   0.2277425), wk =   0.0329218
        k(   24) = (   0.1111111   0.1111111  -0.3416138), wk =   0.0164609
        k(   25) = (   0.1111111   0.2222222   0.0000000), wk =   0.0329218
        k(   26) = (   0.1111111   0.2222222   0.1138713), wk =   0.0658436
        k(   27) = (   0.1111111   0.2222222   0.2277425), wk =   0.0658436
        k(   28) = (   0.1111111   0.2222222  -0.3416138), wk =   0.0329218
        k(   29) = (   0.1111111   0.3333333   0.0000000), wk =   0.0329218
        k(   30) = (   0.1111111   0.3333333   0.1138713), wk =   0.0658436
        k(   31) = (   0.1111111   0.3333333   0.2277425), wk =   0.0658436
        k(   32) = (   0.1111111   0.3333333  -0.3416138), wk =   0.0329218
        k(   33) = (   0.1111111   0.4444444   0.0000000), wk =   0.0329218
        k(   34) = (   0.1111111   0.4444444   0.1138713), wk =   0.0658436
        k(   35) = (   0.1111111   0.4444444   0.2277425), wk =   0.0658436
        k(   36) = (   0.1111111   0.4444444  -0.3416138), wk =   0.0329218
        k(   37) = (   0.2222222   0.2222222   0.0000000), wk =   0.0164609
        k(   38) = (   0.2222222   0.2222222   0.1138713), wk =   0.0329218
        k(   39) = (   0.2222222   0.2222222   0.2277425), wk =   0.0329218
        k(   40) = (   0.2222222   0.2222222  -0.3416138), wk =   0.0164609
        k(   41) = (   0.2222222   0.3333333   0.0000000), wk =   0.0329218
        k(   42) = (   0.2222222   0.3333333   0.1138713), wk =   0.0658436
        k(   43) = (   0.2222222   0.3333333   0.2277425), wk =   0.0658436
        k(   44) = (   0.2222222   0.3333333  -0.3416138), wk =   0.0329218
        k(   45) = (   0.2222222   0.4444444   0.0000000), wk =   0.0329218
        k(   46) = (   0.2222222   0.4444444   0.1138713), wk =   0.0658436
        k(   47) = (   0.2222222   0.4444444   0.2277425), wk =   0.0658436
        k(   48) = (   0.2222222   0.4444444  -0.3416138), wk =   0.0329218
        k(   49) = (   0.3333333   0.3333333   0.0000000), wk =   0.0164609
        k(   50) = (   0.3333333   0.3333333   0.1138713), wk =   0.0329218
        k(   51) = (   0.3333333   0.3333333   0.2277425), wk =   0.0329218
        k(   52) = (   0.3333333   0.3333333  -0.3416138), wk =   0.0164609
        k(   53) = (   0.3333333   0.4444444   0.0000000), wk =   0.0329218
        k(   54) = (   0.3333333   0.4444444   0.1138713), wk =   0.0658436
        k(   55) = (   0.3333333   0.4444444   0.2277425), wk =   0.0658436
        k(   56) = (   0.3333333   0.4444444  -0.3416138), wk =   0.0329218
        k(   57) = (   0.4444444   0.4444444   0.0000000), wk =   0.0164609
        k(   58) = (   0.4444444   0.4444444   0.1138713), wk =   0.0329218
        k(   59) = (   0.4444444   0.4444444   0.2277425), wk =   0.0329218
        k(   60) = (   0.4444444   0.4444444  -0.3416138), wk =   0.0164609

     Initial potential from superposition of free atoms

     starting charge  183.99828, renormalised to  184.05000
     Starting wfcs are  116 randomized atomic wfcs

     Self-consistent Calculation

     iteration #  1     ecut=   120.00 Ry     beta= 0.70
     Davidson diagonalization with overlap
     ethr =  1.00E-02,  avg # of iterations =  4.3

     total energy              =   -3126.86894117 Ry
     Harris-Foulkes estimate   =   -3132.27829810 Ry
     estimated scf accuracy    <       6.84046742 Ry

[...]

     total energy              =   -3130.50262329 Ry
     Harris-Foulkes estimate   =   -3130.50262331 Ry
     estimated scf accuracy    <       0.00000005 Ry

     iteration # 12     ecut=   120.00 Ry     beta= 0.70
     Davidson diagonalization with overlap
     ethr =  2.46E-11,  avg # of iterations =  2.0

     End of self-consistent calculation

          k = 0.0000 0.0000 0.0000 ( 31679 PWs)   bands (ev):

   -66.4199 -66.4195 -66.4185 -66.4181 -30.7856 -30.7808 -30.7554 -30.7554
   -30.7516 -30.7516 -30.7183 -30.7147 -30.6736 -30.6736 -30.6705 -30.6705
   -20.5823 -20.5823 -20.5822 -20.5822 -20.5646 -20.5646 -20.5646 -20.5646
   -20.5631 -20.5631 -20.5629 -20.5629 -20.5605 -20.5604 -20.5553 -20.5551
   -20.5550 -20.5549 -20.5542 -20.5540 -20.5513 -20.5513 -20.5499 -20.5499
   -20.5474 -20.5474 -20.5461 -20.5461 -10.1925  -9.8410  -9.3899  -9.2168
    -9.1956  -9.0880  -8.0300  -7.9175  -7.9175  -7.9143  -7.8936  -7.8936
     0.8994   0.8997   1.0152   1.2489   1.2672   1.4124   2.3000   2.3603
     2.3603   2.4025   3.9185   3.9185   4.6390   4.6390   4.8417   5.3892
     5.3892   5.4319   5.4319   5.6541   5.6541   5.7718   5.8086   6.4776
     6.4776   6.6710   6.9285   6.9520   7.0227   7.0227   7.0414   7.0414
     8.0425   8.0425   8.0970   8.1003   8.7901   8.7949   9.4889   9.4889
    12.2306  12.2306  13.1492  13.1492  13.3108  13.3168  13.4137  14.0026
    14.0026  14.3683  14.3716  14.5469  15.3653  16.3548

[...]

          k = 0.4444 0.4444-0.3416 ( 31640 PWs)   bands (ev):

   -66.4190 -66.4190 -66.4190 -66.4190 -30.7581 -30.7581 -30.7566 -30.7566
   -30.7501 -30.7501 -30.7490 -30.7490 -30.6704 -30.6703 -30.6679 -30.6679
   -20.5822 -20.5822 -20.5822 -20.5822 -20.5663 -20.5662 -20.5662 -20.5662
   -20.5614 -20.5614 -20.5614 -20.5614 -20.5573 -20.5573 -20.5573 -20.5573
   -20.5551 -20.5551 -20.5551 -20.5551 -20.5507 -20.5506 -20.5505 -20.5505
   -20.5468 -20.5468 -20.5467 -20.5467  -9.5829  -9.5829  -9.5413  -9.5413
    -8.6725  -8.6725  -8.6673  -8.6672  -8.0235  -8.0235  -7.9680  -7.9680
     1.0370   1.0370   1.1521   1.1521   2.9221   2.9221   2.9276   2.9276
     3.1630   3.1630   3.1883   3.1883   4.3288   4.3288   4.5194   4.5195
     5.0300   5.0300   5.1520   5.1520   5.6614   5.6614   5.8251   5.8251
     6.0360   6.0360   6.1702   6.1702   6.5134   6.5134   6.6104   6.6104
     7.3065   7.3065   7.3155   7.3155  11.0316  11.0317  11.0897  11.0897
    12.1905  12.1905  12.2931  12.2932  13.3285  13.3285  13.4213  13.4213
    14.9904  14.9904  15.1698  15.1698  17.6771  17.6771

     the Fermi energy is     9.1121 ev

!    total energy              =   -3130.50262329 Ry
     Harris-Foulkes estimate   =   -3130.50262329 Ry
     estimated scf accuracy    <          3.0E-09 Ry

     The total energy is the sum of the following terms:

     one-electron contribution =   -2395.23503924 Ry
     hartree contribution      =    1314.44429389 Ry
     xc contribution           =    -482.90868739 Ry
     ewald contribution        =   -1566.80318965 Ry
     smearing contrib. (-TS)   =      -0.00000089 Ry

     convergence has been achieved in  12 iterations

     Writing output data file Landau_17.save/

     General routines

     Parallel routines

   This run was terminated on:  22: 9: 8  21Nov2019

   JOB DONE.