     Program PWSCF v.6.4.1 starts on 21Nov2019 at 22:20:17

     K-points division:     npool     =      40
     Reading input from scf.in

     Current dimensions of program PWSCF are:
     Max number of different atomic species (ntypx) = 10
     Max number of k-points (npk) =  40000
     Max angular momentum in pseudopotentials (lmaxx) =  3

     Subspace diagonalization in iterative solution of the eigenvalue problem:
     a serial algorithm will be used

     Message from routine setup:
     using ibrav=0 with symmetry is DISCOURAGED, use correct ibrav instead

     bravais-lattice index     =            0
     lattice parameter (alat)  =       9.9140  a.u.
     unit-cell volume          =    1416.1773 (a.u.)^3
     number of atoms/cell      =           16
     number of atomic types    =            2
     number of electrons       =       184.10
     number of Kohn-Sham states=          110
     kinetic-energy cutoff     =     120.0000  Ry
     charge density cutoff     =     480.0000  Ry
     convergence threshold     =      1.0E-08
     mixing beta               =       0.7000
     number of iterations used =            8  plain     mixing
     Exchange-correlation      = SLA PW NOGX NOGC ( 1  4  0  0 0 0)

     celldm(1)=   9.914000  celldm(2)=   0.000000  celldm(3)=   0.000000
     celldm(4)=   0.000000  celldm(5)=   0.000000  celldm(6)=   0.000000

     crystal axes: (cart. coord. in units of alat)
               a(1) = (   1.000000   0.000000   0.000000 )
               a(2) = (   0.000000   1.000000   0.000000 )
               a(3) = (   0.000000   0.000000   1.453352 )

     reciprocal axes: (cart. coord. in units 2 pi/alat)
               b(1) = (  1.000000  0.000000  0.000000 )
               b(2) = (  0.000000  1.000000  0.000000 )
               b(3) = (  0.000000  0.000000  0.688064 )

     PseudoPot. # 1 for W  read from file:
     /cluster/scratch/mnoe/QE/pps/W_ONCV_LDA-4.0.upf
     MD5 check sum: ba0307d5d4cd419d6f1d13dc49d7c13a
     Pseudo is Norm-conserving + core correction, Zval = 28.0
     Generated using ONCVPSP code by D. R. Hamann
     Using radial grid of 1380 points,  8 beta functions with:
                l(1) =   0
                l(2) =   0
                l(3) =   1
                l(4) =   1
                l(5) =   2
                l(6) =   2
                l(7) =   3
                l(8) =   3

     PseudoPot. # 2 for O  read from file:
     /cluster/scratch/mnoe/QE/pps/O_ONCV_LDA-3.0.upf
     MD5 check sum: b55cdb4f45ae2203d24ad12cf8d61a31
     Pseudo is Norm-conserving + core correction, Zval =  6.0
     Generated using ONCVPSP code by D. R. Hamann
     Using radial grid of  926 points,  5 beta functions with:
                l(1) =   0
                l(2) =   0
                l(3) =   1
                l(4) =   1
                l(5) =   2

     atomic species   valence    mass     pseudopotential
        W             28.00   183.84000     W ( 1.00)
        O              6.00    15.99940     O ( 1.00)

     16 Sym. Ops., with inversion, found (14 have fractional translation)

   Cartesian axes

     site n.     atom                  positions (alat units)
         1           W   tau(   1) = (   0.2500000   0.2500000   0.3007227  )
         2           W   tau(   2) = (   0.7500000   0.7500000   1.1526294  )
         3           W   tau(   3) = (   0.7500000   0.7500000   0.4259534  )
         4           W   tau(   4) = (   0.2500000   0.2500000   1.0273987  )
         5           O   tau(   5) = (   0.2500000   0.2500000   0.6837566  )
         6           O   tau(   6) = (   0.7500000   0.7500000   0.7695956  )
         7           O   tau(   7) = (   0.7500000   0.7500000   0.0429195  )
         8           O   tau(   8) = (   0.2500000   0.2500000   1.4104326  )
         9           O   tau(   9) = (   0.5073386   0.4926613   0.3633380  )
        10           O   tau(  10) = (   0.4926614   0.5073387   1.0900141  )
        11           O   tau(  11) = (  -0.0073386   1.0073387   0.3633380  )
        12           O   tau(  12) = (   1.0073386  -0.0073386   1.0900141  )
        13           O   tau(  13) = (   1.0073387   0.5073386   0.3633380  )
        14           O   tau(  14) = (  -0.0073386   0.4926614   1.0900141  )
        15           O   tau(  15) = (   0.4926613  -0.0073386   0.3633380  )
        16           O   tau(  16) = (   0.5073387   1.0073386   1.0900141  )

     number of k points=    60  gaussian smearing, width (Ry)=  0.0007
                       cart. coord. in units 2pi/alat
        k(    1) = (   0.0000000   0.0000000   0.0000000), wk =   0.0041152
        k(    2) = (   0.0000000   0.0000000   0.1146774), wk =   0.0082305
        k(    3) = (   0.0000000   0.0000000   0.2293548), wk =   0.0082305
        k(    4) = (   0.0000000   0.0000000  -0.3440322), wk =   0.0041152
        k(    5) = (   0.0000000   0.1111111   0.0000000), wk =   0.0164609
        k(    6) = (   0.0000000   0.1111111   0.1146774), wk =   0.0329218
        k(    7) = (   0.0000000   0.1111111   0.2293548), wk =   0.0329218
        k(    8) = (   0.0000000   0.1111111  -0.3440322), wk =   0.0164609
        k(    9) = (   0.0000000   0.2222222   0.0000000), wk =   0.0164609
        k(   10) = (   0.0000000   0.2222222   0.1146774), wk =   0.0329218
        k(   11) = (   0.0000000   0.2222222   0.2293548), wk =   0.0329218
        k(   12) = (   0.0000000   0.2222222  -0.3440322), wk =   0.0164609
        k(   13) = (   0.0000000   0.3333333   0.0000000), wk =   0.0164609
        k(   14) = (   0.0000000   0.3333333   0.1146774), wk =   0.0329218
        k(   15) = (   0.0000000   0.3333333   0.2293548), wk =   0.0329218
        k(   16) = (   0.0000000   0.3333333  -0.3440322), wk =   0.0164609
        k(   17) = (   0.0000000   0.4444444   0.0000000), wk =   0.0164609
        k(   18) = (   0.0000000   0.4444444   0.1146774), wk =   0.0329218
        k(   19) = (   0.0000000   0.4444444   0.2293548), wk =   0.0329218
        k(   20) = (   0.0000000   0.4444444  -0.3440322), wk =   0.0164609
        k(   21) = (   0.1111111   0.1111111   0.0000000), wk =   0.0164609
        k(   22) = (   0.1111111   0.1111111   0.1146774), wk =   0.0329218
        k(   23) = (   0.1111111   0.1111111   0.2293548), wk =   0.0329218
        k(   24) = (   0.1111111   0.1111111  -0.3440322), wk =   0.0164609
        k(   25) = (   0.1111111   0.2222222   0.0000000), wk =   0.0329218
        k(   26) = (   0.1111111   0.2222222   0.1146774), wk =   0.0658436
        k(   27) = (   0.1111111   0.2222222   0.2293548), wk =   0.0658436
        k(   28) = (   0.1111111   0.2222222  -0.3440322), wk =   0.0329218
        k(   29) = (   0.1111111   0.3333333   0.0000000), wk =   0.0329218
        k(   30) = (   0.1111111   0.3333333   0.1146774), wk =   0.0658436
        k(   31) = (   0.1111111   0.3333333   0.2293548), wk =   0.0658436
        k(   32) = (   0.1111111   0.3333333  -0.3440322), wk =   0.0329218
        k(   33) = (   0.1111111   0.4444444   0.0000000), wk =   0.0329218
        k(   34) = (   0.1111111   0.4444444   0.1146774), wk =   0.0658436
        k(   35) = (   0.1111111   0.4444444   0.2293548), wk =   0.0658436
        k(   36) = (   0.1111111   0.4444444  -0.3440322), wk =   0.0329218
        k(   37) = (   0.2222222   0.2222222   0.0000000), wk =   0.0164609
        k(   38) = (   0.2222222   0.2222222   0.1146774), wk =   0.0329218
        k(   39) = (   0.2222222   0.2222222   0.2293548), wk =   0.0329218
        k(   40) = (   0.2222222   0.2222222  -0.3440322), wk =   0.0164609
        k(   41) = (   0.2222222   0.3333333   0.0000000), wk =   0.0329218
        k(   42) = (   0.2222222   0.3333333   0.1146774), wk =   0.0658436
        k(   43) = (   0.2222222   0.3333333   0.2293548), wk =   0.0658436
        k(   44) = (   0.2222222   0.3333333  -0.3440322), wk =   0.0329218
        k(   45) = (   0.2222222   0.4444444   0.0000000), wk =   0.0329218
        k(   46) = (   0.2222222   0.4444444   0.1146774), wk =   0.0658436
        k(   47) = (   0.2222222   0.4444444   0.2293548), wk =   0.0658436
        k(   48) = (   0.2222222   0.4444444  -0.3440322), wk =   0.0329218
        k(   49) = (   0.3333333   0.3333333   0.0000000), wk =   0.0164609
        k(   50) = (   0.3333333   0.3333333   0.1146774), wk =   0.0329218
        k(   51) = (   0.3333333   0.3333333   0.2293548), wk =   0.0329218
        k(   52) = (   0.3333333   0.3333333  -0.3440322), wk =   0.0164609
        k(   53) = (   0.3333333   0.4444444   0.0000000), wk =   0.0329218
        k(   54) = (   0.3333333   0.4444444   0.1146774), wk =   0.0658436
        k(   55) = (   0.3333333   0.4444444   0.2293548), wk =   0.0658436
        k(   56) = (   0.3333333   0.4444444  -0.3440322), wk =   0.0329218
        k(   57) = (   0.4444444   0.4444444   0.0000000), wk =   0.0164609
        k(   58) = (   0.4444444   0.4444444   0.1146774), wk =   0.0329218
        k(   59) = (   0.4444444   0.4444444   0.2293548), wk =   0.0329218
        k(   60) = (   0.4444444   0.4444444  -0.3440322), wk =   0.0164609

     Initial potential from superposition of free atoms

     starting charge  183.99828, renormalised to  184.10000
     Starting wfcs are  116 randomized atomic wfcs

     Self-consistent Calculation

     iteration #  1     ecut=   120.00 Ry     beta= 0.70
     Davidson diagonalization with overlap
     ethr =  1.00E-02,  avg # of iterations =  4.3

     total energy              =   -3126.70377313 Ry
     Harris-Foulkes estimate   =   -3132.23823622 Ry
     estimated scf accuracy    <       6.98631670 Ry

[...]

     total energy              =   -3130.42508390 Ry
     Harris-Foulkes estimate   =   -3130.42508392 Ry
     estimated scf accuracy    <       0.00000003 Ry

     iteration # 12     ecut=   120.00 Ry     beta= 0.70
     Davidson diagonalization with overlap
     ethr =  1.39E-11,  avg # of iterations =  2.0

     End of self-consistent calculation

          k = 0.0000 0.0000 0.0000 ( 31479 PWs)   bands (ev):

   -66.3143 -66.3138 -66.3130 -66.3125 -30.6594 -30.6558 -30.6475 -30.6475
   -30.6432 -30.6432 -30.5856 -30.5834 -30.5693 -30.5693 -30.5659 -30.5659
   -20.4789 -20.4788 -20.4788 -20.4787 -20.4689 -20.4689 -20.4689 -20.4689
   -20.4665 -20.4665 -20.4665 -20.4665 -20.4566 -20.4565 -20.4564 -20.4562
   -20.4534 -20.4532 -20.4463 -20.4461 -20.4457 -20.4457 -20.4441 -20.4441
   -20.4433 -20.4433 -20.4417 -20.4417 -10.1321  -9.7153  -9.3357  -9.0648
    -9.0397  -8.9412  -7.8736  -7.8368  -7.8368  -7.8134  -7.8134  -7.7372
     1.0418   1.0442   1.0550   1.2527   1.3963   1.4680   2.3672   2.3672
     2.4352   2.5515   3.9233   3.9233   4.7440   4.7440   4.9443   5.5207
     5.5207   5.7470   5.7470   5.8841   5.8841   5.9149   5.9765   6.5342
     6.5342   6.8018   7.0928   7.1175   7.1175   7.1419   7.1419   7.2006
     8.3183   8.3183   8.3274   8.3374   8.8555   8.8555   9.4461   9.4461
    12.4029  12.4029  13.2438  13.2438  13.4388  13.6508  13.6663  14.0683
    14.0706  14.1338  14.1338  14.6621  15.5400  16.3128

[...]

          k = 0.4444 0.4444-0.3440 ( 31478 PWs)   bands (ev):

   -66.3134 -66.3134 -66.3134 -66.3134 -30.6499 -30.6499 -30.6478 -30.6478
   -30.6214 -30.6214 -30.6209 -30.6209 -30.5658 -30.5658 -30.5636 -30.5636
   -20.4788 -20.4788 -20.4788 -20.4788 -20.4705 -20.4705 -20.4704 -20.4704
   -20.4649 -20.4649 -20.4649 -20.4649 -20.4565 -20.4565 -20.4565 -20.4565
   -20.4499 -20.4499 -20.4499 -20.4499 -20.4450 -20.4450 -20.4449 -20.4449
   -20.4426 -20.4426 -20.4425 -20.4425  -9.4781  -9.4781  -9.4379  -9.4379
    -8.5396  -8.5396  -8.5340  -8.5340  -7.9296  -7.9296  -7.8779  -7.8779
     1.1839   1.1839   1.2952   1.2952   2.9621   2.9621   2.9707   2.9708
     3.2310   3.2310   3.2530   3.2530   4.4406   4.4406   4.6298   4.6298
     5.1852   5.1853   5.3242   5.3242   5.7574   5.7574   5.9207   5.9207
     6.2065   6.2065   6.3397   6.3397   6.6623   6.6623   6.7675   6.7675
     7.5092   7.5092   7.5166   7.5166  11.1077  11.1077  11.1649  11.1649
    12.3115  12.3115  12.4228  12.4228  13.4472  13.4472  13.5451  13.5451
    14.9173  14.9173  15.1109  15.1109  17.7520  17.7522

     the Fermi energy is     9.1952 ev

!    total energy              =   -3130.42508390 Ry
     Harris-Foulkes estimate   =   -3130.42508391 Ry
     estimated scf accuracy    <          1.2E-09 Ry

     The total energy is the sum of the following terms:

     one-electron contribution =   -2385.99743617 Ry
     hartree contribution      =    1310.66806129 Ry
     xc contribution           =    -482.97431552 Ry
     ewald contribution        =   -1572.12136315 Ry
     smearing contrib. (-TS)   =      -0.00003036 Ry

     convergence has been achieved in  12 iterations

     Writing output data file Landau_33.save/

     General routines

     Parallel routines

   This run was terminated on:  22:26:36  21Nov2019

   JOB DONE.