     Program PWSCF v.6.4.1 starts on 21Nov2019 at 22: 9:16

     K-points division:     npool     =      40
     Reading input from scf.in

     Current dimensions of program PWSCF are:
     Max number of different atomic species (ntypx) = 10
     Max number of k-points (npk) =  40000
     Max angular momentum in pseudopotentials (lmaxx) =  3

     Subspace diagonalization in iterative solution of the eigenvalue problem:
     a serial algorithm will be used

     Message from routine setup:
     using ibrav=0 with symmetry is DISCOURAGED, use correct ibrav instead

     bravais-lattice index     =            0
     lattice parameter (alat)  =       9.8055  a.u.
     unit-cell volume          =    1406.2924 (a.u.)^3
     number of atoms/cell      =           16
     number of atomic types    =            2
     number of electrons       =       184.07
     number of Kohn-Sham states=          110
     kinetic-energy cutoff     =     120.0000  Ry
     charge density cutoff     =     480.0000  Ry
     convergence threshold     =      1.0E-08
     mixing beta               =       0.7000
     number of iterations used =            8  plain     mixing
     Exchange-correlation      = SLA PW NOGX NOGC ( 1  4  0  0 0 0)

     celldm(1)=   9.805484  celldm(2)=   0.000000  celldm(3)=   0.000000
     celldm(4)=   0.000000  celldm(5)=   0.000000  celldm(6)=   0.000000

     crystal axes: (cart. coord. in units of alat)
               a(1) = (   1.000000   0.000000   0.000000 )
               a(2) = (   0.000000   1.000000   0.000000 )
               a(3) = (   0.000000   0.000000   1.491656 )

     reciprocal axes: (cart. coord. in units 2 pi/alat)
               b(1) = (  1.000000  0.000000  0.000000 )
               b(2) = (  0.000000  1.000000  0.000000 )
               b(3) = (  0.000000  0.000000  0.670396 )

     PseudoPot. # 1 for W  read from file:
     /cluster/scratch/mnoe/QE/pps/W_ONCV_LDA-4.0.upf
     MD5 check sum: ba0307d5d4cd419d6f1d13dc49d7c13a
     Pseudo is Norm-conserving + core correction, Zval = 28.0
     Generated using ONCVPSP code by D. R. Hamann
     Using radial grid of 1380 points,  8 beta functions with:
                l(1) =   0
                l(2) =   0
                l(3) =   1
                l(4) =   1
                l(5) =   2
                l(6) =   2
                l(7) =   3
                l(8) =   3

     PseudoPot. # 2 for O  read from file:
     /cluster/scratch/mnoe/QE/pps/O_ONCV_LDA-3.0.upf
     MD5 check sum: b55cdb4f45ae2203d24ad12cf8d61a31
     Pseudo is Norm-conserving + core correction, Zval =  6.0
     Generated using ONCVPSP code by D. R. Hamann
     Using radial grid of  926 points,  5 beta functions with:
                l(1) =   0
                l(2) =   0
                l(3) =   1
                l(4) =   1
                l(5) =   2

     atomic species   valence    mass     pseudopotential
        W             28.00   183.84000     W ( 1.00)
        O              6.00    15.99940     O ( 1.00)

     16 Sym. Ops., with inversion, found (14 have fractional translation)

   Cartesian axes

     site n.     atom                  positions (alat units)
         1           W   tau(   1) = (   0.2500000   0.2500000   0.3243471  )
         2           W   tau(   2) = (   0.7500000   0.7500000   1.1673085  )
         3           W   tau(   3) = (   0.7500000   0.7500000   0.4214807  )
         4           W   tau(   4) = (   0.2500000   0.2500000   1.0701749  )
         5           O   tau(   5) = (   0.2500000   0.2500000   0.7314857  )
         6           O   tau(   6) = (   0.7500000   0.7500000   0.7601699  )
         7           O   tau(   7) = (   0.7500000   0.7500000   0.0143422  )
         8           O   tau(   8) = (   0.2500000   0.2500000   1.4773135  )
         9           O   tau(   9) = (   0.4529208   0.5470792   0.3729139  )
        10           O   tau(  10) = (   0.5470792   0.4529208   1.1187417  )
        11           O   tau(  11) = (   0.0470792   0.9529208   0.3729139  )
        12           O   tau(  12) = (   0.9529208   0.0470792   1.1187417  )
        13           O   tau(  13) = (   0.9529208   0.4529208   0.3729139  )
        14           O   tau(  14) = (   0.0470792   0.5470792   1.1187417  )
        15           O   tau(  15) = (   0.5470792   0.0470792   0.3729139  )
        16           O   tau(  16) = (   0.4529208   0.9529208   1.1187417  )

     number of k points=    60  gaussian smearing, width (Ry)=  0.0007
                       cart. coord. in units 2pi/alat
        k(    1) = (   0.0000000   0.0000000   0.0000000), wk =   0.0041152
        k(    2) = (   0.0000000   0.0000000   0.1117327), wk =   0.0082305
        k(    3) = (   0.0000000   0.0000000   0.2234653), wk =   0.0082305
        k(    4) = (   0.0000000   0.0000000  -0.3351980), wk =   0.0041152
        k(    5) = (   0.0000000   0.1111111   0.0000000), wk =   0.0164609
        k(    6) = (   0.0000000   0.1111111   0.1117327), wk =   0.0329218
        k(    7) = (   0.0000000   0.1111111   0.2234653), wk =   0.0329218
        k(    8) = (   0.0000000   0.1111111  -0.3351980), wk =   0.0164609
        k(    9) = (   0.0000000   0.2222222   0.0000000), wk =   0.0164609
        k(   10) = (   0.0000000   0.2222222   0.1117327), wk =   0.0329218
        k(   11) = (   0.0000000   0.2222222   0.2234653), wk =   0.0329218
        k(   12) = (   0.0000000   0.2222222  -0.3351980), wk =   0.0164609
        k(   13) = (   0.0000000   0.3333333   0.0000000), wk =   0.0164609
        k(   14) = (   0.0000000   0.3333333   0.1117327), wk =   0.0329218
        k(   15) = (   0.0000000   0.3333333   0.2234653), wk =   0.0329218
        k(   16) = (   0.0000000   0.3333333  -0.3351980), wk =   0.0164609
        k(   17) = (   0.0000000   0.4444444   0.0000000), wk =   0.0164609
        k(   18) = (   0.0000000   0.4444444   0.1117327), wk =   0.0329218
        k(   19) = (   0.0000000   0.4444444   0.2234653), wk =   0.0329218
        k(   20) = (   0.0000000   0.4444444  -0.3351980), wk =   0.0164609
        k(   21) = (   0.1111111   0.1111111   0.0000000), wk =   0.0164609
        k(   22) = (   0.1111111   0.1111111   0.1117327), wk =   0.0329218
        k(   23) = (   0.1111111   0.1111111   0.2234653), wk =   0.0329218
        k(   24) = (   0.1111111   0.1111111  -0.3351980), wk =   0.0164609
        k(   25) = (   0.1111111   0.2222222   0.0000000), wk =   0.0329218
        k(   26) = (   0.1111111   0.2222222   0.1117327), wk =   0.0658436
        k(   27) = (   0.1111111   0.2222222   0.2234653), wk =   0.0658436
        k(   28) = (   0.1111111   0.2222222  -0.3351980), wk =   0.0329218
        k(   29) = (   0.1111111   0.3333333   0.0000000), wk =   0.0329218
        k(   30) = (   0.1111111   0.3333333   0.1117327), wk =   0.0658436
        k(   31) = (   0.1111111   0.3333333   0.2234653), wk =   0.0658436
        k(   32) = (   0.1111111   0.3333333  -0.3351980), wk =   0.0329218
        k(   33) = (   0.1111111   0.4444444   0.0000000), wk =   0.0329218
        k(   34) = (   0.1111111   0.4444444   0.1117327), wk =   0.0658436
        k(   35) = (   0.1111111   0.4444444   0.2234653), wk =   0.0658436
        k(   36) = (   0.1111111   0.4444444  -0.3351980), wk =   0.0329218
        k(   37) = (   0.2222222   0.2222222   0.0000000), wk =   0.0164609
        k(   38) = (   0.2222222   0.2222222   0.1117327), wk =   0.0329218
        k(   39) = (   0.2222222   0.2222222   0.2234653), wk =   0.0329218
        k(   40) = (   0.2222222   0.2222222  -0.3351980), wk =   0.0164609
        k(   41) = (   0.2222222   0.3333333   0.0000000), wk =   0.0329218
        k(   42) = (   0.2222222   0.3333333   0.1117327), wk =   0.0658436
        k(   43) = (   0.2222222   0.3333333   0.2234653), wk =   0.0658436
        k(   44) = (   0.2222222   0.3333333  -0.3351980), wk =   0.0329218
        k(   45) = (   0.2222222   0.4444444   0.0000000), wk =   0.0329218
        k(   46) = (   0.2222222   0.4444444   0.1117327), wk =   0.0658436
        k(   47) = (   0.2222222   0.4444444   0.2234653), wk =   0.0658436
        k(   48) = (   0.2222222   0.4444444  -0.3351980), wk =   0.0329218
        k(   49) = (   0.3333333   0.3333333   0.0000000), wk =   0.0164609
        k(   50) = (   0.3333333   0.3333333   0.1117327), wk =   0.0329218
        k(   51) = (   0.3333333   0.3333333   0.2234653), wk =   0.0329218
        k(   52) = (   0.3333333   0.3333333  -0.3351980), wk =   0.0164609
        k(   53) = (   0.3333333   0.4444444   0.0000000), wk =   0.0329218
        k(   54) = (   0.3333333   0.4444444   0.1117327), wk =   0.0658436
        k(   55) = (   0.3333333   0.4444444   0.2234653), wk =   0.0658436
        k(   56) = (   0.3333333   0.4444444  -0.3351980), wk =   0.0329218
        k(   57) = (   0.4444444   0.4444444   0.0000000), wk =   0.0164609
        k(   58) = (   0.4444444   0.4444444   0.1117327), wk =   0.0329218
        k(   59) = (   0.4444444   0.4444444   0.2234653), wk =   0.0329218
        k(   60) = (   0.4444444   0.4444444  -0.3351980), wk =   0.0164609

     Initial potential from superposition of free atoms

     starting charge  183.99828, renormalised to  184.07500
     Starting wfcs are  116 randomized atomic wfcs

     Self-consistent Calculation

     iteration #  1     ecut=   120.00 Ry     beta= 0.70
     Davidson diagonalization with overlap
     ethr =  1.00E-02,  avg # of iterations =  4.4

     total energy              =   -3126.91377115 Ry
     Harris-Foulkes estimate   =   -3132.25629524 Ry
     estimated scf accuracy    <       6.75574073 Ry

[...]

     total energy              =   -3130.50325143 Ry
     Harris-Foulkes estimate   =   -3130.50325145 Ry
     estimated scf accuracy    <       0.00000003 Ry

     iteration # 12     ecut=   120.00 Ry     beta= 0.70
     Davidson diagonalization with overlap
     ethr =  1.88E-11,  avg # of iterations =  2.0

     End of self-consistent calculation

          k = 0.0000 0.0000 0.0000 ( 31191 PWs)   bands (ev):

   -66.1855 -66.1851 -66.1836 -66.1832 -30.5876 -30.5814 -30.5273 -30.5233
   -30.5233 -30.5223 -30.5200 -30.5200 -30.4296 -30.4296 -30.4269 -30.4269
   -20.3430 -20.3429 -20.3428 -20.3428 -20.3300 -20.3296 -20.3244 -20.3239
   -20.3206 -20.3206 -20.3203 -20.3203 -20.3190 -20.3190 -20.3186 -20.3186
   -20.3129 -20.3128 -20.3122 -20.3122 -20.3092 -20.3092 -20.3091 -20.3091
   -20.3025 -20.3025 -20.3022 -20.3022  -9.9839  -9.6965  -9.1248  -9.0754
    -9.0622  -8.9128  -7.8883  -7.7778  -7.6670  -7.6670  -7.6456  -7.6456
     1.1479   1.1483   1.3167   1.5788   1.5849   1.7919   2.3801   2.4573
     2.6730   2.6730   4.1023   4.1023   4.9769   4.9769   5.0289   5.4944
     5.4944   5.5061   5.5061   5.7778   5.7778   5.9128   5.9323   6.7510
     6.7510   6.8498   7.0037   7.0043   7.3359   7.3359   7.3758   7.3758
     7.8312   7.8439   8.0570   8.0570   9.1795   9.1855   9.9608   9.9608
    12.2780  12.2780  12.9182  12.9201  13.3742  13.3742  13.7271  14.1394
    14.1394  14.8441  15.2989  15.3092  15.4494  16.7527

[...]

          k = 0.4444 0.4444-0.3352 ( 31250 PWs)   bands (ev):

   -66.1844 -66.1843 -66.1843 -66.1843 -30.5549 -30.5549 -30.5549 -30.5549
   -30.5267 -30.5267 -30.5237 -30.5237 -30.4268 -30.4268 -30.4240 -30.4240
   -20.3429 -20.3429 -20.3429 -20.3429 -20.3271 -20.3271 -20.3271 -20.3271
   -20.3204 -20.3204 -20.3203 -20.3203 -20.3189 -20.3189 -20.3188 -20.3188
   -20.3126 -20.3126 -20.3126 -20.3126 -20.3101 -20.3101 -20.3098 -20.3098
   -20.3017 -20.3017 -20.3015 -20.3015  -9.3652  -9.3652  -9.3203  -9.3203
    -8.4838  -8.4838  -8.4784  -8.4784  -7.8482  -7.8482  -7.7884  -7.7884
     1.2557   1.2557   1.3692   1.3692   3.1569   3.1569   3.1629   3.1629
     3.4142   3.4142   3.4392   3.4392   4.6018   4.6019   4.8319   4.8319
     5.2002   5.2002   5.2899   5.2899   5.8881   5.8881   6.0507   6.0507
     6.0980   6.0980   6.2472   6.2473   6.7070   6.7070   6.7989   6.7989
     7.4262   7.4262   7.4362   7.4362  11.2817  11.2817  11.3397  11.3397
    12.2469  12.2469  12.3127  12.3127  13.4733  13.4733  13.5568  13.5568
    15.5624  15.5624  15.6975  15.6975  18.0192  18.0192

     the Fermi energy is     9.4912 ev

!    total energy              =   -3130.50325143 Ry
     Harris-Foulkes estimate   =   -3130.50325143 Ry
     estimated scf accuracy    <          2.2E-09 Ry

     The total energy is the sum of the following terms:

     one-electron contribution =   -2366.66337513 Ry
     hartree contribution      =    1301.61335521 Ry
     xc contribution           =    -482.91945250 Ry
     ewald contribution        =   -1582.53376779 Ry
     smearing contrib. (-TS)   =      -0.00001122 Ry

     convergence has been achieved in  12 iterations

     Writing output data file Landau_2.save/

     General routines

     Parallel routines

   This run was terminated on:  22:13: 0  21Nov2019

   JOB DONE.