     Program PWSCF v.6.4.1 starts on 21Nov2019 at 22: 9:16

     K-points division:     npool     =      40
     Reading input from scf.in

     Current dimensions of program PWSCF are:
     Max number of different atomic species (ntypx) = 10
     Max number of k-points (npk) =  40000
     Max angular momentum in pseudopotentials (lmaxx) =  3

     Subspace diagonalization in iterative solution of the eigenvalue problem:
     a serial algorithm will be used

     Message from routine setup:
     using ibrav=0 with symmetry is DISCOURAGED, use correct ibrav instead

     bravais-lattice index     =            0
     lattice parameter (alat)  =       9.9201  a.u.
     unit-cell volume          =    1418.9390 (a.u.)^3
     number of atoms/cell      =           16
     number of atomic types    =            2
     number of electrons       =       184.05
     number of Kohn-Sham states=          110
     kinetic-energy cutoff     =     120.0000  Ry
     charge density cutoff     =     480.0000  Ry
     convergence threshold     =      1.0E-08
     mixing beta               =       0.7000
     number of iterations used =            8  plain     mixing
     Exchange-correlation      = SLA PW NOGX NOGC ( 1  4  0  0 0 0)

     celldm(1)=   9.920085  celldm(2)=   0.000000  celldm(3)=   0.000000
     celldm(4)=   0.000000  celldm(5)=   0.000000  celldm(6)=   0.000000

     crystal axes: (cart. coord. in units of alat)
               a(1) = (   1.000000   0.000000   0.000000 )
               a(2) = (   0.000000   1.000000   0.000000 )
               a(3) = (   0.000000   0.000000   1.453509 )

     reciprocal axes: (cart. coord. in units 2 pi/alat)
               b(1) = (  1.000000  0.000000  0.000000 )
               b(2) = (  0.000000  1.000000  0.000000 )
               b(3) = (  0.000000  0.000000  0.687990 )

     PseudoPot. # 1 for W  read from file:
     /cluster/scratch/mnoe/QE/pps/W_ONCV_LDA-4.0.upf
     MD5 check sum: ba0307d5d4cd419d6f1d13dc49d7c13a
     Pseudo is Norm-conserving + core correction, Zval = 28.0
     Generated using ONCVPSP code by D. R. Hamann
     Using radial grid of 1380 points,  8 beta functions with:
                l(1) =   0
                l(2) =   0
                l(3) =   1
                l(4) =   1
                l(5) =   2
                l(6) =   2
                l(7) =   3
                l(8) =   3

     PseudoPot. # 2 for O  read from file:
     /cluster/scratch/mnoe/QE/pps/O_ONCV_LDA-3.0.upf
     MD5 check sum: b55cdb4f45ae2203d24ad12cf8d61a31
     Pseudo is Norm-conserving + core correction, Zval =  6.0
     Generated using ONCVPSP code by D. R. Hamann
     Using radial grid of  926 points,  5 beta functions with:
                l(1) =   0
                l(2) =   0
                l(3) =   1
                l(4) =   1
                l(5) =   2

     atomic species   valence    mass     pseudopotential
        W             28.00   183.84000     W ( 1.00)
        O              6.00    15.99940     O ( 1.00)

     16 Sym. Ops., with inversion, found (14 have fractional translation)

   Cartesian axes

     site n.     atom                  positions (alat units)
         1           W   tau(   1) = (   0.2500000   0.2500000   0.3017420  )
         2           W   tau(   2) = (   0.7500000   0.7500000   1.1517666  )
         3           W   tau(   3) = (   0.7500000   0.7500000   0.4250123  )
         4           W   tau(   4) = (   0.2500000   0.2500000   1.0284963  )
         5           O   tau(   5) = (   0.2500000   0.2500000   0.6856978  )
         6           O   tau(   6) = (   0.7500000   0.7500000   0.7678108  )
         7           O   tau(   7) = (   0.7500000   0.7500000   0.0410565  )
         8           O   tau(   8) = (   0.2500000   0.2500000   1.4124521  )
         9           O   tau(   9) = (   0.5038278   0.4961722   0.3633771  )
        10           O   tau(  10) = (   0.4961722   0.5038278   1.0901314  )
        11           O   tau(  11) = (  -0.0038278   1.0038278   0.3633771  )
        12           O   tau(  12) = (   1.0038277  -0.0038278   1.0901314  )
        13           O   tau(  13) = (   1.0038278   0.5038278   0.3633771  )
        14           O   tau(  14) = (  -0.0038278   0.4961722   1.0901314  )
        15           O   tau(  15) = (   0.4961722  -0.0038278   0.3633771  )
        16           O   tau(  16) = (   0.5038278   1.0038277   1.0901314  )

     number of k points=    60  gaussian smearing, width (Ry)=  0.0007
                       cart. coord. in units 2pi/alat
        k(    1) = (   0.0000000   0.0000000   0.0000000), wk =   0.0041152
        k(    2) = (   0.0000000   0.0000000   0.1146651), wk =   0.0082305
        k(    3) = (   0.0000000   0.0000000   0.2293301), wk =   0.0082305
        k(    4) = (   0.0000000   0.0000000  -0.3439952), wk =   0.0041152
        k(    5) = (   0.0000000   0.1111111   0.0000000), wk =   0.0164609
        k(    6) = (   0.0000000   0.1111111   0.1146651), wk =   0.0329218
        k(    7) = (   0.0000000   0.1111111   0.2293301), wk =   0.0329218
        k(    8) = (   0.0000000   0.1111111  -0.3439952), wk =   0.0164609
        k(    9) = (   0.0000000   0.2222222   0.0000000), wk =   0.0164609
        k(   10) = (   0.0000000   0.2222222   0.1146651), wk =   0.0329218
        k(   11) = (   0.0000000   0.2222222   0.2293301), wk =   0.0329218
        k(   12) = (   0.0000000   0.2222222  -0.3439952), wk =   0.0164609
        k(   13) = (   0.0000000   0.3333333   0.0000000), wk =   0.0164609
        k(   14) = (   0.0000000   0.3333333   0.1146651), wk =   0.0329218
        k(   15) = (   0.0000000   0.3333333   0.2293301), wk =   0.0329218
        k(   16) = (   0.0000000   0.3333333  -0.3439952), wk =   0.0164609
        k(   17) = (   0.0000000   0.4444444   0.0000000), wk =   0.0164609
        k(   18) = (   0.0000000   0.4444444   0.1146651), wk =   0.0329218
        k(   19) = (   0.0000000   0.4444444   0.2293301), wk =   0.0329218
        k(   20) = (   0.0000000   0.4444444  -0.3439952), wk =   0.0164609
        k(   21) = (   0.1111111   0.1111111   0.0000000), wk =   0.0164609
        k(   22) = (   0.1111111   0.1111111   0.1146651), wk =   0.0329218
        k(   23) = (   0.1111111   0.1111111   0.2293301), wk =   0.0329218
        k(   24) = (   0.1111111   0.1111111  -0.3439952), wk =   0.0164609
        k(   25) = (   0.1111111   0.2222222   0.0000000), wk =   0.0329218
        k(   26) = (   0.1111111   0.2222222   0.1146651), wk =   0.0658436
        k(   27) = (   0.1111111   0.2222222   0.2293301), wk =   0.0658436
        k(   28) = (   0.1111111   0.2222222  -0.3439952), wk =   0.0329218
        k(   29) = (   0.1111111   0.3333333   0.0000000), wk =   0.0329218
        k(   30) = (   0.1111111   0.3333333   0.1146651), wk =   0.0658436
        k(   31) = (   0.1111111   0.3333333   0.2293301), wk =   0.0658436
        k(   32) = (   0.1111111   0.3333333  -0.3439952), wk =   0.0329218
        k(   33) = (   0.1111111   0.4444444   0.0000000), wk =   0.0329218
        k(   34) = (   0.1111111   0.4444444   0.1146651), wk =   0.0658436
        k(   35) = (   0.1111111   0.4444444   0.2293301), wk =   0.0658436
        k(   36) = (   0.1111111   0.4444444  -0.3439952), wk =   0.0329218
        k(   37) = (   0.2222222   0.2222222   0.0000000), wk =   0.0164609
        k(   38) = (   0.2222222   0.2222222   0.1146651), wk =   0.0329218
        k(   39) = (   0.2222222   0.2222222   0.2293301), wk =   0.0329218
        k(   40) = (   0.2222222   0.2222222  -0.3439952), wk =   0.0164609
        k(   41) = (   0.2222222   0.3333333   0.0000000), wk =   0.0329218
        k(   42) = (   0.2222222   0.3333333   0.1146651), wk =   0.0658436
        k(   43) = (   0.2222222   0.3333333   0.2293301), wk =   0.0658436
        k(   44) = (   0.2222222   0.3333333  -0.3439952), wk =   0.0329218
        k(   45) = (   0.2222222   0.4444444   0.0000000), wk =   0.0329218
        k(   46) = (   0.2222222   0.4444444   0.1146651), wk =   0.0658436
        k(   47) = (   0.2222222   0.4444444   0.2293301), wk =   0.0658436
        k(   48) = (   0.2222222   0.4444444  -0.3439952), wk =   0.0329218
        k(   49) = (   0.3333333   0.3333333   0.0000000), wk =   0.0164609
        k(   50) = (   0.3333333   0.3333333   0.1146651), wk =   0.0329218
        k(   51) = (   0.3333333   0.3333333   0.2293301), wk =   0.0329218
        k(   52) = (   0.3333333   0.3333333  -0.3439952), wk =   0.0164609
        k(   53) = (   0.3333333   0.4444444   0.0000000), wk =   0.0329218
        k(   54) = (   0.3333333   0.4444444   0.1146651), wk =   0.0658436
        k(   55) = (   0.3333333   0.4444444   0.2293301), wk =   0.0658436
        k(   56) = (   0.3333333   0.4444444  -0.3439952), wk =   0.0329218
        k(   57) = (   0.4444444   0.4444444   0.0000000), wk =   0.0164609
        k(   58) = (   0.4444444   0.4444444   0.1146651), wk =   0.0329218
        k(   59) = (   0.4444444   0.4444444   0.2293301), wk =   0.0329218
        k(   60) = (   0.4444444   0.4444444  -0.3439952), wk =   0.0164609

     Initial potential from superposition of free atoms

     starting charge  183.99828, renormalised to  184.05000
     Starting wfcs are  116 randomized atomic wfcs

     Self-consistent Calculation

     iteration #  1     ecut=   120.00 Ry     beta= 0.70
     Davidson diagonalization with overlap
     ethr =  1.00E-02,  avg # of iterations =  4.4

     total energy              =   -3126.76352966 Ry
     Harris-Foulkes estimate   =   -3132.26670154 Ry
     estimated scf accuracy    <       6.95356473 Ry

[...]

     total energy              =   -3130.46541770 Ry
     Harris-Foulkes estimate   =   -3130.46541771 Ry
     estimated scf accuracy    <       0.00000003 Ry

     iteration # 12     ecut=   120.00 Ry     beta= 0.70
     Davidson diagonalization with overlap
     ethr =  1.43E-11,  avg # of iterations =  2.0

     End of self-consistent calculation

          k = 0.0000 0.0000 0.0000 ( 31511 PWs)   bands (ev):

   -66.3660 -66.3655 -66.3647 -66.3642 -30.7063 -30.7025 -30.7000 -30.7000
   -30.6958 -30.6958 -30.6334 -30.6309 -30.6221 -30.6221 -30.6187 -30.6187
   -20.5321 -20.5320 -20.5320 -20.5319 -20.5244 -20.5244 -20.5244 -20.5244
   -20.5221 -20.5221 -20.5221 -20.5221 -20.5075 -20.5074 -20.5074 -20.5072
   -20.5039 -20.5037 -20.4969 -20.4967 -20.4964 -20.4964 -20.4949 -20.4949
   -20.4939 -20.4939 -20.4924 -20.4924 -10.1602  -9.7537  -9.3622  -9.1086
    -9.0837  -8.9816  -7.9110  -7.8730  -7.8730  -7.8493  -7.8493  -7.7783
     0.9907   0.9925   1.0264   1.2287   1.3452   1.4266   2.3436   2.3436
     2.3981   2.5133   3.9069   3.9069   4.6994   4.6994   4.9119   5.4822
     5.4822   5.6831   5.6831   5.8362   5.8362   5.8776   5.9369   6.5048
     6.5048   6.7637   7.0548   7.0760   7.0760   7.0979   7.0979   7.1495
     8.2701   8.2701   8.2939   8.3046   8.8042   8.8067   9.4113   9.4113
    12.3624  12.3624  13.2046  13.2046  13.4081  13.6780  13.6960  13.9669
    13.9726  14.0932  14.0932  14.6244  15.4943  16.2878

[...]

          k = 0.4444 0.4444-0.3440 ( 31520 PWs)   bands (ev):

   -66.3651 -66.3651 -66.3651 -66.3651 -30.7025 -30.7025 -30.7004 -30.7004
   -30.6686 -30.6686 -30.6682 -30.6682 -30.6186 -30.6186 -30.6163 -30.6163
   -20.5320 -20.5320 -20.5320 -20.5320 -20.5260 -20.5260 -20.5259 -20.5259
   -20.5205 -20.5205 -20.5204 -20.5204 -20.5074 -20.5074 -20.5074 -20.5074
   -20.5004 -20.5004 -20.5004 -20.5004 -20.4957 -20.4957 -20.4956 -20.4956
   -20.4932 -20.4932 -20.4932 -20.4932  -9.5156  -9.5156  -9.4753  -9.4753
    -8.5769  -8.5769  -8.5713  -8.5713  -7.9647  -7.9647  -7.9126  -7.9126
     1.1339   1.1339   1.2460   1.2460   2.9369   2.9369   2.9450   2.9450
     3.2008   3.2008   3.2232   3.2232   4.3961   4.3961   4.5836   4.5836
     5.1453   5.1453   5.2833   5.2833   5.7191   5.7191   5.8828   5.8828
     6.1655   6.1655   6.2990   6.2990   6.6204   6.6204   6.7243   6.7243
     7.4633   7.4633   7.4709   7.4709  11.0711  11.0711  11.1284  11.1284
    12.2765  12.2765  12.3891  12.3891  13.4077  13.4077  13.5058  13.5058
    14.8803  14.8803  15.0754  15.0754  17.7207  17.7210

     the Fermi energy is     9.1319 ev

!    total energy              =   -3130.46541770 Ry
     Harris-Foulkes estimate   =   -3130.46541770 Ry
     estimated scf accuracy    <          1.4E-09 Ry

     The total energy is the sum of the following terms:

     one-electron contribution =   -2389.50413604 Ry
     hartree contribution      =    1312.06232666 Ry
     xc contribution           =    -482.91912157 Ry
     ewald contribution        =   -1570.10448580 Ry
     smearing contrib. (-TS)   =      -0.00000095 Ry

     convergence has been achieved in  12 iterations

     Writing output data file Landau_31.save/

     General routines

     Parallel routines

   This run was terminated on:  22:15:32  21Nov2019

   JOB DONE.