     Program PWSCF v.6.2 (svn rev. 14038) starts on 21Mar2020 at 21:31: 7

     K-points division:     npool     =      40
     Reading input from scf.in

     Current dimensions of program PWSCF are:
     Max number of different atomic species (ntypx) = 10
     Max number of k-points (npk) =  40000
     Max angular momentum in pseudopotentials (lmaxx) =  3

     Subspace diagonalization in iterative solution of the eigenvalue problem:
     a serial algorithm will be used

     bravais-lattice index     =            0
     lattice parameter (alat)  =      13.8593  a.u.
     unit-cell volume          =    2805.8401 (a.u.)^3
     number of atoms/cell      =           32
     number of atomic types    =            2
     number of electrons       =       369.00
     number of Kohn-Sham states=          222
     kinetic-energy cutoff     =     120.0000  Ry
     charge density cutoff     =     480.0000  Ry
     convergence threshold     =      1.0E-08
     mixing beta               =       0.7000
     number of iterations used =            8  plain     mixing
     Exchange-correlation      = SLA PW NOGX NOGC ( 1  4  0  0 0 0)

     celldm(1)=  13.859318  celldm(2)=   0.000000  celldm(3)=   0.000000
     celldm(4)=   0.000000  celldm(5)=   0.000000  celldm(6)=   0.000000

     crystal axes: (cart. coord. in units of alat)
               a(1) = (   1.000000   0.000000   0.000000 )
               a(2) = (   0.000000   1.052965   0.000000 )
               a(3) = (   0.000000   0.000000   1.000976 )

     reciprocal axes: (cart. coord. in units 2 pi/alat)
               b(1) = (  1.000000  0.000000  0.000000 )
               b(2) = (  0.000000  0.949699  0.000000 )
               b(3) = (  0.000000  0.000000  0.999025 )

     PseudoPot. # 1 for W  read from file:
     /cluster/scratch/mnoe/QE/pps/W_ONCV_LDA-4.0.upf
     MD5 check sum: ba0307d5d4cd419d6f1d13dc49d7c13a
     Pseudo is Norm-conserving + core correction, Zval = 28.0
     Generated using ONCVPSP code by D. R. Hamann
     Using radial grid of 1380 points,  8 beta functions with:
                l(1) =   0
                l(2) =   0
                l(3) =   1
                l(4) =   1
                l(5) =   2
                l(6) =   2
                l(7) =   3
                l(8) =   3

     PseudoPot. # 2 for O  read from file:
     /cluster/scratch/mnoe/QE/pps/O_ONCV_LDA-3.0.upf
     MD5 check sum: a1bd6164e7280c17a38c229939bfbd54
     Pseudo is Norm-conserving + core correction, Zval =  6.0
     Generated using ONCVPSP code by D. R. Hamann
     Using radial grid of  926 points,  5 beta functions with:
                l(1) =   0
                l(2) =   0
                l(3) =   1
                l(4) =   1
                l(5) =   2

     atomic species   valence    mass     pseudopotential
        W             28.00   183.84000     W ( 1.00)
        O              6.00    15.99940     O ( 1.00)

      8 Sym. Ops., with inversion, found ( 6 have fractional translation)

   Cartesian axes

     site n.     atom                  positions (alat units)
         1           W   tau(   1) = (   0.2435300   0.2960586   0.0061260  )
         2           W   tau(   2) = (   0.7564700   0.7569061   0.9948497  )
         3           W   tau(   3) = (   0.2564700   0.2304238   0.5066138  )
         4           W   tau(   4) = (   0.7435300   0.8225409   0.4943619  )
         5           W   tau(   5) = (   0.7564700   0.2960586   0.4943619  )
         6           W   tau(   6) = (   0.2435300   0.7569061   0.5066138  )
         7           W   tau(   7) = (   0.7435300   0.2304238   0.9948497  )
         8           W   tau(   8) = (   0.2564700   0.8225409   0.0061260  )
         9           O   tau(   9) = (   0.2380600   0.0085618   0.0019019  )
        10           O   tau(  10) = (   0.7619400   1.0444029   0.9990738  )
        11           O   tau(  11) = (   0.2619400   0.5179206   0.5023897  )
        12           O   tau(  12) = (   0.7380600   0.5350441   0.4985860  )
        13           O   tau(  13) = (   0.7619400   0.0085618   0.4985860  )
        14           O   tau(  14) = (   0.2380600   1.0444029   0.5023897  )
        15           O   tau(  15) = (   0.7380600   0.5179206   0.9990738  )
        16           O   tau(  16) = (   0.2619400   0.5350441   0.0019019  )
        17           O   tau(  17) = (   0.5017700   0.2503423   0.4516756  )
        18           O   tau(  18) = (   0.4982300   0.8026224   0.5493001  )
        19           O   tau(  19) = (   0.9982300   0.2761400   0.9521635  )
        20           O   tau(  20) = (   0.0017700   0.7768247   0.0488122  )
        21           O   tau(  21) = (   0.4982300   0.2503423   0.0488122  )
        22           O   tau(  22) = (   0.5017700   0.8026224   0.9521635  )
        23           O   tau(  23) = (   0.0017700   0.2761400   0.5493001  )
        24           O   tau(  24) = (   0.9982300   0.7768247   0.4516756  )
        25           O   tau(  25) = (   0.7012354   0.2604192   0.7480491  )
        26           O   tau(  26) = (   0.2987647   0.7925455   0.2529265  )
        27           O   tau(  27) = (   0.7987646   0.2660631   0.2475612  )
        28           O   tau(  28) = (   0.2012354   0.7869016   0.7534144  )
        29           O   tau(  29) = (   0.2987647   0.2604192   0.7534144  )
        30           O   tau(  30) = (   0.7012354   0.7925455   0.2475612  )
        31           O   tau(  31) = (   0.2012354   0.2660631   0.2529265  )
        32           O   tau(  32) = (   0.7987646   0.7869016   0.7480491  )

     number of k points=    64  gaussian smearing, width (Ry)=  0.0007
                       cart. coord. in units 2pi/alat
        k(    1) = (   0.0000000   0.0000000   0.0000000), wk =   0.0092593
        k(    2) = (   0.0000000   0.0000000   0.1665042), wk =   0.0185185
        k(    3) = (   0.0000000   0.0000000   0.3330084), wk =   0.0185185
        k(    4) = (   0.0000000   0.0000000  -0.4995126), wk =   0.0092593
        k(    5) = (   0.0000000   0.1582832   0.0000000), wk =   0.0185185
        k(    6) = (   0.0000000   0.1582832   0.1665042), wk =   0.0370370
        k(    7) = (   0.0000000   0.1582832   0.3330084), wk =   0.0370370
        k(    8) = (   0.0000000   0.1582832  -0.4995126), wk =   0.0185185
        k(    9) = (   0.0000000   0.3165665   0.0000000), wk =   0.0185185
        k(   10) = (   0.0000000   0.3165665   0.1665042), wk =   0.0370370
        k(   11) = (   0.0000000   0.3165665   0.3330084), wk =   0.0370370
        k(   12) = (   0.0000000   0.3165665  -0.4995126), wk =   0.0185185
        k(   13) = (   0.0000000  -0.4748497   0.0000000), wk =   0.0092593
        k(   14) = (   0.0000000  -0.4748497   0.1665042), wk =   0.0185185
        k(   15) = (   0.0000000  -0.4748497   0.3330084), wk =   0.0185185
        k(   16) = (   0.0000000  -0.4748497  -0.4995126), wk =   0.0092593
        k(   17) = (   0.1666667   0.0000000   0.0000000), wk =   0.0185185
        k(   18) = (   0.1666667   0.0000000   0.1665042), wk =   0.0370370
        k(   19) = (   0.1666667   0.0000000   0.3330084), wk =   0.0370370
        k(   20) = (   0.1666667   0.0000000  -0.4995126), wk =   0.0185185
        k(   21) = (   0.1666667   0.1582832   0.0000000), wk =   0.0370370
        k(   22) = (   0.1666667   0.1582832   0.1665042), wk =   0.0740741
        k(   23) = (   0.1666667   0.1582832   0.3330084), wk =   0.0740741
        k(   24) = (   0.1666667   0.1582832  -0.4995126), wk =   0.0370370
        k(   25) = (   0.1666667   0.3165665   0.0000000), wk =   0.0370370
        k(   26) = (   0.1666667   0.3165665   0.1665042), wk =   0.0740741
        k(   27) = (   0.1666667   0.3165665   0.3330084), wk =   0.0740741
        k(   28) = (   0.1666667   0.3165665  -0.4995126), wk =   0.0370370
        k(   29) = (   0.1666667  -0.4748497   0.0000000), wk =   0.0185185
        k(   30) = (   0.1666667  -0.4748497   0.1665042), wk =   0.0370370
        k(   31) = (   0.1666667  -0.4748497   0.3330084), wk =   0.0370370
        k(   32) = (   0.1666667  -0.4748497  -0.4995126), wk =   0.0185185
        k(   33) = (   0.3333333   0.0000000   0.0000000), wk =   0.0185185
        k(   34) = (   0.3333333   0.0000000   0.1665042), wk =   0.0370370
        k(   35) = (   0.3333333   0.0000000   0.3330084), wk =   0.0370370
        k(   36) = (   0.3333333   0.0000000  -0.4995126), wk =   0.0185185
        k(   37) = (   0.3333333   0.1582832   0.0000000), wk =   0.0370370
        k(   38) = (   0.3333333   0.1582832   0.1665042), wk =   0.0740741
        k(   39) = (   0.3333333   0.1582832   0.3330084), wk =   0.0740741
        k(   40) = (   0.3333333   0.1582832  -0.4995126), wk =   0.0370370
        k(   41) = (   0.3333333   0.3165665   0.0000000), wk =   0.0370370
        k(   42) = (   0.3333333   0.3165665   0.1665042), wk =   0.0740741
        k(   43) = (   0.3333333   0.3165665   0.3330084), wk =   0.0740741
        k(   44) = (   0.3333333   0.3165665  -0.4995126), wk =   0.0370370
        k(   45) = (   0.3333333  -0.4748497   0.0000000), wk =   0.0185185
        k(   46) = (   0.3333333  -0.4748497   0.1665042), wk =   0.0370370
        k(   47) = (   0.3333333  -0.4748497   0.3330084), wk =   0.0370370
        k(   48) = (   0.3333333  -0.4748497  -0.4995126), wk =   0.0185185
        k(   49) = (  -0.5000000   0.0000000   0.0000000), wk =   0.0092593
        k(   50) = (  -0.5000000   0.0000000   0.1665042), wk =   0.0185185
        k(   51) = (  -0.5000000   0.0000000   0.3330084), wk =   0.0185185
        k(   52) = (  -0.5000000   0.0000000  -0.4995126), wk =   0.0092593
        k(   53) = (  -0.5000000   0.1582832   0.0000000), wk =   0.0185185
        k(   54) = (  -0.5000000   0.1582832   0.1665042), wk =   0.0370370
        k(   55) = (  -0.5000000   0.1582832   0.3330084), wk =   0.0370370
        k(   56) = (  -0.5000000   0.1582832  -0.4995126), wk =   0.0185185
        k(   57) = (  -0.5000000   0.3165665   0.0000000), wk =   0.0185185
        k(   58) = (  -0.5000000   0.3165665   0.1665042), wk =   0.0370370
        k(   59) = (  -0.5000000   0.3165665   0.3330084), wk =   0.0370370
        k(   60) = (  -0.5000000   0.3165665  -0.4995126), wk =   0.0185185
        k(   61) = (  -0.5000000  -0.4748497   0.0000000), wk =   0.0092593
        k(   62) = (  -0.5000000  -0.4748497   0.1665042), wk =   0.0185185
        k(   63) = (  -0.5000000  -0.4748497   0.3330084), wk =   0.0185185
        k(   64) = (  -0.5000000  -0.4748497  -0.4995126), wk =   0.0092593

     Initial potential from superposition of free atoms

     starting charge  367.99656, renormalised to  369.00000
     Starting wfc are  232 randomized atomic wfcs

     Self-consistent Calculation

     iteration #  1     ecut=   120.00 Ry     beta= 0.70
     Davidson diagonalization with overlap
     ethr =  1.00E-02,  avg # of iterations =  5.6

     total energy              =   -6253.08385791 Ry
     Harris-Foulkes estimate   =   -6264.04925152 Ry
     estimated scf accuracy    <      13.76729063 Ry

[...]

     total energy              =   -6260.39064332 Ry
     Harris-Foulkes estimate   =   -6260.39064334 Ry
     estimated scf accuracy    <       0.00000004 Ry

     iteration # 13     ecut=   120.00 Ry     beta= 0.70
     Davidson diagonalization with overlap
     ethr =  1.19E-11,  avg # of iterations =  2.7

     End of self-consistent calculation

          k = 0.0000 0.0000 0.0000 ( 62243 PWs)   bands (ev):

   -65.9485 -65.9481 -65.9475 -65.9475 -65.9471 -65.9471 -65.9465 -65.9461
   -30.4153 -30.4113 -30.4110 -30.4072 -30.3554 -30.3511 -30.3505 -30.3464
   -30.2941 -30.2919 -30.2871 -30.2864 -30.2847 -30.2834 -30.2813 -30.2784
   -30.1931 -30.1906 -30.1898 -30.1882 -30.1875 -30.1849 -30.1829 -30.1800
   -20.1023 -20.1020 -20.1019 -20.1017 -20.0972 -20.0969 -20.0966 -20.0964
   -20.0908 -20.0905 -20.0905 -20.0902 -20.0899 -20.0898 -20.0894 -20.0894
   -20.0890 -20.0885 -20.0880 -20.0878 -20.0878 -20.0866 -20.0862 -20.0860
   -20.0859 -20.0858 -20.0854 -20.0845 -20.0841 -20.0835 -20.0832 -20.0831
   -20.0698 -20.0697 -20.0695 -20.0694 -20.0693 -20.0692 -20.0690 -20.0689
   -20.0289 -20.0289 -20.0275 -20.0275 -20.0273 -20.0273 -20.0262 -20.0262
   -20.0231 -20.0231 -20.0220 -20.0220 -20.0218 -20.0218 -20.0205 -20.0205
    -9.8963  -9.5908  -9.4673  -9.4665  -9.1651  -9.1558  -9.0734  -8.9608
    -8.9468  -8.8526  -8.8149  -8.8122  -7.8443  -7.7809  -7.7751  -7.7229
    -7.7092  -7.7018  -7.6791  -7.6762  -7.5623  -7.5563  -7.5383  -7.5337
     1.3168   1.3186   1.3761   1.3851   1.4002   1.4179   1.4242   1.6481
     1.6565   1.6687   1.7311   1.9218   2.4749   2.5568   2.5974   2.6030
     2.7468   2.7573   4.1962   4.2160   4.4205   4.4570   4.8106   4.8532
     4.8996   4.9162   4.9340   4.9349   5.0657   5.0660   5.1351   5.4476
     5.4721   5.5280   5.5754   5.5827   5.5848   5.6207   5.6579   5.8536
     5.8809   5.9077   5.9088   5.9288   5.9944   6.0917   6.1042   6.1926
     6.1970   6.2963   6.3069   6.5770   6.5841   6.8284   6.8589   6.8760
     6.8893   6.8950   7.0294   7.0484   7.0992   7.1160   7.4159   7.4382
     7.4540   7.4750   7.8700   7.8856   8.0801   8.1115   8.1441   8.1750
     9.4670   9.4695  10.0706  10.0796  10.0948  10.1060  12.3583  12.3652
    12.4369  12.4591  12.4709  12.5030  12.6105  12.6314  12.9275  13.0277
    13.3104  13.3703  13.4465  13.4709  13.8492  14.1100  14.2345  14.2408
    14.3411  14.4943  14.6120  14.8364  15.5474  15.5623  15.5926  16.1568
    16.1782  16.8975  17.1045  17.1319  17.3631  17.4311

[...]

          k = 0.3333-0.4748-0.4995 ( 62240 PWs)   bands (ev):

[...]

          k =-0.5000 0.0000 0.0000 ( 62280 PWs)   bands (ev):

[...]

          k =-0.5000-0.4748-0.4995 ( 62304 PWs)   bands (ev):

   -65.9473 -65.9473 -65.9473 -65.9473 -65.9473 -65.9473 -65.9473 -65.9473
   -30.3814 -30.3814 -30.3814 -30.3814 -30.3811 -30.3811 -30.3811 -30.3811
   -30.2424 -30.2424 -30.2424 -30.2424 -30.2406 -30.2406 -30.2406 -30.2406
   -30.2331 -30.2331 -30.2331 -30.2330 -30.2312 -30.2312 -30.2312 -30.2312
   -20.0995 -20.0995 -20.0995 -20.0995 -20.0994 -20.0994 -20.0994 -20.0994
   -20.0900 -20.0900 -20.0900 -20.0900 -20.0899 -20.0899 -20.0899 -20.0899
   -20.0872 -20.0872 -20.0872 -20.0872 -20.0872 -20.0871 -20.0871 -20.0871
   -20.0849 -20.0849 -20.0849 -20.0849 -20.0848 -20.0848 -20.0848 -20.0848
   -20.0693 -20.0693 -20.0693 -20.0693 -20.0693 -20.0693 -20.0693 -20.0693
   -20.0257 -20.0257 -20.0257 -20.0257 -20.0255 -20.0255 -20.0255 -20.0255
   -20.0241 -20.0241 -20.0241 -20.0241 -20.0239 -20.0239 -20.0239 -20.0239
    -8.8874  -8.8874  -8.8874  -8.8873  -8.8763  -8.8763  -8.8763  -8.8763
    -8.3640  -8.3640  -8.3640  -8.3640  -8.3417  -8.3417  -8.3417  -8.3417
    -8.2931  -8.2931  -8.2931  -8.2931  -8.2830  -8.2830  -8.2830  -8.2830
     3.0348   3.0348   3.0348   3.0348   3.0809   3.0809   3.0809   3.0809
     3.2150   3.2151   3.2151   3.2151   3.2746   3.2746   3.2746   3.2746
     3.4534   3.4534   3.4534   3.4534   3.5507   3.5507   3.5507   3.5507
     4.2064   4.2064   4.2064   4.2064   4.2160   4.2160   4.2160   4.2160
     4.4012   4.4012   4.4012   4.4012   4.4265   4.4265   4.4265   4.4265
     4.5087   4.5087   4.5087   4.5087   4.5385   4.5385   4.5385   4.5385
     7.1642   7.1642   7.1642   7.1642   7.2816   7.2816   7.2816   7.2816
     7.3628   7.3628   7.3628   7.3628   7.3881   7.3881   7.3881   7.3881
     7.6365   7.6365   7.6365   7.6365   7.6690   7.6690   7.6690   7.6690
    11.9523  11.9523  11.9523  11.9523  11.9641  11.9641  11.9641  11.9641
    12.3070  12.3070  12.3070  12.3070  12.4161  12.4161  12.4161  12.4161
    12.6073  12.6073  12.6073  12.6073  12.6581  12.6581  12.6581  12.6581
    17.1281  17.1281  17.1281  17.1281  17.1910  17.1910  17.1910  17.1910
    17.4474  17.4474  17.4475  17.4476  17.4755  17.4755

     the Fermi energy is    10.0781 ev

!    total energy              =   -6260.39064333 Ry
     Harris-Foulkes estimate   =   -6260.39064333 Ry
     estimated scf accuracy    <          6.9E-10 Ry

     The total energy is the sum of the following terms:

     one-electron contribution =   -4723.60694361 Ry
     hartree contribution      =    2601.45983026 Ry
     xc contribution           =    -966.77580299 Ry
     ewald contribution        =   -3171.46766506 Ry
     smearing contrib. (-TS)   =      -0.00006194 Ry

     convergence has been achieved in  13 iterations

     Writing output data file Landau_7.save

     General routines

     Parallel routines

   This run was terminated on:  21:51: 9  21Mar2020

   JOB DONE.