     Program PWSCF v.6.2 (svn rev. 14038) starts on 22Mar2020 at  1: 5:16

     K-points division:     npool     =      40
     Reading input from scf.in

     Current dimensions of program PWSCF are:
     Max number of different atomic species (ntypx) = 10
     Max number of k-points (npk) =  40000
     Max angular momentum in pseudopotentials (lmaxx) =  3

     Subspace diagonalization in iterative solution of the eigenvalue problem:
     a serial algorithm will be used

     bravais-lattice index     =            0
     lattice parameter (alat)  =      14.0421  a.u.
     unit-cell volume          =    2857.2448 (a.u.)^3
     number of atoms/cell      =           32
     number of atomic types    =            2
     number of electrons       =       369.00
     number of Kohn-Sham states=          222
     kinetic-energy cutoff     =     120.0000  Ry
     charge density cutoff     =     480.0000  Ry
     convergence threshold     =      1.0E-08
     mixing beta               =       0.7000
     number of iterations used =            8  plain     mixing
     Exchange-correlation      = SLA PW NOGX NOGC ( 1  4  0  0 0 0)

     celldm(1)=  14.042126  celldm(2)=   0.000000  celldm(3)=   0.000000
     celldm(4)=   0.000000  celldm(5)=   0.000000  celldm(6)=   0.000000

     crystal axes: (cart. coord. in units of alat)
               a(1) = (   1.000000   0.000000   0.000000 )
               a(2) = (   0.000000   1.031847   0.000000 )
               a(3) = (   0.000000   0.000000   1.000077 )

     reciprocal axes: (cart. coord. in units 2 pi/alat)
               b(1) = (  1.000000  0.000000  0.000000 )
               b(2) = (  0.000000  0.969136  0.000000 )
               b(3) = (  0.000000  0.000000  0.999923 )

     PseudoPot. # 1 for W  read from file:
     /cluster/scratch/mnoe/QE/pps/W_ONCV_LDA-4.0.upf
     MD5 check sum: ba0307d5d4cd419d6f1d13dc49d7c13a
     Pseudo is Norm-conserving + core correction, Zval = 28.0
     Generated using ONCVPSP code by D. R. Hamann
     Using radial grid of 1380 points,  8 beta functions with:
                l(1) =   0
                l(2) =   0
                l(3) =   1
                l(4) =   1
                l(5) =   2
                l(6) =   2
                l(7) =   3
                l(8) =   3

     PseudoPot. # 2 for O  read from file:
     /cluster/scratch/mnoe/QE/pps/O_ONCV_LDA-3.0.upf
     MD5 check sum: a1bd6164e7280c17a38c229939bfbd54
     Pseudo is Norm-conserving + core correction, Zval =  6.0
     Generated using ONCVPSP code by D. R. Hamann
     Using radial grid of  926 points,  5 beta functions with:
                l(1) =   0
                l(2) =   0
                l(3) =   1
                l(4) =   1
                l(5) =   2

     atomic species   valence    mass     pseudopotential
        W             28.00   183.84000     W ( 1.00)
        O              6.00    15.99940     O ( 1.00)

      8 Sym. Ops., with inversion, found ( 6 have fractional translation)

   Cartesian axes

     site n.     atom                  positions (alat units)
         1           W   tau(   1) = (   0.2479211   0.2835426   0.0019633  )
         2           W   tau(   2) = (   0.7520789   0.7483048  -0.0019633  )
         3           W   tau(   3) = (   0.2520789   0.2323811   0.5020017  )
         4           W   tau(   4) = (   0.7479211   0.7994664   0.4980751  )
         5           W   tau(   5) = (   0.7520789   0.2835426   0.4980751  )
         6           W   tau(   6) = (   0.2479211   0.7483048   0.5020017  )
         7           W   tau(   7) = (   0.7479211   0.2323811  -0.0019633  )
         8           W   tau(   8) = (   0.2520789   0.7994664   0.0019633  )
         9           O   tau(   9) = (   0.2461647   0.0065979   0.0006102  )
        10           O   tau(  10) = (   0.7538352  -0.0065979  -0.0006102  )
        11           O   tau(  11) = (   0.2538353   0.5093258   0.5006486  )
        12           O   tau(  12) = (   0.7461647   0.5225216   0.4994282  )
        13           O   tau(  13) = (   0.7538352   0.0065979   0.4994282  )
        14           O   tau(  14) = (   0.2461647  -0.0065979   0.5006486  )
        15           O   tau(  15) = (   0.7461647   0.5093258  -0.0006102  )
        16           O   tau(  16) = (   0.2538353   0.5225216   0.0006102  )
        17           O   tau(  17) = (   0.5005686   0.2539024   0.4668603  )
        18           O   tau(  18) = (   0.4994314   0.7779450   0.5332165  )
        19           O   tau(  19) = (  -0.0005686   0.2620213   0.9668988  )
        20           O   tau(  20) = (   0.0005686   0.7698261   0.0331780  )
        21           O   tau(  21) = (   0.4994314   0.2539024   0.0331780  )
        22           O   tau(  22) = (   0.5005686   0.7779450   0.9668988  )
        23           O   tau(  23) = (   0.0005686   0.2620213   0.5332165  )
        24           O   tau(  24) = (  -0.0005686   0.7698261   0.4668603  )
        25           O   tau(  25) = (   0.7168245   0.2570760   0.7491956  )
        26           O   tau(  26) = (   0.2831755   0.7747715   0.2508812  )
        27           O   tau(  27) = (   0.7831756   0.2588477   0.2491573  )
        28           O   tau(  28) = (   0.2168245   0.7729997   0.7509195  )
        29           O   tau(  29) = (   0.2831755   0.2570760   0.7509195  )
        30           O   tau(  30) = (   0.7168245   0.7747715   0.2491573  )
        31           O   tau(  31) = (   0.2168245   0.2588477   0.2508812  )
        32           O   tau(  32) = (   0.7831756   0.7729997   0.7491956  )

     number of k points=    64  gaussian smearing, width (Ry)=  0.0007
                       cart. coord. in units 2pi/alat
        k(    1) = (   0.0000000   0.0000000   0.0000000), wk =   0.0092593
        k(    2) = (   0.0000000   0.0000000   0.1666539), wk =   0.0185185
        k(    3) = (   0.0000000   0.0000000   0.3333077), wk =   0.0185185
        k(    4) = (   0.0000000   0.0000000  -0.4999616), wk =   0.0092593
        k(    5) = (   0.0000000   0.1615226   0.0000000), wk =   0.0185185
        k(    6) = (   0.0000000   0.1615226   0.1666539), wk =   0.0370370
        k(    7) = (   0.0000000   0.1615226   0.3333077), wk =   0.0370370
        k(    8) = (   0.0000000   0.1615226  -0.4999616), wk =   0.0185185
        k(    9) = (   0.0000000   0.3230452   0.0000000), wk =   0.0185185
        k(   10) = (   0.0000000   0.3230452   0.1666539), wk =   0.0370370
        k(   11) = (   0.0000000   0.3230452   0.3333077), wk =   0.0370370
        k(   12) = (   0.0000000   0.3230452  -0.4999616), wk =   0.0185185
        k(   13) = (   0.0000000  -0.4845678   0.0000000), wk =   0.0092593
        k(   14) = (   0.0000000  -0.4845678   0.1666539), wk =   0.0185185
        k(   15) = (   0.0000000  -0.4845678   0.3333077), wk =   0.0185185
        k(   16) = (   0.0000000  -0.4845678  -0.4999616), wk =   0.0092593
        k(   17) = (   0.1666667   0.0000000   0.0000000), wk =   0.0185185
        k(   18) = (   0.1666667   0.0000000   0.1666539), wk =   0.0370370
        k(   19) = (   0.1666667   0.0000000   0.3333077), wk =   0.0370370
        k(   20) = (   0.1666667   0.0000000  -0.4999616), wk =   0.0185185
        k(   21) = (   0.1666667   0.1615226   0.0000000), wk =   0.0370370
        k(   22) = (   0.1666667   0.1615226   0.1666539), wk =   0.0740741
        k(   23) = (   0.1666667   0.1615226   0.3333077), wk =   0.0740741
        k(   24) = (   0.1666667   0.1615226  -0.4999616), wk =   0.0370370
        k(   25) = (   0.1666667   0.3230452   0.0000000), wk =   0.0370370
        k(   26) = (   0.1666667   0.3230452   0.1666539), wk =   0.0740741
        k(   27) = (   0.1666667   0.3230452   0.3333077), wk =   0.0740741
        k(   28) = (   0.1666667   0.3230452  -0.4999616), wk =   0.0370370
        k(   29) = (   0.1666667  -0.4845678   0.0000000), wk =   0.0185185
        k(   30) = (   0.1666667  -0.4845678   0.1666539), wk =   0.0370370
        k(   31) = (   0.1666667  -0.4845678   0.3333077), wk =   0.0370370
        k(   32) = (   0.1666667  -0.4845678  -0.4999616), wk =   0.0185185
        k(   33) = (   0.3333333   0.0000000   0.0000000), wk =   0.0185185
        k(   34) = (   0.3333333   0.0000000   0.1666539), wk =   0.0370370
        k(   35) = (   0.3333333   0.0000000   0.3333077), wk =   0.0370370
        k(   36) = (   0.3333333   0.0000000  -0.4999616), wk =   0.0185185
        k(   37) = (   0.3333333   0.1615226   0.0000000), wk =   0.0370370
        k(   38) = (   0.3333333   0.1615226   0.1666539), wk =   0.0740741
        k(   39) = (   0.3333333   0.1615226   0.3333077), wk =   0.0740741
        k(   40) = (   0.3333333   0.1615226  -0.4999616), wk =   0.0370370
        k(   41) = (   0.3333333   0.3230452   0.0000000), wk =   0.0370370
        k(   42) = (   0.3333333   0.3230452   0.1666539), wk =   0.0740741
        k(   43) = (   0.3333333   0.3230452   0.3333077), wk =   0.0740741
        k(   44) = (   0.3333333   0.3230452  -0.4999616), wk =   0.0370370
        k(   45) = (   0.3333333  -0.4845678   0.0000000), wk =   0.0185185
        k(   46) = (   0.3333333  -0.4845678   0.1666539), wk =   0.0370370
        k(   47) = (   0.3333333  -0.4845678   0.3333077), wk =   0.0370370
        k(   48) = (   0.3333333  -0.4845678  -0.4999616), wk =   0.0185185
        k(   49) = (  -0.5000000   0.0000000   0.0000000), wk =   0.0092593
        k(   50) = (  -0.5000000   0.0000000   0.1666539), wk =   0.0185185
        k(   51) = (  -0.5000000   0.0000000   0.3333077), wk =   0.0185185
        k(   52) = (  -0.5000000   0.0000000  -0.4999616), wk =   0.0092593
        k(   53) = (  -0.5000000   0.1615226   0.0000000), wk =   0.0185185
        k(   54) = (  -0.5000000   0.1615226   0.1666539), wk =   0.0370370
        k(   55) = (  -0.5000000   0.1615226   0.3333077), wk =   0.0370370
        k(   56) = (  -0.5000000   0.1615226  -0.4999616), wk =   0.0185185
        k(   57) = (  -0.5000000   0.3230452   0.0000000), wk =   0.0185185
        k(   58) = (  -0.5000000   0.3230452   0.1666539), wk =   0.0370370
        k(   59) = (  -0.5000000   0.3230452   0.3333077), wk =   0.0370370
        k(   60) = (  -0.5000000   0.3230452  -0.4999616), wk =   0.0185185
        k(   61) = (  -0.5000000  -0.4845678   0.0000000), wk =   0.0092593
        k(   62) = (  -0.5000000  -0.4845678   0.1666539), wk =   0.0185185
        k(   63) = (  -0.5000000  -0.4845678   0.3333077), wk =   0.0185185
        k(   64) = (  -0.5000000  -0.4845678  -0.4999616), wk =   0.0092593

     Initial potential from superposition of free atoms

     starting charge  367.99656, renormalised to  369.00000
     Starting wfc are  232 randomized atomic wfcs

     Self-consistent Calculation

     iteration #  1     ecut=   120.00 Ry     beta= 0.70
     Davidson diagonalization with overlap
     ethr =  1.00E-02,  avg # of iterations =  5.6

     total energy              =   -6253.06557933 Ry
     Harris-Foulkes estimate   =   -6264.12573016 Ry
     estimated scf accuracy    <      13.88344880 Ry

[...]

     total energy              =   -6260.41653133 Ry
     Harris-Foulkes estimate   =   -6260.41653136 Ry
     estimated scf accuracy    <       0.00000005 Ry

     iteration # 13     ecut=   120.00 Ry     beta= 0.70
     Davidson diagonalization with overlap
     ethr =  1.47E-11,  avg # of iterations =  2.9

     End of self-consistent calculation

          k = 0.0000 0.0000 0.0000 ( 63447 PWs)   bands (ev):

   -66.2823 -66.2818 -66.2815 -66.2814 -66.2810 -66.2810 -66.2807 -66.2802
   -30.7127 -30.7089 -30.7088 -30.7050 -30.6443 -30.6407 -30.6405 -30.6370
   -30.6209 -30.6208 -30.6172 -30.6164 -30.6159 -30.6158 -30.6123 -30.6118
   -30.5279 -30.5277 -30.5246 -30.5244 -30.5236 -30.5235 -30.5204 -30.5201
   -20.4342 -20.4338 -20.4338 -20.4333 -20.4301 -20.4300 -20.4300 -20.4300
   -20.4299 -20.4299 -20.4299 -20.4298 -20.4279 -20.4275 -20.4274 -20.4269
   -20.4246 -20.4246 -20.4245 -20.4244 -20.4232 -20.4231 -20.4231 -20.4231
   -20.4211 -20.4211 -20.4211 -20.4211 -20.4198 -20.4197 -20.4196 -20.4196
   -20.4112 -20.4111 -20.4105 -20.4105 -20.4104 -20.4104 -20.4098 -20.4097
   -20.3780 -20.3779 -20.3778 -20.3778 -20.3763 -20.3763 -20.3762 -20.3762
   -20.3726 -20.3726 -20.3725 -20.3725 -20.3710 -20.3710 -20.3709 -20.3709
   -10.1592  -9.8472  -9.7887  -9.7886  -9.4833  -9.4826  -9.4272  -9.2544
    -9.2359  -9.1946  -9.1680  -9.1678  -8.0643  -8.0105  -8.0101  -7.9623
    -7.9345  -7.9345  -7.9009  -7.9007  -7.8485  -7.8485  -7.8187  -7.8187
     0.9278   0.9327   0.9876   0.9883   1.0180   1.0443   1.0460   1.2065
     1.2779   1.2791   1.3003   1.5143   2.2870   2.3304   2.3314   2.3814
     2.4554   2.4568   4.0688   4.0709   4.2222   4.2255   4.5144   4.5155
     4.5254   4.5292   4.5595   4.5603   4.6367   4.6367   4.8633   5.1651
     5.1678   5.2895   5.2912   5.3339   5.3383   5.3643   5.3656   5.5490
     5.5494   5.6060   5.6958   5.6984   5.7646   5.9168   5.9170   5.9757
     5.9774   6.1771   6.1773   6.2010   6.2013   6.5971   6.6530   6.6554
     6.7144   6.7160   6.8248   6.8667   6.8873   6.8888   7.0794   7.0796
     7.0806   7.0811   7.8796   7.8876   7.8986   7.9022   7.9515   7.9550
     8.9571   8.9808   9.4239   9.4248   9.4471   9.4476  12.1807  12.1839
    12.2646  12.2648  12.3009  12.3018  12.3295  12.3316  12.8194  12.8350
    12.9729  12.9755  13.1784  13.1847  13.7789  13.9206  13.9315  13.9481
    13.9634  14.1751  14.1999  14.4944  14.9283  14.9361  15.4135  15.7968
    15.7995  16.7720  16.8140  16.9132  16.9158  17.1691

[...]

          k = 0.3333-0.4846-0.5000 ( 63432 PWs)   bands (ev):

[...]

          k =-0.5000 0.0000 0.0000 ( 63384 PWs)   bands (ev):

[...]

          k =-0.5000-0.4846-0.5000 ( 63440 PWs)   bands (ev):

   -66.2812 -66.2812 -66.2812 -66.2812 -66.2812 -66.2812 -66.2812 -66.2812
   -30.6753 -30.6753 -30.6753 -30.6753 -30.6752 -30.6752 -30.6752 -30.6752
   -30.5716 -30.5716 -30.5715 -30.5715 -30.5707 -30.5707 -30.5706 -30.5706
   -30.5700 -30.5700 -30.5700 -30.5700 -30.5691 -30.5691 -30.5691 -30.5691
   -20.4308 -20.4308 -20.4308 -20.4308 -20.4308 -20.4308 -20.4308 -20.4308
   -20.4300 -20.4299 -20.4299 -20.4299 -20.4299 -20.4299 -20.4299 -20.4299
   -20.4223 -20.4223 -20.4223 -20.4223 -20.4221 -20.4221 -20.4221 -20.4221
   -20.4220 -20.4220 -20.4220 -20.4220 -20.4219 -20.4219 -20.4219 -20.4219
   -20.4104 -20.4104 -20.4104 -20.4104 -20.4104 -20.4104 -20.4104 -20.4104
   -20.3747 -20.3747 -20.3747 -20.3747 -20.3747 -20.3746 -20.3746 -20.3746
   -20.3745 -20.3745 -20.3744 -20.3744 -20.3744 -20.3744 -20.3744 -20.3743
    -9.1534  -9.1534  -9.1534  -9.1533  -9.1509  -9.1508  -9.1508  -9.1508
    -8.6399  -8.6399  -8.6399  -8.6399  -8.6336  -8.6336  -8.6336  -8.6336
    -8.6059  -8.6059  -8.6059  -8.6059  -8.6046  -8.6046  -8.6045  -8.6045
     2.8417   2.8417   2.8417   2.8417   2.8527   2.8527   2.8527   2.8527
     2.9293   2.9293   2.9293   2.9293   2.9464   2.9464   2.9464   2.9464
     3.2026   3.2026   3.2026   3.2026   3.2350   3.2350   3.2350   3.2350
     3.9284   3.9284   3.9284   3.9284   3.9357   3.9357   3.9357   3.9357
     4.0471   4.0471   4.0471   4.0471   4.0524   4.0525   4.0525   4.0525
     4.1542   4.1542   4.1542   4.1542   4.1656   4.1656   4.1656   4.1656
     6.9777   6.9778   6.9778   6.9778   7.0093   7.0093   7.0093   7.0093
     7.1130   7.1130   7.1130   7.1130   7.1163   7.1163   7.1163   7.1163
     7.3796   7.3796   7.3797   7.3797   7.3880   7.3880   7.3880   7.3880
    11.6579  11.6579  11.6579  11.6579  11.6610  11.6610  11.6610  11.6610
    11.9471  11.9471  11.9471  11.9471  11.9792  11.9792  11.9792  11.9792
    12.1476  12.1476  12.1476  12.1476  12.1644  12.1644  12.1644  12.1644
    16.8775  16.8775  16.8776  16.8776  16.8941  16.8941  16.8941  16.8941
    17.4030  17.4031  17.4031  17.4032  17.4131  17.4131

     the Fermi energy is     9.6064 ev

!    total energy              =   -6260.41653134 Ry
     Harris-Foulkes estimate   =   -6260.41653134 Ry
     estimated scf accuracy    <          4.9E-09 Ry

     The total energy is the sum of the following terms:

     one-electron contribution =   -4803.35421762 Ry
     hartree contribution      =    2637.14017847 Ry
     xc contribution           =    -966.76923696 Ry
     ewald contribution        =   -3127.43318470 Ry
     smearing contrib. (-TS)   =      -0.00007054 Ry

     convergence has been achieved in  13 iterations

     Writing output data file Landau_9.save

     General routines

     Parallel routines

   This run was terminated on:   1:26: 4  22Mar2020

   JOB DONE.