     Program PWSCF v.6.2 (svn rev. 14038) starts on 23Mar2020 at  3:44: 6

     K-points division:     npool     =      40
     Reading input from rscf.in

     Current dimensions of program PWSCF are:
     Max number of different atomic species (ntypx) = 10
     Max number of k-points (npk) =  40000
     Max angular momentum in pseudopotentials (lmaxx) =  3

     Subspace diagonalization in iterative solution of the eigenvalue problem:
     a serial algorithm will be used

     bravais-lattice index     =            0
     lattice parameter (alat)  =      13.8397  a.u.
     unit-cell volume          =    2804.9816 (a.u.)^3
     number of atoms/cell      =           32
     number of atomic types    =            2
     number of electrons       =       368.00
     number of Kohn-Sham states=          221
     kinetic-energy cutoff     =     120.0000  Ry
     charge density cutoff     =     480.0000  Ry
     convergence threshold     =      1.0E-08
     mixing beta               =       0.7000
     number of iterations used =            8  plain     mixing
     Exchange-correlation      = SLA PW NOGX NOGC ( 1  4  0  0 0 0)
     nstep                     =           50

     celldm(1)=  13.839685  celldm(2)=   0.000000  celldm(3)=   0.000000
     celldm(4)=   0.000000  celldm(5)=   0.000000  celldm(6)=   0.000000

     crystal axes: (cart. coord. in units of alat)
               a(1) = (   1.000000   0.000000   0.000000 )
               a(2) = (   0.000000   1.058160   0.000000 )
               a(3) = (   0.000000   0.000000   1.000000 )

     reciprocal axes: (cart. coord. in units 2 pi/alat)
               b(1) = (  1.000000  0.000000  0.000000 )
               b(2) = (  0.000000  0.945037  0.000000 )
               b(3) = (  0.000000  0.000000  1.000000 )

     PseudoPot. # 1 for W  read from file:
     /cluster/scratch/mnoe/QE/pps/W_ONCV_LDA-4.0.upf
     MD5 check sum: ba0307d5d4cd419d6f1d13dc49d7c13a
     Pseudo is Norm-conserving + core correction, Zval = 28.0
     Generated using ONCVPSP code by D. R. Hamann
     Using radial grid of 1380 points,  8 beta functions with:
                l(1) =   0
                l(2) =   0
                l(3) =   1
                l(4) =   1
                l(5) =   2
                l(6) =   2
                l(7) =   3
                l(8) =   3

     PseudoPot. # 2 for O  read from file:
     /cluster/scratch/mnoe/QE/pps/O_ONCV_LDA-3.0.upf
     MD5 check sum: a1bd6164e7280c17a38c229939bfbd54
     Pseudo is Norm-conserving + core correction, Zval =  6.0
     Generated using ONCVPSP code by D. R. Hamann
     Using radial grid of  926 points,  5 beta functions with:
                l(1) =   0
                l(2) =   0
                l(3) =   1
                l(4) =   1
                l(5) =   2

     atomic species   valence    mass     pseudopotential
        W             28.00   183.84000     W ( 1.00)
        O              6.00    15.99940     O ( 1.00)

      4 Sym. Ops. (no inversion) found ( 3 have fractional translation)

   Cartesian axes

     site n.     atom                  positions (alat units)
         1           W   tau(   1) = (   0.2370943   0.2945176   0.0030108  )
         2           W   tau(   2) = (   0.7537443   0.7636425  -0.0127122  )
         3           W   tau(   3) = (   0.2629057   0.2345624   0.5030108  )
         4           W   tau(   4) = (   0.7462557   0.8235977   0.4872877  )
         5           W   tau(   5) = (   0.7629057   0.2945176   0.4969892  )
         6           W   tau(   6) = (   0.2462557   0.7636425   0.5127123  )
         7           W   tau(   7) = (   0.7370943   0.2345624  -0.0030107  )
         8           W   tau(   8) = (   0.2537443   0.8235977   0.0127122  )
         9           O   tau(   9) = (   0.2332177   0.0077863  -0.0065055  )
        10           O   tau(  10) = (   0.7639347  -0.0077863  -0.0113925  )
        11           O   tau(  11) = (   0.2667823   0.5212938   0.4934945  )
        12           O   tau(  12) = (   0.7360653   0.5368663   0.4886075  )
        13           O   tau(  13) = (   0.7667822   0.0077863   0.5065055  )
        14           O   tau(  14) = (   0.2360652  -0.0077863   0.5113925  )
        15           O   tau(  15) = (   0.7332177   0.5212938   0.0065055  )
        16           O   tau(  16) = (   0.2639347   0.5368663   0.0113925  )
        17           O   tau(  17) = (   0.5042881   0.2457495   0.4581717  )
        18           O   tau(  18) = (   0.4997341   0.8081711   0.5418283  )
        19           O   tau(  19) = (  -0.0042881   0.2833305   0.9581718  )
        20           O   tau(  20) = (   0.0002659   0.7790691   0.0418283  )
        21           O   tau(  21) = (   0.4957119   0.2457495   0.0418283  )
        22           O   tau(  22) = (   0.5002659   0.8081711   0.9581718  )
        23           O   tau(  23) = (   0.0042881   0.2833305   0.5418283  )
        24           O   tau(  24) = (  -0.0002659   0.7790691   0.4581717  )
        25           O   tau(  25) = (   0.7081717   0.2706157   0.7478752  )
        26           O   tau(  26) = (   0.2918283   0.8069717   0.2547782  )
        27           O   tau(  27) = (   0.7918283   0.2584644   0.2478753  )
        28           O   tau(  28) = (   0.2081717   0.7802685   0.7547782  )
        29           O   tau(  29) = (   0.2918283   0.2706157   0.7521247  )
        30           O   tau(  30) = (   0.7081717   0.8069717   0.2452218  )
        31           O   tau(  31) = (   0.2081717   0.2584644   0.2521247  )
        32           O   tau(  32) = (   0.7918283   0.7802685   0.7452218  )

     number of k points=    64  gaussian smearing, width (Ry)=  0.0007
                       cart. coord. in units 2pi/alat
        k(    1) = (   0.0000000   0.0000000   0.0000000), wk =   0.0092593
        k(    2) = (   0.0000000   0.0000000   0.1666667), wk =   0.0185185
        k(    3) = (   0.0000000   0.0000000   0.3333333), wk =   0.0185185
        k(    4) = (   0.0000000   0.0000000  -0.5000000), wk =   0.0092593
        k(    5) = (   0.0000000   0.1575061   0.0000000), wk =   0.0185185
        k(    6) = (   0.0000000   0.1575061   0.1666667), wk =   0.0370370
        k(    7) = (   0.0000000   0.1575061   0.3333333), wk =   0.0370370
        k(    8) = (   0.0000000   0.1575061  -0.5000000), wk =   0.0185185
        k(    9) = (   0.0000000   0.3150122   0.0000000), wk =   0.0185185
        k(   10) = (   0.0000000   0.3150122   0.1666667), wk =   0.0370370
        k(   11) = (   0.0000000   0.3150122   0.3333333), wk =   0.0370370
        k(   12) = (   0.0000000   0.3150122  -0.5000000), wk =   0.0185185
        k(   13) = (   0.0000000  -0.4725183   0.0000000), wk =   0.0092593
        k(   14) = (   0.0000000  -0.4725183   0.1666667), wk =   0.0185185
        k(   15) = (   0.0000000  -0.4725183   0.3333333), wk =   0.0185185
        k(   16) = (   0.0000000  -0.4725183  -0.5000000), wk =   0.0092593
        k(   17) = (   0.1666667   0.0000000   0.1666667), wk =   0.0370370
        k(   18) = (   0.1666667   0.0000000   0.3333333), wk =   0.0370370
        k(   19) = (   0.1666667   0.0000000  -0.5000000), wk =   0.0185185
        k(   20) = (   0.1666667   0.1575061   0.1666667), wk =   0.0740741
        k(   21) = (   0.1666667   0.1575061   0.3333333), wk =   0.0740741
        k(   22) = (   0.1666667   0.1575061  -0.5000000), wk =   0.0370370
        k(   23) = (   0.1666667   0.3150122   0.1666667), wk =   0.0740741
        k(   24) = (   0.1666667   0.3150122   0.3333333), wk =   0.0740741
        k(   25) = (   0.1666667   0.3150122  -0.5000000), wk =   0.0370370
        k(   26) = (   0.1666667  -0.4725183   0.1666667), wk =   0.0370370
        k(   27) = (   0.1666667  -0.4725183   0.3333333), wk =   0.0370370
        k(   28) = (   0.1666667  -0.4725183  -0.5000000), wk =   0.0185185
        k(   29) = (   0.3333333   0.0000000   0.3333333), wk =   0.0370370
        k(   30) = (   0.3333333   0.0000000  -0.5000000), wk =   0.0185185
        k(   31) = (   0.3333333   0.1575061   0.3333333), wk =   0.0740741
        k(   32) = (   0.3333333   0.1575061  -0.5000000), wk =   0.0370370
        k(   33) = (   0.3333333   0.3150122   0.3333333), wk =   0.0740741
        k(   34) = (   0.3333333   0.3150122  -0.5000000), wk =   0.0370370
        k(   35) = (   0.3333333  -0.4725183   0.3333333), wk =   0.0370370
        k(   36) = (   0.3333333  -0.4725183  -0.5000000), wk =   0.0185185
        k(   37) = (  -0.5000000   0.0000000  -0.5000000), wk =   0.0092593
        k(   38) = (  -0.5000000   0.1575061  -0.5000000), wk =   0.0185185
        k(   39) = (  -0.5000000   0.3150122  -0.5000000), wk =   0.0185185
        k(   40) = (  -0.5000000  -0.4725183  -0.5000000), wk =   0.0092593
        k(   41) = (   0.1666667   0.0000000   0.0000000), wk =   0.0185185
        k(   42) = (   0.3333333   0.0000000   0.0000000), wk =   0.0185185
        k(   43) = (  -0.5000000   0.0000000   0.0000000), wk =   0.0092593
        k(   44) = (   0.1666667  -0.1575061   0.0000000), wk =   0.0370370
        k(   45) = (   0.3333333  -0.1575061   0.0000000), wk =   0.0370370
        k(   46) = (  -0.5000000  -0.1575061   0.0000000), wk =   0.0185185
        k(   47) = (   0.1666667  -0.3150122   0.0000000), wk =   0.0370370
        k(   48) = (   0.3333333  -0.3150122   0.0000000), wk =   0.0370370
        k(   49) = (  -0.5000000  -0.3150122   0.0000000), wk =   0.0185185
        k(   50) = (   0.1666667   0.4725183   0.0000000), wk =   0.0185185
        k(   51) = (   0.3333333   0.4725183   0.0000000), wk =   0.0185185
        k(   52) = (  -0.5000000   0.4725183   0.0000000), wk =   0.0092593
        k(   53) = (   0.3333333   0.0000000   0.1666667), wk =   0.0370370
        k(   54) = (  -0.5000000   0.0000000   0.1666667), wk =   0.0185185
        k(   55) = (   0.3333333  -0.1575061   0.1666667), wk =   0.0740741
        k(   56) = (  -0.5000000  -0.1575061   0.1666667), wk =   0.0370370
        k(   57) = (   0.3333333  -0.3150122   0.1666667), wk =   0.0740741
        k(   58) = (  -0.5000000  -0.3150122   0.1666667), wk =   0.0370370
        k(   59) = (   0.3333333   0.4725183   0.1666667), wk =   0.0370370
        k(   60) = (  -0.5000000   0.4725183   0.1666667), wk =   0.0185185
        k(   61) = (  -0.5000000   0.0000000   0.3333333), wk =   0.0185185
        k(   62) = (  -0.5000000  -0.1575061   0.3333333), wk =   0.0370370
        k(   63) = (  -0.5000000  -0.3150122   0.3333333), wk =   0.0370370
        k(   64) = (  -0.5000000   0.4725183   0.3333333), wk =   0.0185185

     Initial potential from superposition of free atoms

     starting charge  367.99656, renormalised to  368.00000
     Starting wfc are  232 randomized atomic wfcs

     Self-consistent Calculation

     iteration #  1     ecut=   120.00 Ry     beta= 0.70
     Davidson diagonalization with overlap
     ethr =  1.00E-02,  avg # of iterations =  5.0

     total energy              =   -6254.02043594 Ry
     Harris-Foulkes estimate   =   -6264.57125498 Ry
     estimated scf accuracy    <      13.37016040 Ry

[...]

     End of self-consistent calculation

[...]
End final coordinates

     A final scf calculation at the relaxed structure.
     The G-vectors are recalculated for the final unit cell
     Results may differ from those at the preceding step.

     bravais-lattice index     =            0
     lattice parameter (alat)  =      13.8397  a.u.
     unit-cell volume          =    2822.2213 (a.u.)^3
     number of atoms/cell      =           32
     number of atomic types    =            2
     number of electrons       =       368.00
     number of Kohn-Sham states=          221
     kinetic-energy cutoff     =     120.0000  Ry
     charge density cutoff     =     480.0000  Ry
     convergence threshold     =      1.0E-10
     mixing beta               =       0.7000
     number of iterations used =            8  plain     mixing
     Exchange-correlation      = SLA PW NOGX NOGC ( 1  4  0  0 0 0)

     celldm(1)=  13.839685  celldm(2)=   0.000000  celldm(3)=   0.000000
     celldm(4)=   0.000000  celldm(5)=   0.000000  celldm(6)=   0.000000

     crystal axes: (cart. coord. in units of alat)
               a(1) = (   1.007934   0.000000   0.000000 )
               a(2) = (   0.000000   1.046961   0.000000 )
               a(3) = (   0.000000   0.000000   1.008904 )

     reciprocal axes: (cart. coord. in units 2 pi/alat)
               b(1) = (  0.992129  0.000000  0.000000 )
               b(2) = (  0.000000  0.955145  0.000000 )
               b(3) = (  0.000000  0.000000  0.991175 )

     PseudoPot. # 1 for W  read from file:
     /cluster/scratch/mnoe/QE/pps/W_ONCV_LDA-4.0.upf
     MD5 check sum: ba0307d5d4cd419d6f1d13dc49d7c13a
     Pseudo is Norm-conserving + core correction, Zval = 28.0
     Generated using ONCVPSP code by D. R. Hamann
     Using radial grid of 1380 points,  8 beta functions with:
                l(1) =   0
                l(2) =   0
                l(3) =   1
                l(4) =   1
                l(5) =   2
                l(6) =   2
                l(7) =   3
                l(8) =   3

     PseudoPot. # 2 for O  read from file:
     /cluster/scratch/mnoe/QE/pps/O_ONCV_LDA-3.0.upf
     MD5 check sum: a1bd6164e7280c17a38c229939bfbd54
     Pseudo is Norm-conserving + core correction, Zval =  6.0
     Generated using ONCVPSP code by D. R. Hamann
     Using radial grid of  926 points,  5 beta functions with:
                l(1) =   0
                l(2) =   0
                l(3) =   1
                l(4) =   1
                l(5) =   2

     atomic species   valence    mass     pseudopotential
        W             28.00   183.84000     W ( 1.00)
        O              6.00    15.99940     O ( 1.00)

      4 Sym. Ops. (no inversion) found ( 3 have fractional translation)

   Cartesian axes

     site n.     atom                  positions (alat units)
         1           W   tau(   1) = (   0.2389753   0.2914006   0.0030376  )
         2           W   tau(   2) = (   0.7597243   0.7555606  -0.0128254  )
         3           W   tau(   3) = (   0.2649915   0.2320800   0.5074896  )
         4           W   tau(   4) = (   0.7521762   0.8148813   0.4916266  )
         5           W   tau(   5) = (   0.7689583   0.2914006   0.5014145  )
         6           W   tau(   6) = (   0.2482094   0.7555606   0.5172775  )
         7           W   tau(   7) = (   0.7429422   0.2320800  -0.0030375  )
         8           W   tau(   8) = (   0.2557574   0.8148813   0.0128254  )
         9           O   tau(   9) = (   0.2350680   0.0077039  -0.0065634  )
        10           O   tau(  10) = (   0.7699955  -0.0077039  -0.0114939  )
        11           O   tau(  11) = (   0.2688988   0.5157768   0.4978886  )
        12           O   tau(  12) = (   0.7419050   0.5311845   0.4929581  )
        13           O   tau(  13) = (   0.7728656   0.0077039   0.5110154  )
        14           O   tau(  14) = (   0.2379381  -0.0077039   0.5159459  )
        15           O   tau(  15) = (   0.7390348   0.5157768   0.0065634  )
        16           O   tau(  16) = (   0.2660287   0.5311845   0.0114939  )
        17           O   tau(  17) = (   0.5082890   0.2431487   0.4622513  )
        18           O   tau(  18) = (   0.5036988   0.7996180   0.5466527  )
        19           O   tau(  19) = (  -0.0043221   0.2803319   0.9667033  )
        20           O   tau(  20) = (   0.0002680   0.7708239   0.0422007  )
        21           O   tau(  21) = (   0.4996447   0.2431487   0.0422007  )
        22           O   tau(  22) = (   0.5042349   0.7996180   0.9667033  )
        23           O   tau(  23) = (   0.0043221   0.2803319   0.5466527  )
        24           O   tau(  24) = (  -0.0002680   0.7708239   0.4622513  )
        25           O   tau(  25) = (   0.7137901   0.2677517   0.7545343  )
        26           O   tau(  26) = (   0.2941435   0.7984312   0.2570468  )
        27           O   tau(  27) = (   0.7981104   0.2557289   0.2500824  )
        28           O   tau(  28) = (   0.2098233   0.7720107   0.7614988  )
        29           O   tau(  29) = (   0.2941435   0.2677517   0.7588217  )
        30           O   tau(  30) = (   0.7137901   0.7984312   0.2474052  )
        31           O   tau(  31) = (   0.2098233   0.2557289   0.2543697  )
        32           O   tau(  32) = (   0.7981104   0.7720107   0.7518572  )

     number of k points=    64  gaussian smearing, width (Ry)=  0.0007
                       cart. coord. in units 2pi/alat
        k(    1) = (   0.0000000   0.0000000   0.0000000), wk =   0.0092593
        k(    2) = (   0.0000000   0.0000000   0.1651958), wk =   0.0185185
        k(    3) = (   0.0000000   0.0000000   0.3303915), wk =   0.0185185
        k(    4) = (   0.0000000   0.0000000  -0.4955873), wk =   0.0092593
        k(    5) = (   0.0000000   0.1591909   0.0000000), wk =   0.0185185
        k(    6) = (   0.0000000   0.1591909   0.1651958), wk =   0.0370370
        k(    7) = (   0.0000000   0.1591909   0.3303915), wk =   0.0370370
        k(    8) = (   0.0000000   0.1591909  -0.4955873), wk =   0.0185185
        k(    9) = (   0.0000000   0.3183817   0.0000000), wk =   0.0185185
        k(   10) = (   0.0000000   0.3183817   0.1651958), wk =   0.0370370
        k(   11) = (   0.0000000   0.3183817   0.3303915), wk =   0.0370370
        k(   12) = (   0.0000000   0.3183817  -0.4955873), wk =   0.0185185
        k(   13) = (   0.0000000  -0.4775726   0.0000000), wk =   0.0092593
        k(   14) = (   0.0000000  -0.4775726   0.1651958), wk =   0.0185185
        k(   15) = (   0.0000000  -0.4775726   0.3303915), wk =   0.0185185
        k(   16) = (   0.0000000  -0.4775726  -0.4955873), wk =   0.0092593
        k(   17) = (   0.1653548   0.0000000   0.1651958), wk =   0.0370370
        k(   18) = (   0.1653548   0.0000000   0.3303915), wk =   0.0370370
        k(   19) = (   0.1653548   0.0000000  -0.4955873), wk =   0.0185185
        k(   20) = (   0.1653548   0.1591909   0.1651958), wk =   0.0740741
        k(   21) = (   0.1653548   0.1591909   0.3303915), wk =   0.0740741
        k(   22) = (   0.1653548   0.1591909  -0.4955873), wk =   0.0370370
        k(   23) = (   0.1653548   0.3183817   0.1651958), wk =   0.0740741
        k(   24) = (   0.1653548   0.3183817   0.3303915), wk =   0.0740741
        k(   25) = (   0.1653548   0.3183817  -0.4955873), wk =   0.0370370
        k(   26) = (   0.1653548  -0.4775726   0.1651958), wk =   0.0370370
        k(   27) = (   0.1653548  -0.4775726   0.3303915), wk =   0.0370370
        k(   28) = (   0.1653548  -0.4775726  -0.4955873), wk =   0.0185185
        k(   29) = (   0.3307096   0.0000000   0.3303915), wk =   0.0370370
        k(   30) = (   0.3307096   0.0000000  -0.4955873), wk =   0.0185185
        k(   31) = (   0.3307096   0.1591909   0.3303915), wk =   0.0740741
        k(   32) = (   0.3307096   0.1591909  -0.4955873), wk =   0.0370370
        k(   33) = (   0.3307096   0.3183817   0.3303915), wk =   0.0740741
        k(   34) = (   0.3307096   0.3183817  -0.4955873), wk =   0.0370370
        k(   35) = (   0.3307096  -0.4775726   0.3303915), wk =   0.0370370
        k(   36) = (   0.3307096  -0.4775726  -0.4955873), wk =   0.0185185
        k(   37) = (  -0.4960644   0.0000000  -0.4955873), wk =   0.0092593
        k(   38) = (  -0.4960644   0.1591909  -0.4955873), wk =   0.0185185
        k(   39) = (  -0.4960644   0.3183817  -0.4955873), wk =   0.0185185
        k(   40) = (  -0.4960644  -0.4775726  -0.4955873), wk =   0.0092593
        k(   41) = (   0.1653548   0.0000000   0.0000000), wk =   0.0185185
        k(   42) = (   0.3307096   0.0000000   0.0000000), wk =   0.0185185
        k(   43) = (  -0.4960644   0.0000000   0.0000000), wk =   0.0092593
        k(   44) = (   0.1653548  -0.1591909   0.0000000), wk =   0.0370370
        k(   45) = (   0.3307096  -0.1591909   0.0000000), wk =   0.0370370
        k(   46) = (  -0.4960644  -0.1591909   0.0000000), wk =   0.0185185
        k(   47) = (   0.1653548  -0.3183817   0.0000000), wk =   0.0370370
        k(   48) = (   0.3307096  -0.3183817   0.0000000), wk =   0.0370370
        k(   49) = (  -0.4960644  -0.3183817   0.0000000), wk =   0.0185185
        k(   50) = (   0.1653548   0.4775726   0.0000000), wk =   0.0185185
        k(   51) = (   0.3307096   0.4775726   0.0000000), wk =   0.0185185
        k(   52) = (  -0.4960644   0.4775726   0.0000000), wk =   0.0092593
        k(   53) = (   0.3307096   0.0000000   0.1651958), wk =   0.0370370
        k(   54) = (  -0.4960644   0.0000000   0.1651958), wk =   0.0185185
        k(   55) = (   0.3307096  -0.1591909   0.1651958), wk =   0.0740741
        k(   56) = (  -0.4960644  -0.1591909   0.1651958), wk =   0.0370370
        k(   57) = (   0.3307096  -0.3183817   0.1651958), wk =   0.0740741
        k(   58) = (  -0.4960644  -0.3183817   0.1651958), wk =   0.0370370
        k(   59) = (   0.3307096   0.4775726   0.1651958), wk =   0.0370370
        k(   60) = (  -0.4960644   0.4775726   0.1651958), wk =   0.0185185
        k(   61) = (  -0.4960644   0.0000000   0.3303915), wk =   0.0185185
        k(   62) = (  -0.4960644  -0.1591909   0.3303915), wk =   0.0370370
        k(   63) = (  -0.4960644  -0.3183817   0.3303915), wk =   0.0370370
        k(   64) = (  -0.4960644   0.4775726   0.3303915), wk =   0.0185185

     Initial potential from superposition of free atoms

     starting charge  367.99656, renormalised to  368.00000
     Starting wfc are  232 randomized atomic wfcs

     Writing output data file Landau_9.save

     Self-consistent Calculation

[...]

     total energy              =   -6261.11024830 Ry
     Harris-Foulkes estimate   =   -6261.11024830 Ry
     estimated scf accuracy    <          3.5E-10 Ry

     iteration # 16     ecut=   120.00 Ry     beta= 0.70
     Davidson diagonalization with overlap
     ethr =  1.00E-13,  avg # of iterations =  2.2

     End of self-consistent calculation

[...]

          k = 0.3307 0.4776 0.1652 ( 62648 PWs)   bands (ev):

[...]

          k =-0.4961 0.4776 0.3304 ( 62656 PWs)   bands (ev):

   -66.2805 -66.2805 -66.2801 -66.2801 -66.2800 -66.2800 -66.2795 -66.2795
   -30.6391 -30.6391 -30.6320 -30.6320 -30.6301 -30.6301 -30.6266 -30.6266
   -30.6066 -30.6066 -30.5960 -30.5960 -30.5892 -30.5892 -30.5802 -30.5802
   -30.5721 -30.5721 -30.5607 -30.5607 -30.5590 -30.5590 -30.5394 -30.5394
   -20.4447 -20.4447 -20.4445 -20.4445 -20.4441 -20.4440 -20.4439 -20.4439
   -20.4239 -20.4239 -20.4236 -20.4236 -20.4226 -20.4226 -20.4222 -20.4222
   -20.4196 -20.4196 -20.4191 -20.4191 -20.4187 -20.4187 -20.4186 -20.4186
   -20.4166 -20.4166 -20.4163 -20.4163 -20.4158 -20.4158 -20.4155 -20.4155
   -20.4099 -20.4099 -20.4094 -20.4094 -20.4092 -20.4092 -20.4076 -20.4076
   -20.4067 -20.4067 -20.4060 -20.4060 -20.4057 -20.4057 -20.4051 -20.4051
   -20.4024 -20.4024 -20.4012 -20.4012 -20.4008 -20.4008 -20.4008 -20.4008
    -9.2939  -9.2939  -9.2530  -9.2530  -8.9006  -8.9006  -8.8618  -8.8618
    -8.6491  -8.6491  -8.6275  -8.6275  -8.4982  -8.4982  -8.4724  -8.4724
    -8.4561  -8.4561  -8.4213  -8.4213  -8.2404  -8.2404  -8.1760  -8.1760
     2.1299   2.1299   2.1834   2.1834   2.8705   2.8705   2.9315   2.9315
     3.0106   3.0107   3.0392   3.0392   3.1325   3.1325   3.1549   3.1549
     3.3150   3.3150   3.3542   3.3542   3.5041   3.5041   3.6000   3.6000
     3.6865   3.6865   3.7994   3.7994   4.1161   4.1161   4.1541   4.1541
     4.2162   4.2162   4.2671   4.2671   4.3580   4.3580   4.4326   4.4326
     4.5684   4.5684   4.6947   4.6947   4.9384   4.9384   4.9626   4.9626
     6.8876   6.8876   6.9921   6.9921   7.0560   7.0560   7.0691   7.0691
     7.1776   7.1776   7.2275   7.2275   7.3059   7.3059   7.3168   7.3168
     7.3892   7.3892   7.4680   7.4680   7.5066   7.5066   7.5596   7.5596
    11.3528  11.3528  11.4096  11.4096  11.5859  11.5859  11.6788  11.6788
    12.0562  12.0562  12.1158  12.1158  12.1573  12.1573  12.2234  12.2234
    12.3649  12.3649  12.4975  12.4975  12.7709  12.7709  12.8546  12.8546
    16.3775  16.3775  16.4548  16.4548  16.9449  16.9449  17.0102  17.0102
    17.2652  17.2652  17.3524  17.3525  17.4232

     the Fermi energy is     8.8317 ev

!    total energy              =   -6261.11024830 Ry
     Harris-Foulkes estimate   =   -6261.11024830 Ry
     estimated scf accuracy    <          2.7E-11 Ry

     The total energy is the sum of the following terms:

     one-electron contribution =   -4744.21372310 Ry
     hartree contribution      =    2607.41908005 Ry
     xc contribution           =    -965.66678203 Ry
     ewald contribution        =   -3158.64882322 Ry
     smearing contrib. (-TS)   =      -0.00000000 Ry

     convergence has been achieved in  16 iterations

     Forces acting on atoms (cartesian axes, Ry/au):

     atom    1 type  1   force =    -0.00080184    0.00506441    0.00244542
     atom    2 type  1   force =     0.00230786   -0.00531149   -0.00011950
     atom    3 type  1   force =     0.00080184   -0.00506441    0.00244542
     atom    4 type  1   force =    -0.00230786    0.00531149   -0.00011950
     atom    5 type  1   force =     0.00080184    0.00506441   -0.00244542
     atom    6 type  1   force =    -0.00230786   -0.00531149    0.00011950
     atom    7 type  1   force =    -0.00080184   -0.00506441   -0.00244542
     atom    8 type  1   force =     0.00230786    0.00531149    0.00011950
     atom    9 type  2   force =    -0.00055207   -0.00262498    0.00012022
     atom   10 type  2   force =    -0.00021169    0.00257176   -0.00025859
     atom   11 type  2   force =     0.00055207    0.00262498    0.00012022
     atom   12 type  2   force =     0.00021169   -0.00257176   -0.00025859
     atom   13 type  2   force =     0.00055207   -0.00262498   -0.00012022
     atom   14 type  2   force =     0.00021169    0.00257176    0.00025859
     atom   15 type  2   force =    -0.00055207    0.00262498   -0.00012022
     atom   16 type  2   force =    -0.00021169   -0.00257176    0.00025859
     atom   17 type  2   force =     0.00007843   -0.00069722   -0.00056502
     atom   18 type  2   force =     0.00135782   -0.00039138    0.00021464
     atom   19 type  2   force =    -0.00007843    0.00069722   -0.00056502
     atom   20 type  2   force =    -0.00135782    0.00039138    0.00021464
     atom   21 type  2   force =    -0.00007843   -0.00069722    0.00056502
     atom   22 type  2   force =    -0.00135782   -0.00039138   -0.00021464
     atom   23 type  2   force =     0.00007843    0.00069722    0.00056502
     atom   24 type  2   force =     0.00135782    0.00039138   -0.00021464
     atom   25 type  2   force =    -0.00099043   -0.00049510    0.00177652
     atom   26 type  2   force =     0.00111659    0.00042533    0.00011109
     atom   27 type  2   force =     0.00099043    0.00049510    0.00177652
     atom   28 type  2   force =    -0.00111659   -0.00042533    0.00011109
     atom   29 type  2   force =     0.00099043   -0.00049510   -0.00177652
     atom   30 type  2   force =    -0.00111659    0.00042533   -0.00011109
     atom   31 type  2   force =    -0.00099043    0.00049510   -0.00177652
     atom   32 type  2   force =     0.00111659   -0.00042533   -0.00011109

     Total force =     0.000000     Total SCF correction =     0.000000

     Computing stress (Cartesian axis) and pressure

          total   stress  (Ry/bohr**3)                   (kbar)     P=    0.25
   0.00000278   0.00000000   0.00000000          0.41      0.00      0.00
   0.00000000  -0.00000073   0.00000000          0.00     -0.11      0.00
   0.00000000   0.00000000   0.00000306          0.00      0.00      0.45

     Writing output data file Landau_9.save

     General routines

     Parallel routines

   This run was terminated on:   8: 6:21  23Mar2020

   JOB DONE.