     Program PWSCF v.6.2 (svn rev. 14038) starts on 28Aug2019 at 12: 6:32

     K-points division:     npool     =      64
     Reading input from scf.in

     Current dimensions of program PWSCF are:
     Max number of different atomic species (ntypx) = 10
     Max number of k-points (npk) =  40000
     Max angular momentum in pseudopotentials (lmaxx) =  3

     Subspace diagonalization in iterative solution of the eigenvalue problem:
     a serial algorithm will be used

     bravais-lattice index     =            0
     lattice parameter (alat)  =      13.8393  a.u.
     unit-cell volume          =    2804.6655 (a.u.)^3
     number of atoms/cell      =           32
     number of atomic types    =            2
     number of electrons       =       368.36
     number of Kohn-Sham states=          221
     kinetic-energy cutoff     =     120.0000  Ry
     charge density cutoff     =     480.0000  Ry
     convergence threshold     =      1.0E-08
     mixing beta               =       0.7000
     number of iterations used =            8  plain     mixing
     Exchange-correlation      = SLA PW NOGX NOGC ( 1  4  0  0 0 0)

     celldm(1)=  13.839318  celldm(2)=   0.000000  celldm(3)=   0.000000
     celldm(4)=   0.000000  celldm(5)=   0.000000  celldm(6)=   0.000000

     crystal axes: (cart. coord. in units of alat)
               a(1) = (   1.000000   0.000000   0.000000 )
               a(2) = (   0.000000   1.058104   0.000000 )
               a(3) = (   0.000000   0.000000   1.000020 )

     reciprocal axes: (cart. coord. in units 2 pi/alat)
               b(1) = (  1.000000  0.000000  0.000000 )
               b(2) = (  0.000000  0.945087  0.000000 )
               b(3) = (  0.000000  0.000000  0.999980 )

     PseudoPot. # 1 for W  read from file:
     /cluster/scratch/mnoe/QE/pps/W_ONCV_LDA-4.0.upf
     MD5 check sum: ba0307d5d4cd419d6f1d13dc49d7c13a
     Pseudo is Norm-conserving + core correction, Zval = 28.0
     Generated using ONCVPSP code by D. R. Hamann
     Using radial grid of 1380 points,  8 beta functions with:
                l(1) =   0
                l(2) =   0
                l(3) =   1
                l(4) =   1
                l(5) =   2
                l(6) =   2
                l(7) =   3
                l(8) =   3

     PseudoPot. # 2 for O  read from file:
     /cluster/scratch/mnoe/QE/pps/O_ONCV_LDA-3.0.upf
     MD5 check sum: b55cdb4f45ae2203d24ad12cf8d61a31
     Pseudo is Norm-conserving + core correction, Zval =  6.0
     Generated using ONCVPSP code by D. R. Hamann
     Using radial grid of  926 points,  5 beta functions with:
                l(1) =   0
                l(2) =   0
                l(3) =   1
                l(4) =   1
                l(5) =   2

     atomic species   valence    mass     pseudopotential
        W             28.00   183.84000     W ( 1.00)
        O              6.00    15.99940     O ( 1.00)

      8 Sym. Ops., with inversion, found ( 6 have fractional translation)

   Cartesian axes

     site n.     atom                  positions (alat units)
         1           W   tau(   1) = (   0.2490800   0.2982371   0.0008700  )
         2           W   tau(   2) = (   0.7509200   0.7598666   0.9991502  )
         3           W   tau(   3) = (   0.2509200   0.2308148   0.5008801  )
         4           W   tau(   4) = (   0.7490800   0.8272889   0.4991401  )
         5           W   tau(   5) = (   0.7509200   0.2982371   0.4991401  )
         6           W   tau(   6) = (   0.2490800   0.7598666   0.5008801  )
         7           W   tau(   7) = (   0.7490800   0.2308148   0.9991502  )
         8           W   tau(   8) = (   0.2509200   0.8272889   0.0008700  )
         9           O   tau(   9) = (   0.2482900   0.0088034   0.0002700  )
        10           O   tau(  10) = (   0.7517100   1.0493003   0.9997502  )
        11           O   tau(  11) = (   0.2517100   0.5202484   0.5002801  )
        12           O   tau(  12) = (   0.7482900   0.5378553   0.4997401  )
        13           O   tau(  13) = (   0.7517100   0.0088034   0.4997401  )
        14           O   tau(  14) = (   0.2482900   1.0493003   0.5002801  )
        15           O   tau(  15) = (   0.7482900   0.5202484   0.9997502  )
        16           O   tau(  16) = (   0.2517100   0.5378553   0.0002700  )
        17           O   tau(  17) = (   0.5002500   0.2626742   0.4495491  )
        18           O   tau(  18) = (   0.4997500   0.7954294   0.5504711  )
        19           O   tau(  19) = (   0.9997500   0.2663776   0.9495592  )
        20           O   tau(  20) = (   0.0002500   0.7917261   0.0504610  )
        21           O   tau(  21) = (   0.4997500   0.2626742   0.0504610  )
        22           O   tau(  22) = (   0.5002500   0.7954294   0.9495592  )
        23           O   tau(  23) = (   0.0002500   0.2663776   0.5504711  )
        24           O   tau(  24) = (   0.9997500   0.7917261   0.4495491  )
        25           O   tau(  25) = (   0.6995400   0.2641239   0.7496352  )
        26           O   tau(  26) = (   0.3004600   0.7939799   0.2503850  )
        27           O   tau(  27) = (   0.8004600   0.2649280   0.2496250  )
        28           O   tau(  28) = (   0.1995400   0.7931757   0.7503952  )
        29           O   tau(  29) = (   0.3004600   0.2641239   0.7503952  )
        30           O   tau(  30) = (   0.6995400   0.7939799   0.2496250  )
        31           O   tau(  31) = (   0.1995400   0.2649280   0.2503850  )
        32           O   tau(  32) = (   0.8004600   0.7931757   0.7496352  )

     number of k points=    64  gaussian smearing, width (Ry)=  0.0007
                       cart. coord. in units 2pi/alat
        k(    1) = (   0.0000000   0.0000000   0.0000000), wk =   0.0092593
        k(    2) = (   0.0000000   0.0000000   0.1666633), wk =   0.0185185
        k(    3) = (   0.0000000   0.0000000   0.3333266), wk =   0.0185185
        k(    4) = (   0.0000000   0.0000000  -0.4999899), wk =   0.0092593
        k(    5) = (   0.0000000   0.1575145   0.0000000), wk =   0.0185185
        k(    6) = (   0.0000000   0.1575145   0.1666633), wk =   0.0370370
        k(    7) = (   0.0000000   0.1575145   0.3333266), wk =   0.0370370
        k(    8) = (   0.0000000   0.1575145  -0.4999899), wk =   0.0185185
        k(    9) = (   0.0000000   0.3150290   0.0000000), wk =   0.0185185
        k(   10) = (   0.0000000   0.3150290   0.1666633), wk =   0.0370370
        k(   11) = (   0.0000000   0.3150290   0.3333266), wk =   0.0370370
        k(   12) = (   0.0000000   0.3150290  -0.4999899), wk =   0.0185185
        k(   13) = (   0.0000000  -0.4725435   0.0000000), wk =   0.0092593
        k(   14) = (   0.0000000  -0.4725435   0.1666633), wk =   0.0185185
        k(   15) = (   0.0000000  -0.4725435   0.3333266), wk =   0.0185185
        k(   16) = (   0.0000000  -0.4725435  -0.4999899), wk =   0.0092593
        k(   17) = (   0.1666667   0.0000000   0.0000000), wk =   0.0185185
        k(   18) = (   0.1666667   0.0000000   0.1666633), wk =   0.0370370
        k(   19) = (   0.1666667   0.0000000   0.3333266), wk =   0.0370370
        k(   20) = (   0.1666667   0.0000000  -0.4999899), wk =   0.0185185
        k(   21) = (   0.1666667   0.1575145   0.0000000), wk =   0.0370370
        k(   22) = (   0.1666667   0.1575145   0.1666633), wk =   0.0740741
        k(   23) = (   0.1666667   0.1575145   0.3333266), wk =   0.0740741
        k(   24) = (   0.1666667   0.1575145  -0.4999899), wk =   0.0370370
        k(   25) = (   0.1666667   0.3150290   0.0000000), wk =   0.0370370
        k(   26) = (   0.1666667   0.3150290   0.1666633), wk =   0.0740741
        k(   27) = (   0.1666667   0.3150290   0.3333266), wk =   0.0740741
        k(   28) = (   0.1666667   0.3150290  -0.4999899), wk =   0.0370370
        k(   29) = (   0.1666667  -0.4725435   0.0000000), wk =   0.0185185
        k(   30) = (   0.1666667  -0.4725435   0.1666633), wk =   0.0370370
        k(   31) = (   0.1666667  -0.4725435   0.3333266), wk =   0.0370370
        k(   32) = (   0.1666667  -0.4725435  -0.4999899), wk =   0.0185185
        k(   33) = (   0.3333333   0.0000000   0.0000000), wk =   0.0185185
        k(   34) = (   0.3333333   0.0000000   0.1666633), wk =   0.0370370
        k(   35) = (   0.3333333   0.0000000   0.3333266), wk =   0.0370370
        k(   36) = (   0.3333333   0.0000000  -0.4999899), wk =   0.0185185
        k(   37) = (   0.3333333   0.1575145   0.0000000), wk =   0.0370370
        k(   38) = (   0.3333333   0.1575145   0.1666633), wk =   0.0740741
        k(   39) = (   0.3333333   0.1575145   0.3333266), wk =   0.0740741
        k(   40) = (   0.3333333   0.1575145  -0.4999899), wk =   0.0370370
        k(   41) = (   0.3333333   0.3150290   0.0000000), wk =   0.0370370
        k(   42) = (   0.3333333   0.3150290   0.1666633), wk =   0.0740741
        k(   43) = (   0.3333333   0.3150290   0.3333266), wk =   0.0740741
        k(   44) = (   0.3333333   0.3150290  -0.4999899), wk =   0.0370370
        k(   45) = (   0.3333333  -0.4725435   0.0000000), wk =   0.0185185
        k(   46) = (   0.3333333  -0.4725435   0.1666633), wk =   0.0370370
        k(   47) = (   0.3333333  -0.4725435   0.3333266), wk =   0.0370370
        k(   48) = (   0.3333333  -0.4725435  -0.4999899), wk =   0.0185185
        k(   49) = (  -0.5000000   0.0000000   0.0000000), wk =   0.0092593
        k(   50) = (  -0.5000000   0.0000000   0.1666633), wk =   0.0185185
        k(   51) = (  -0.5000000   0.0000000   0.3333266), wk =   0.0185185
        k(   52) = (  -0.5000000   0.0000000  -0.4999899), wk =   0.0092593
        k(   53) = (  -0.5000000   0.1575145   0.0000000), wk =   0.0185185
        k(   54) = (  -0.5000000   0.1575145   0.1666633), wk =   0.0370370
        k(   55) = (  -0.5000000   0.1575145   0.3333266), wk =   0.0370370
        k(   56) = (  -0.5000000   0.1575145  -0.4999899), wk =   0.0185185
        k(   57) = (  -0.5000000   0.3150290   0.0000000), wk =   0.0185185
        k(   58) = (  -0.5000000   0.3150290   0.1666633), wk =   0.0370370
        k(   59) = (  -0.5000000   0.3150290   0.3333266), wk =   0.0370370
        k(   60) = (  -0.5000000   0.3150290  -0.4999899), wk =   0.0185185
        k(   61) = (  -0.5000000  -0.4725435   0.0000000), wk =   0.0092593
        k(   62) = (  -0.5000000  -0.4725435   0.1666633), wk =   0.0185185
        k(   63) = (  -0.5000000  -0.4725435   0.3333266), wk =   0.0185185
        k(   64) = (  -0.5000000  -0.4725435  -0.4999899), wk =   0.0092593

     Initial potential from superposition of free atoms

     starting charge  367.99656, renormalised to  368.36000
     Starting wfc are  232 randomized atomic wfcs

     Self-consistent Calculation

     iteration #  1     ecut=   120.00 Ry     beta= 0.70
     Davidson diagonalization with overlap
     ethr =  1.00E-02,  avg # of iterations =  5.1

     total energy              =   -6253.66097391 Ry
     Harris-Foulkes estimate   =   -6264.39492783 Ry
     estimated scf accuracy    <      13.54938844 Ry

[...]

     total energy              =   -6260.85768290 Ry
     Harris-Foulkes estimate   =   -6260.85768293 Ry
     estimated scf accuracy    <       0.00000005 Ry

     iteration # 13     ecut=   120.00 Ry     beta= 0.70
     Davidson diagonalization with overlap
     ethr =  1.48E-11,  avg # of iterations =  2.6

     End of self-consistent calculation

          k = 0.0000 0.0000 0.0000 ( 62239 PWs)   bands (ev):

   -66.0884 -66.0880 -66.0874 -66.0874 -66.0870 -66.0870 -66.0864 -66.0860
   -30.5130 -30.5097 -30.5097 -30.5065 -30.4535 -30.4508 -30.4507 -30.4481
   -30.4300 -30.4300 -30.4267 -30.4265 -30.4246 -30.4246 -30.4214 -30.4212
   -30.3286 -30.3285 -30.3259 -30.3258 -30.3242 -30.3241 -30.3215 -30.3214
   -20.2412 -20.2412 -20.2411 -20.2411 -20.2411 -20.2411 -20.2410 -20.2410
   -20.2369 -20.2366 -20.2366 -20.2364 -20.2314 -20.2311 -20.2311 -20.2309
   -20.2254 -20.2254 -20.2252 -20.2251 -20.2244 -20.2244 -20.2242 -20.2242
   -20.2230 -20.2230 -20.2228 -20.2228 -20.2221 -20.2221 -20.2218 -20.2217
   -20.2142 -20.2141 -20.2139 -20.2138 -20.2138 -20.2138 -20.2135 -20.2134
   -20.1993 -20.1993 -20.1993 -20.1992 -20.1979 -20.1979 -20.1979 -20.1978
   -20.1926 -20.1925 -20.1925 -20.1925 -20.1912 -20.1912 -20.1912 -20.1911
    -9.9294  -9.6453  -9.4896  -9.4895  -9.2112  -9.2110  -9.0696  -9.0217
    -9.0097  -8.8647  -8.8342  -8.8342  -7.8509  -7.7915  -7.7914  -7.7507
    -7.7506  -7.7396  -7.7247  -7.7247  -7.5945  -7.5944  -7.5733  -7.5733
     1.2335   1.2340   1.3091   1.3092   1.3293   1.3296   1.3918   1.6442
     1.6445   1.6486   1.6779   1.8840   2.4189   2.4929   2.5900   2.5901
     2.7402   2.7404   4.1559   4.1562   4.3785   4.3792   4.8463   4.8474
     4.8837   4.8841   4.9107   4.9108   5.0479   5.0479   5.0765   5.4435
     5.4440   5.5358   5.5374   5.5468   5.5469   5.5900   5.5914   5.8228
     5.8233   5.8997   5.8997   5.9517   5.9691   6.0600   6.0601   6.1435
     6.1435   6.2662   6.2666   6.5904   6.5905   6.8128   6.8135   6.8447
     6.8450   6.8992   7.0343   7.0369   7.1045   7.1048   7.4227   7.4231
     7.4670   7.4675   7.8075   7.8214   8.0872   8.0879   8.1547   8.1554
     9.2971   9.3045  10.0245  10.0247  10.0623  10.0626  12.2835  12.2856
    12.3161  12.3193  12.3549  12.3560  12.5295  12.5300  12.9150  12.9198
    13.2669  13.2679  13.4422  13.4428  13.8083  14.1899  14.1905  14.1926
    14.1951  14.3826  14.3874  14.8887  15.4742  15.4854  15.4956  16.0989
    16.0993  16.8443  17.0827  17.0833  17.4583

[...]

          k = 0.3333-0.4725-0.5000 ( 62196 PWs)   bands (ev):

[...]

          k =-0.5000 0.0000 0.0000 ( 62240 PWs)   bands (ev):

[...]

          k =-0.5000-0.4725-0.5000 ( 62272 PWs)   bands (ev):

   -66.0872 -66.0872 -66.0872 -66.0872 -66.0872 -66.0872 -66.0872 -66.0872
   -30.4814 -30.4814 -30.4814 -30.4814 -30.4813 -30.4813 -30.4813 -30.4813
   -30.3758 -30.3758 -30.3758 -30.3758 -30.3754 -30.3754 -30.3754 -30.3754
   -30.3749 -30.3749 -30.3749 -30.3749 -30.3745 -30.3745 -30.3745 -30.3745
   -20.2411 -20.2411 -20.2411 -20.2411 -20.2411 -20.2411 -20.2411 -20.2411
   -20.2341 -20.2341 -20.2341 -20.2341 -20.2341 -20.2340 -20.2340 -20.2340
   -20.2237 -20.2237 -20.2237 -20.2237 -20.2237 -20.2237 -20.2237 -20.2237
   -20.2234 -20.2234 -20.2234 -20.2234 -20.2234 -20.2234 -20.2234 -20.2234
   -20.2138 -20.2138 -20.2138 -20.2138 -20.2138 -20.2138 -20.2138 -20.2138
   -20.1954 -20.1954 -20.1954 -20.1954 -20.1954 -20.1954 -20.1954 -20.1954
   -20.1952 -20.1952 -20.1952 -20.1952 -20.1952 -20.1952 -20.1952 -20.1952
    -8.9133  -8.9133  -8.9133  -8.9133  -8.9117  -8.9117  -8.9117  -8.9117
    -8.3919  -8.3919  -8.3919  -8.3919  -8.3894  -8.3894  -8.3894  -8.3894
    -8.3206  -8.3206  -8.3206  -8.3206  -8.3190  -8.3190  -8.3189  -8.3189
     3.0285   3.0285   3.0285   3.0285   3.0319   3.0319   3.0319   3.0319
     3.1679   3.1679   3.1679   3.1679   3.1724   3.1724   3.1724   3.1724
     3.4638   3.4638   3.4638   3.4638   3.4783   3.4783   3.4783   3.4783
     4.1780   4.1780   4.1780   4.1780   4.1802   4.1802   4.1802   4.1802
     4.3973   4.3973   4.3973   4.3973   4.3980   4.3980   4.3980   4.3980
     4.4816   4.4816   4.4816   4.4816   4.4855   4.4855   4.4855   4.4855
     7.2074   7.2074   7.2075   7.2075   7.2261   7.2261   7.2261   7.2261
     7.3485   7.3485   7.3485   7.3485   7.3506   7.3506   7.3506   7.3506
     7.6271   7.6271   7.6271   7.6271   7.6317   7.6317   7.6317   7.6317
    11.8493  11.8493  11.8493  11.8493  11.8506  11.8506  11.8506  11.8506
    12.3135  12.3135  12.3135  12.3135  12.3302  12.3302  12.3302  12.3302
    12.5718  12.5718  12.5718  12.5718  12.5788  12.5788  12.5788  12.5788
    17.1692  17.1692  17.1692  17.1692  17.1773  17.1773  17.1773  17.1773
    17.3895  17.3895  17.3897  17.3898  17.3920

     the Fermi energy is     9.6708 ev

!    total energy              =   -6260.85768291 Ry
     Harris-Foulkes estimate   =   -6260.85768291 Ry
     estimated scf accuracy    <          1.2E-09 Ry

     The total energy is the sum of the following terms:

     one-electron contribution =   -4722.28212876 Ry
     hartree contribution      =    2598.96016704 Ry
     xc contribution           =    -966.06760828 Ry
     ewald contribution        =   -3171.46806955 Ry
     smearing contrib. (-TS)   =      -0.00004336 Ry

     convergence has been achieved in  13 iterations

     Writing output data file Landau_2.save

     General routines

     Parallel routines

   This run was terminated on:  12:21:19  28Aug2019

   JOB DONE.