     Program PWSCF v.6.2 (svn rev. 14038) starts on  4Mar2020 at 19:59:58

     K-points division:     npool     =      64
     Reading input from rscf.in

     Current dimensions of program PWSCF are:
     Max number of different atomic species (ntypx) = 10
     Max number of k-points (npk) =  40000
     Max angular momentum in pseudopotentials (lmaxx) =  3

     Subspace diagonalization in iterative solution of the eigenvalue problem:
     a serial algorithm will be used

     bravais-lattice index     =            0
     lattice parameter (alat)  =      13.8397  a.u.
     unit-cell volume          =    2804.9816 (a.u.)^3
     number of atoms/cell      =           32
     number of atomic types    =            2
     number of electrons       =       368.00
     number of Kohn-Sham states=          221
     kinetic-energy cutoff     =     120.0000  Ry
     charge density cutoff     =     480.0000  Ry
     convergence threshold     =      1.0E-08
     mixing beta               =       0.7000
     number of iterations used =            8  plain     mixing
     Exchange-correlation      = SLA PW NOGX NOGC ( 1  4  0  0 0 0)
     nstep                     =           50

     celldm(1)=  13.839685  celldm(2)=   0.000000  celldm(3)=   0.000000
     celldm(4)=   0.000000  celldm(5)=   0.000000  celldm(6)=   0.000000

     crystal axes: (cart. coord. in units of alat)
               a(1) = (   1.000000   0.000000   0.000000 )
               a(2) = (   0.000000   1.058160   0.000000 )
               a(3) = (   0.000000   0.000000   1.000000 )

     reciprocal axes: (cart. coord. in units 2 pi/alat)
               b(1) = (  1.000000  0.000000  0.000000 )
               b(2) = (  0.000000  0.945037  0.000000 )
               b(3) = (  0.000000  0.000000  1.000000 )

     PseudoPot. # 1 for W  read from file:
     /cluster/scratch/mnoe/QE/pps/W_ONCV_LDA-4.0.upf
     MD5 check sum: ba0307d5d4cd419d6f1d13dc49d7c13a
     Pseudo is Norm-conserving + core correction, Zval = 28.0
     Generated using ONCVPSP code by D. R. Hamann
     Using radial grid of 1380 points,  8 beta functions with:
                l(1) =   0
                l(2) =   0
                l(3) =   1
                l(4) =   1
                l(5) =   2
                l(6) =   2
                l(7) =   3
                l(8) =   3

     PseudoPot. # 2 for O  read from file:
     /cluster/scratch/mnoe/QE/pps/O_ONCV_LDA-3.0.upf
     MD5 check sum: a1bd6164e7280c17a38c229939bfbd54
     Pseudo is Norm-conserving + core correction, Zval =  6.0
     Generated using ONCVPSP code by D. R. Hamann
     Using radial grid of  926 points,  5 beta functions with:
                l(1) =   0
                l(2) =   0
                l(3) =   1
                l(4) =   1
                l(5) =   2

     atomic species   valence    mass     pseudopotential
        W             28.00   183.84000     W ( 1.00)
        O              6.00    15.99940     O ( 1.00)

      8 Sym. Ops., with inversion, found ( 6 have fractional translation)

   Cartesian axes

     site n.     atom                  positions (alat units)
         1           W   tau(   1) = (   0.2379800   0.2955178   0.0113600  )
         2           W   tau(   2) = (   0.7620200   0.7626423   0.9886400  )
         3           W   tau(   3) = (   0.2620200   0.2335623   0.5113600  )
         4           W   tau(   4) = (   0.7379800   0.8245978   0.4886400  )
         5           W   tau(   5) = (   0.7620200   0.2955178   0.4886400  )
         6           W   tau(   6) = (   0.2379800   0.7626423   0.5113600  )
         7           W   tau(   7) = (   0.7379800   0.2335623   0.9886400  )
         8           W   tau(   8) = (   0.2620200   0.8245978   0.0113600  )
         9           O   tau(   9) = (   0.2278200   0.0080587   0.0035300  )
        10           O   tau(  10) = (   0.7721800   1.0501013   0.9964700  )
        11           O   tau(  11) = (   0.2721800   0.5210213   0.5035300  )
        12           O   tau(  12) = (   0.7278199   0.5371388   0.4964700  )
        13           O   tau(  13) = (   0.7721800   0.0080587   0.4964700  )
        14           O   tau(  14) = (   0.2278200   1.0501013   0.5035300  )
        15           O   tau(  15) = (   0.7278199   0.5210213   0.9964700  )
        16           O   tau(  16) = (   0.2721800   0.5371388   0.0035300  )
        17           O   tau(  17) = (   0.5032900   0.2404563   0.4558605  )
        18           O   tau(  18) = (   0.4967100   0.8177038   0.5441395  )
        19           O   tau(  19) = (   0.9967100   0.2886238   0.9558606  )
        20           O   tau(  20) = (   0.0032899   0.7695363   0.0441394  )
        21           O   tau(  21) = (   0.4967100   0.2404563   0.0441394  )
        22           O   tau(  22) = (   0.5032900   0.8177038   0.9558606  )
        23           O   tau(  23) = (   0.0032899   0.2886238   0.5441395  )
        24           O   tau(  24) = (   0.9967100   0.7695363   0.4558605  )
        25           O   tau(  25) = (   0.7058606   0.2592810   0.7450100  )
        26           O   tau(  26) = (   0.2941394   0.7988791   0.2549900  )
        27           O   tau(  27) = (   0.7941395   0.2697991   0.2450100  )
        28           O   tau(  28) = (   0.2058606   0.7883610   0.7549900  )
        29           O   tau(  29) = (   0.2941394   0.2592810   0.7549900  )
        30           O   tau(  30) = (   0.7058606   0.7988791   0.2450100  )
        31           O   tau(  31) = (   0.2058606   0.2697991   0.2549900  )
        32           O   tau(  32) = (   0.7941395   0.7883610   0.7450100  )

     number of k points=    64  gaussian smearing, width (Ry)=  0.0007
                       cart. coord. in units 2pi/alat
        k(    1) = (   0.0000000   0.0000000   0.0000000), wk =   0.0092593
        k(    2) = (   0.0000000   0.0000000   0.1666667), wk =   0.0185185
        k(    3) = (   0.0000000   0.0000000   0.3333333), wk =   0.0185185
        k(    4) = (   0.0000000   0.0000000  -0.5000000), wk =   0.0092593
        k(    5) = (   0.0000000   0.1575061   0.0000000), wk =   0.0185185
        k(    6) = (   0.0000000   0.1575061   0.1666667), wk =   0.0370370
        k(    7) = (   0.0000000   0.1575061   0.3333333), wk =   0.0370370
        k(    8) = (   0.0000000   0.1575061  -0.5000000), wk =   0.0185185
        k(    9) = (   0.0000000   0.3150122   0.0000000), wk =   0.0185185
        k(   10) = (   0.0000000   0.3150122   0.1666667), wk =   0.0370370
        k(   11) = (   0.0000000   0.3150122   0.3333333), wk =   0.0370370
        k(   12) = (   0.0000000   0.3150122  -0.5000000), wk =   0.0185185
        k(   13) = (   0.0000000  -0.4725183   0.0000000), wk =   0.0092593
        k(   14) = (   0.0000000  -0.4725183   0.1666667), wk =   0.0185185
        k(   15) = (   0.0000000  -0.4725183   0.3333333), wk =   0.0185185
        k(   16) = (   0.0000000  -0.4725183  -0.5000000), wk =   0.0092593
        k(   17) = (   0.1666667   0.0000000   0.1666667), wk =   0.0370370
        k(   18) = (   0.1666667   0.0000000   0.3333333), wk =   0.0370370
        k(   19) = (   0.1666667   0.0000000  -0.5000000), wk =   0.0185185
        k(   20) = (   0.1666667   0.1575061   0.1666667), wk =   0.0740741
        k(   21) = (   0.1666667   0.1575061   0.3333333), wk =   0.0740741
        k(   22) = (   0.1666667   0.1575061  -0.5000000), wk =   0.0370370
        k(   23) = (   0.1666667   0.3150122   0.1666667), wk =   0.0740741
        k(   24) = (   0.1666667   0.3150122   0.3333333), wk =   0.0740741
        k(   25) = (   0.1666667   0.3150122  -0.5000000), wk =   0.0370370
        k(   26) = (   0.1666667  -0.4725183   0.1666667), wk =   0.0370370
        k(   27) = (   0.1666667  -0.4725183   0.3333333), wk =   0.0370370
        k(   28) = (   0.1666667  -0.4725183  -0.5000000), wk =   0.0185185
        k(   29) = (   0.3333333   0.0000000   0.3333333), wk =   0.0370370
        k(   30) = (   0.3333333   0.0000000  -0.5000000), wk =   0.0185185
        k(   31) = (   0.3333333   0.1575061   0.3333333), wk =   0.0740741
        k(   32) = (   0.3333333   0.1575061  -0.5000000), wk =   0.0370370
        k(   33) = (   0.3333333   0.3150122   0.3333333), wk =   0.0740741
        k(   34) = (   0.3333333   0.3150122  -0.5000000), wk =   0.0370370
        k(   35) = (   0.3333333  -0.4725183   0.3333333), wk =   0.0370370
        k(   36) = (   0.3333333  -0.4725183  -0.5000000), wk =   0.0185185
        k(   37) = (  -0.5000000   0.0000000  -0.5000000), wk =   0.0092593
        k(   38) = (  -0.5000000   0.1575061  -0.5000000), wk =   0.0185185
        k(   39) = (  -0.5000000   0.3150122  -0.5000000), wk =   0.0185185
        k(   40) = (  -0.5000000  -0.4725183  -0.5000000), wk =   0.0092593
        k(   41) = (   0.1666667   0.0000000   0.0000000), wk =   0.0185185
        k(   42) = (   0.3333333   0.0000000   0.0000000), wk =   0.0185185
        k(   43) = (  -0.5000000   0.0000000   0.0000000), wk =   0.0092593
        k(   44) = (   0.1666667  -0.1575061   0.0000000), wk =   0.0370370
        k(   45) = (   0.3333333  -0.1575061   0.0000000), wk =   0.0370370
        k(   46) = (  -0.5000000  -0.1575061   0.0000000), wk =   0.0185185
        k(   47) = (   0.1666667  -0.3150122   0.0000000), wk =   0.0370370
        k(   48) = (   0.3333333  -0.3150122   0.0000000), wk =   0.0370370
        k(   49) = (  -0.5000000  -0.3150122   0.0000000), wk =   0.0185185
        k(   50) = (   0.1666667   0.4725183   0.0000000), wk =   0.0185185
        k(   51) = (   0.3333333   0.4725183   0.0000000), wk =   0.0185185
        k(   52) = (  -0.5000000   0.4725183   0.0000000), wk =   0.0092593
        k(   53) = (   0.3333333   0.0000000   0.1666667), wk =   0.0370370
        k(   54) = (  -0.5000000   0.0000000   0.1666667), wk =   0.0185185
        k(   55) = (   0.3333333  -0.1575061   0.1666667), wk =   0.0740741
        k(   56) = (  -0.5000000  -0.1575061   0.1666667), wk =   0.0370370
        k(   57) = (   0.3333333  -0.3150122   0.1666667), wk =   0.0740741
        k(   58) = (  -0.5000000  -0.3150122   0.1666667), wk =   0.0370370
        k(   59) = (   0.3333333   0.4725183   0.1666667), wk =   0.0370370
        k(   60) = (  -0.5000000   0.4725183   0.1666667), wk =   0.0185185
        k(   61) = (  -0.5000000   0.0000000   0.3333333), wk =   0.0185185
        k(   62) = (  -0.5000000  -0.1575061   0.3333333), wk =   0.0370370
        k(   63) = (  -0.5000000  -0.3150122   0.3333333), wk =   0.0370370
        k(   64) = (  -0.5000000   0.4725183   0.3333333), wk =   0.0185185

     Initial potential from superposition of free atoms

     starting charge  367.99656, renormalised to  368.00000
     Starting wfc are  232 randomized atomic wfcs

     Self-consistent Calculation

     iteration #  1     ecut=   120.00 Ry     beta= 0.70
     Davidson diagonalization with overlap
     ethr =  1.00E-02,  avg # of iterations =  5.0

     total energy              =   -6253.99653099 Ry
     Harris-Foulkes estimate   =   -6264.56500830 Ry
     estimated scf accuracy    <      13.38624327 Ry

[...]

     End of self-consistent calculation

[...]
End final coordinates

     A final scf calculation at the relaxed structure.
     The G-vectors are recalculated for the final unit cell
     Results may differ from those at the preceding step.

     bravais-lattice index     =            0
     lattice parameter (alat)  =      13.8397  a.u.
     unit-cell volume          =    2808.7229 (a.u.)^3
     number of atoms/cell      =           32
     number of atomic types    =            2
     number of electrons       =       368.00
     number of Kohn-Sham states=          221
     kinetic-energy cutoff     =     120.0000  Ry
     charge density cutoff     =     480.0000  Ry
     convergence threshold     =      1.0E-10
     mixing beta               =       0.7000
     number of iterations used =            8  plain     mixing
     Exchange-correlation      = SLA PW NOGX NOGC ( 1  4  0  0 0 0)

     celldm(1)=  13.839685  celldm(2)=   0.000000  celldm(3)=   0.000000
     celldm(4)=   0.000000  celldm(5)=   0.000000  celldm(6)=   0.000000

     crystal axes: (cart. coord. in units of alat)
               a(1) = (   1.005145   0.000000   0.000000 )
               a(2) = (   0.000000   1.045410   0.000000 )
               a(3) = (   0.000000   0.000000   1.008359 )

     reciprocal axes: (cart. coord. in units 2 pi/alat)
               b(1) = (  0.994882  0.000000  0.000000 )
               b(2) = (  0.000000  0.956563  0.000000 )
               b(3) = (  0.000000  0.000000  0.991710 )

     PseudoPot. # 1 for W  read from file:
     /cluster/scratch/mnoe/QE/pps/W_ONCV_LDA-4.0.upf
     MD5 check sum: ba0307d5d4cd419d6f1d13dc49d7c13a
     Pseudo is Norm-conserving + core correction, Zval = 28.0
     Generated using ONCVPSP code by D. R. Hamann
     Using radial grid of 1380 points,  8 beta functions with:
                l(1) =   0
                l(2) =   0
                l(3) =   1
                l(4) =   1
                l(5) =   2
                l(6) =   2
                l(7) =   3
                l(8) =   3

     PseudoPot. # 2 for O  read from file:
     /cluster/scratch/mnoe/QE/pps/O_ONCV_LDA-3.0.upf
     MD5 check sum: a1bd6164e7280c17a38c229939bfbd54
     Pseudo is Norm-conserving + core correction, Zval =  6.0
     Generated using ONCVPSP code by D. R. Hamann
     Using radial grid of  926 points,  5 beta functions with:
                l(1) =   0
                l(2) =   0
                l(3) =   1
                l(4) =   1
                l(5) =   2

     atomic species   valence    mass     pseudopotential
        W             28.00   183.84000     W ( 1.00)
        O              6.00    15.99940     O ( 1.00)

      8 Sym. Ops., with inversion, found ( 6 have fractional translation)

   Cartesian axes

     site n.     atom                  positions (alat units)
         1           W   tau(   1) = (   0.2392043   0.2919569   0.0114550  )
         2           W   tau(   2) = (   0.7659403   0.7534528   0.9969040  )
         3           W   tau(   3) = (   0.2633680   0.2307479   0.5156344  )
         4           W   tau(   4) = (   0.7417766   0.8146618   0.4927246  )
         5           W   tau(   5) = (   0.7659403   0.2919569   0.4927246  )
         6           W   tau(   6) = (   0.2392043   0.7534528   0.5156344  )
         7           W   tau(   7) = (   0.7417766   0.2307479   0.9969040  )
         8           W   tau(   8) = (   0.2633680   0.8146618   0.0114550  )
         9           O   tau(   9) = (   0.2289920   0.0079616   0.0035595  )
        10           O   tau(  10) = (   0.7761526   1.0374481   1.0047994  )
        11           O   tau(  11) = (   0.2735803   0.5147432   0.5077390  )
        12           O   tau(  12) = (   0.7315643   0.5306665   0.5006200  )
        13           O   tau(  13) = (   0.7761526   0.0079616   0.5006200  )
        14           O   tau(  14) = (   0.2289920   1.0374481   0.5077390  )
        15           O   tau(  15) = (   0.7315643   0.5147432   1.0047994  )
        16           O   tau(  16) = (   0.2735803   0.5306665   0.0035595  )
        17           O   tau(  17) = (   0.5058792   0.2375589   0.4596711  )
        18           O   tau(  18) = (   0.4992654   0.8078508   0.5486879  )
        19           O   tau(  19) = (   1.0018377   0.2851460   0.9638506  )
        20           O   tau(  20) = (   0.0033069   0.7602637   0.0445084  )
        21           O   tau(  21) = (   0.4992654   0.2375589   0.0445084  )
        22           O   tau(  22) = (   0.5058792   0.8078508   0.9638506  )
        23           O   tau(  23) = (   0.0033069   0.2851460   0.5486879  )
        24           O   tau(  24) = (   1.0018377   0.7602637   0.4596711  )
        25           O   tau(  25) = (   0.7094919   0.2561567   0.7512375  )
        26           O   tau(  26) = (   0.2956527   0.7892530   0.2571214  )
        27           O   tau(  27) = (   0.7982250   0.2665481   0.2470581  )
        28           O   tau(  28) = (   0.2069196   0.7788616   0.7613009  )
        29           O   tau(  29) = (   0.2956527   0.2561567   0.7613009  )
        30           O   tau(  30) = (   0.7094919   0.7892530   0.2470581  )
        31           O   tau(  31) = (   0.2069196   0.2665481   0.2571214  )
        32           O   tau(  32) = (   0.7982250   0.7788616   0.7512375  )

     number of k points=    64  gaussian smearing, width (Ry)=  0.0007
                       cart. coord. in units 2pi/alat
        k(    1) = (   0.0000000   0.0000000   0.0000000), wk =   0.0092593
        k(    2) = (   0.0000000   0.0000000   0.1652850), wk =   0.0185185
        k(    3) = (   0.0000000   0.0000000   0.3305701), wk =   0.0185185
        k(    4) = (   0.0000000   0.0000000  -0.4958551), wk =   0.0092593
        k(    5) = (   0.0000000   0.1594271   0.0000000), wk =   0.0185185
        k(    6) = (   0.0000000   0.1594271   0.1652850), wk =   0.0370370
        k(    7) = (   0.0000000   0.1594271   0.3305701), wk =   0.0370370
        k(    8) = (   0.0000000   0.1594271  -0.4958551), wk =   0.0185185
        k(    9) = (   0.0000000   0.3188543   0.0000000), wk =   0.0185185
        k(   10) = (   0.0000000   0.3188543   0.1652850), wk =   0.0370370
        k(   11) = (   0.0000000   0.3188543   0.3305701), wk =   0.0370370
        k(   12) = (   0.0000000   0.3188543  -0.4958551), wk =   0.0185185
        k(   13) = (   0.0000000  -0.4782814   0.0000000), wk =   0.0092593
        k(   14) = (   0.0000000  -0.4782814   0.1652850), wk =   0.0185185
        k(   15) = (   0.0000000  -0.4782814   0.3305701), wk =   0.0185185
        k(   16) = (   0.0000000  -0.4782814  -0.4958551), wk =   0.0092593
        k(   17) = (   0.1658136   0.0000000   0.1652850), wk =   0.0370370
        k(   18) = (   0.1658136   0.0000000   0.3305701), wk =   0.0370370
        k(   19) = (   0.1658136   0.0000000  -0.4958551), wk =   0.0185185
        k(   20) = (   0.1658136   0.1594271   0.1652850), wk =   0.0740741
        k(   21) = (   0.1658136   0.1594271   0.3305701), wk =   0.0740741
        k(   22) = (   0.1658136   0.1594271  -0.4958551), wk =   0.0370370
        k(   23) = (   0.1658136   0.3188543   0.1652850), wk =   0.0740741
        k(   24) = (   0.1658136   0.3188543   0.3305701), wk =   0.0740741
        k(   25) = (   0.1658136   0.3188543  -0.4958551), wk =   0.0370370
        k(   26) = (   0.1658136  -0.4782814   0.1652850), wk =   0.0370370
        k(   27) = (   0.1658136  -0.4782814   0.3305701), wk =   0.0370370
        k(   28) = (   0.1658136  -0.4782814  -0.4958551), wk =   0.0185185
        k(   29) = (   0.3316272   0.0000000   0.3305701), wk =   0.0370370
        k(   30) = (   0.3316272   0.0000000  -0.4958551), wk =   0.0185185
        k(   31) = (   0.3316272   0.1594271   0.3305701), wk =   0.0740741
        k(   32) = (   0.3316272   0.1594271  -0.4958551), wk =   0.0370370
        k(   33) = (   0.3316272   0.3188543   0.3305701), wk =   0.0740741
        k(   34) = (   0.3316272   0.3188543  -0.4958551), wk =   0.0370370
        k(   35) = (   0.3316272  -0.4782814   0.3305701), wk =   0.0370370
        k(   36) = (   0.3316272  -0.4782814  -0.4958551), wk =   0.0185185
        k(   37) = (  -0.4974409   0.0000000  -0.4958551), wk =   0.0092593
        k(   38) = (  -0.4974409   0.1594271  -0.4958551), wk =   0.0185185
        k(   39) = (  -0.4974409   0.3188543  -0.4958551), wk =   0.0185185
        k(   40) = (  -0.4974409  -0.4782814  -0.4958551), wk =   0.0092593
        k(   41) = (   0.1658136   0.0000000   0.0000000), wk =   0.0185185
        k(   42) = (   0.3316272   0.0000000   0.0000000), wk =   0.0185185
        k(   43) = (  -0.4974409   0.0000000   0.0000000), wk =   0.0092593
        k(   44) = (   0.1658136  -0.1594271   0.0000000), wk =   0.0370370
        k(   45) = (   0.3316272  -0.1594271   0.0000000), wk =   0.0370370
        k(   46) = (  -0.4974409  -0.1594271   0.0000000), wk =   0.0185185
        k(   47) = (   0.1658136  -0.3188543   0.0000000), wk =   0.0370370
        k(   48) = (   0.3316272  -0.3188543   0.0000000), wk =   0.0370370
        k(   49) = (  -0.4974409  -0.3188543   0.0000000), wk =   0.0185185
        k(   50) = (   0.1658136   0.4782814   0.0000000), wk =   0.0185185
        k(   51) = (   0.3316272   0.4782814   0.0000000), wk =   0.0185185
        k(   52) = (  -0.4974409   0.4782814   0.0000000), wk =   0.0092593
        k(   53) = (   0.3316272   0.0000000   0.1652850), wk =   0.0370370
        k(   54) = (  -0.4974409   0.0000000   0.1652850), wk =   0.0185185
        k(   55) = (   0.3316272  -0.1594271   0.1652850), wk =   0.0740741
        k(   56) = (  -0.4974409  -0.1594271   0.1652850), wk =   0.0370370
        k(   57) = (   0.3316272  -0.3188543   0.1652850), wk =   0.0740741
        k(   58) = (  -0.4974409  -0.3188543   0.1652850), wk =   0.0370370
        k(   59) = (   0.3316272   0.4782814   0.1652850), wk =   0.0370370
        k(   60) = (  -0.4974409   0.4782814   0.1652850), wk =   0.0185185
        k(   61) = (  -0.4974409   0.0000000   0.3305701), wk =   0.0185185
        k(   62) = (  -0.4974409  -0.1594271   0.3305701), wk =   0.0370370
        k(   63) = (  -0.4974409  -0.3188543   0.3305701), wk =   0.0370370
        k(   64) = (  -0.4974409   0.4782814   0.3305701), wk =   0.0185185

     Initial potential from superposition of free atoms

     starting charge  367.99656, renormalised to  368.00000
     Starting wfc are  232 randomized atomic wfcs

     Writing output data file Landau_26.save

     Self-consistent Calculation

[...]

     total energy              =   -6261.11312642 Ry
     Harris-Foulkes estimate   =   -6261.11312642 Ry
     estimated scf accuracy    <          1.0E-09 Ry

     iteration # 14     ecut=   120.00 Ry     beta= 0.70
     Davidson diagonalization with overlap
     ethr =  2.77E-13,  avg # of iterations =  2.8

     End of self-consistent calculation

[...]

          k = 0.3316 0.4783 0.1653 ( 62366 PWs)   bands (ev):

[...]

          k =-0.4974 0.4783 0.3306 ( 62336 PWs)   bands (ev):

   -66.1877 -66.1877 -66.1877 -66.1877 -66.1873 -66.1873 -66.1873 -66.1873
   -30.5439 -30.5439 -30.5432 -30.5432 -30.5385 -30.5385 -30.5374 -30.5374
   -30.5172 -30.5172 -30.5166 -30.5166 -30.4903 -30.4903 -30.4897 -30.4896
   -30.4829 -30.4829 -30.4815 -30.4815 -30.4656 -30.4656 -30.4652 -30.4652
   -20.3512 -20.3512 -20.3511 -20.3511 -20.3509 -20.3509 -20.3509 -20.3509
   -20.3300 -20.3300 -20.3300 -20.3300 -20.3296 -20.3296 -20.3296 -20.3296
   -20.3255 -20.3255 -20.3255 -20.3255 -20.3253 -20.3253 -20.3253 -20.3253
   -20.3213 -20.3213 -20.3211 -20.3211 -20.3211 -20.3211 -20.3209 -20.3209
   -20.3145 -20.3145 -20.3144 -20.3144 -20.3135 -20.3135 -20.3134 -20.3134
   -20.3134 -20.3134 -20.3133 -20.3132 -20.3110 -20.3110 -20.3110 -20.3110
   -20.3034 -20.3034 -20.3034 -20.3034 -20.3026 -20.3026 -20.3026 -20.3026
    -9.2049  -9.2049  -9.1945  -9.1945  -8.8166  -8.8166  -8.7905  -8.7904
    -8.5680  -8.5680  -8.5433  -8.5433  -8.4184  -8.4183  -8.3908  -8.3908
    -8.3591  -8.3591  -8.3384  -8.3384  -8.1408  -8.1408  -8.1399  -8.1399
     2.2298   2.2298   2.2438   2.2438   2.9340   2.9340   2.9897   2.9897
     3.0755   3.0755   3.0972   3.0972   3.1869   3.1869   3.2136   3.2136
     3.4218   3.4218   3.4681   3.4681   3.5840   3.5840   3.6421   3.6421
     3.7893   3.7893   3.9351   3.9351   4.2116   4.2116   4.2243   4.2243
     4.2803   4.2803   4.3482   4.3482   4.4562   4.4562   4.5509   4.5509
     4.6665   4.6665   4.7913   4.7913   5.0114   5.0114   5.0418   5.0418
     6.9508   6.9508   7.0558   7.0558   7.1196   7.1196   7.1430   7.1430
     7.2279   7.2279   7.2955   7.2955   7.3660   7.3660   7.3963   7.3963
     7.4610   7.4610   7.5494   7.5494   7.5653   7.5653   7.6208   7.6208
    11.4798  11.4798  11.5252  11.5252  11.6534  11.6534  11.7599  11.7599
    12.1660  12.1660  12.2302  12.2302  12.2345  12.2345  12.3639  12.3639
    12.4721  12.4721  12.6117  12.6117  12.8605  12.8605  12.9443  12.9443
    16.4336  16.4336  16.4816  16.4816  16.9993  16.9993  17.1057  17.1058
    17.2837  17.2838  17.3961  17.3968  17.4496

     the Fermi energy is     8.9795 ev

!    total energy              =   -6261.11312642 Ry
     Harris-Foulkes estimate   =   -6261.11312642 Ry
     estimated scf accuracy    <          9.7E-11 Ry

     The total energy is the sum of the following terms:

     one-electron contribution =   -4721.81355162 Ry
     hartree contribution      =    2597.35598729 Ry
     xc contribution           =    -965.66475396 Ry
     ewald contribution        =   -3170.99080813 Ry
     smearing contrib. (-TS)   =      -0.00000000 Ry

     convergence has been achieved in  14 iterations

     Forces acting on atoms (cartesian axes, Ry/au):

     atom    1 type  1   force =    -0.00180151    0.00145678    0.00120827
     atom    2 type  1   force =     0.00180151   -0.00145678   -0.00120827
     atom    3 type  1   force =     0.00180151   -0.00145678    0.00120827
     atom    4 type  1   force =    -0.00180151    0.00145678   -0.00120827
     atom    5 type  1   force =     0.00180151    0.00145678   -0.00120827
     atom    6 type  1   force =    -0.00180151   -0.00145678    0.00120827
     atom    7 type  1   force =    -0.00180151   -0.00145678   -0.00120827
     atom    8 type  1   force =     0.00180151    0.00145678    0.00120827
     atom    9 type  2   force =    -0.00020960   -0.00058525    0.00009011
     atom   10 type  2   force =     0.00020960    0.00058525   -0.00009011
     atom   11 type  2   force =     0.00020960    0.00058525    0.00009011
     atom   12 type  2   force =    -0.00020960   -0.00058525   -0.00009011
     atom   13 type  2   force =     0.00020960   -0.00058525   -0.00009011
     atom   14 type  2   force =    -0.00020960    0.00058525    0.00009011
     atom   15 type  2   force =    -0.00020960    0.00058525   -0.00009011
     atom   16 type  2   force =     0.00020960   -0.00058525    0.00009011
     atom   17 type  2   force =    -0.00100887   -0.00003121    0.00083395
     atom   18 type  2   force =     0.00100887    0.00003121   -0.00083395
     atom   19 type  2   force =     0.00100887    0.00003121    0.00083395
     atom   20 type  2   force =    -0.00100887   -0.00003121   -0.00083395
     atom   21 type  2   force =     0.00100887   -0.00003121   -0.00083395
     atom   22 type  2   force =    -0.00100887    0.00003121    0.00083395
     atom   23 type  2   force =    -0.00100887    0.00003121   -0.00083395
     atom   24 type  2   force =     0.00100887   -0.00003121    0.00083395
     atom   25 type  2   force =    -0.00115594   -0.00042960    0.00082303
     atom   26 type  2   force =     0.00115594    0.00042960   -0.00082303
     atom   27 type  2   force =     0.00115594    0.00042960    0.00082303
     atom   28 type  2   force =    -0.00115594   -0.00042960   -0.00082303
     atom   29 type  2   force =     0.00115594   -0.00042960   -0.00082303
     atom   30 type  2   force =    -0.00115594    0.00042960    0.00082303
     atom   31 type  2   force =    -0.00115594    0.00042960   -0.00082303
     atom   32 type  2   force =     0.00115594   -0.00042960    0.00082303

     Total force =     0.000000     Total SCF correction =     0.000000

     Computing stress (Cartesian axis) and pressure

          total   stress  (Ry/bohr**3)                   (kbar)     P=    0.11
   0.00000137   0.00000000   0.00000000          0.20      0.00      0.00
   0.00000000  -0.00000139   0.00000000          0.00     -0.20      0.00
   0.00000000   0.00000000   0.00000221          0.00      0.00      0.33

     Writing output data file Landau_26.save

     General routines

     Parallel routines

   This run was terminated on:  22: 8:56   4Mar2020

   JOB DONE.