     Program PWSCF v.6.4.1 starts on 21Nov2019 at 17:23:27

     K-points division:     npool     =      40
     Reading input from rscf.in

     Current dimensions of program PWSCF are:
     Max number of different atomic species (ntypx) = 10
     Max number of k-points (npk) =  40000
     Max angular momentum in pseudopotentials (lmaxx) =  3

     Subspace diagonalization in iterative solution of the eigenvalue problem:
     a serial algorithm will be used

     Message from routine setup:
     using ibrav=0 with symmetry is DISCOURAGED, use correct ibrav instead

     bravais-lattice index     =            0
     lattice parameter (alat)  =       9.7849  a.u.
     unit-cell volume          =    1402.1515 (a.u.)^3
     number of atoms/cell      =           16
     number of atomic types    =            2
     number of electrons       =       184.00
     number of Kohn-Sham states=          110
     kinetic-energy cutoff     =     120.0000  Ry
     charge density cutoff     =     480.0000  Ry
     convergence threshold     =      1.0E-08
     mixing beta               =       0.7000
     number of iterations used =            8  plain     mixing
     Exchange-correlation      = SLA PW NOGX NOGC ( 1  4  0  0 0 0)
     nstep                     =           50

     celldm(1)=   9.784926  celldm(2)=   0.000000  celldm(3)=   0.000000
     celldm(4)=   0.000000  celldm(5)=   0.000000  celldm(6)=   0.000000

     crystal axes: (cart. coord. in units of alat)
               a(1) = (   1.000000   0.000000   0.000000 )
               a(2) = (   0.000000   1.000000   0.000000 )
               a(3) = (   0.000000   0.000000   1.496657 )

     reciprocal axes: (cart. coord. in units 2 pi/alat)
               b(1) = (  1.000000  0.000000  0.000000 )
               b(2) = (  0.000000  1.000000  0.000000 )
               b(3) = (  0.000000  0.000000  0.668156 )

     PseudoPot. # 1 for W  read from file:
     /cluster/scratch/mnoe/QE/pps/W_ONCV_LDA-4.0.upf
     MD5 check sum: ba0307d5d4cd419d6f1d13dc49d7c13a
     Pseudo is Norm-conserving + core correction, Zval = 28.0
     Generated using ONCVPSP code by D. R. Hamann
     Using radial grid of 1380 points,  8 beta functions with:
                l(1) =   0
                l(2) =   0
                l(3) =   1
                l(4) =   1
                l(5) =   2
                l(6) =   2
                l(7) =   3
                l(8) =   3

     PseudoPot. # 2 for O  read from file:
     /cluster/scratch/mnoe/QE/pps/O_ONCV_LDA-3.0.upf
     MD5 check sum: b55cdb4f45ae2203d24ad12cf8d61a31
     Pseudo is Norm-conserving + core correction, Zval =  6.0
     Generated using ONCVPSP code by D. R. Hamann
     Using radial grid of  926 points,  5 beta functions with:
                l(1) =   0
                l(2) =   0
                l(3) =   1
                l(4) =   1
                l(5) =   2

     atomic species   valence    mass     pseudopotential
        W             28.00   183.84000     W ( 1.00)
        O              6.00    15.99940     O ( 1.00)

     16 Sym. Ops., with inversion, found (14 have fractional translation)

   Cartesian axes

     site n.     atom                  positions (alat units)
         1           W   tau(   1) = (   0.2500000   0.2500000   0.3213697  )
         2           W   tau(   2) = (   0.7500000   0.7500000   1.1752873  )
         3           W   tau(   3) = (   0.7500000   0.7500000   0.4269588  )
         4           W   tau(   4) = (   0.2500000   0.2500000   1.0696982  )
         5           O   tau(   5) = (   0.2500000   0.2500000   0.7262459  )
         6           O   tau(   6) = (   0.7500000   0.7500000   0.7704111  )
         7           O   tau(   7) = (   0.7500000   0.7500000   0.0220827  )
         8           O   tau(   8) = (   0.2500000   0.2500000   1.4745744  )
         9           O   tau(   9) = (   0.4669641   0.5330358   0.3741643  )
        10           O   tau(  10) = (   0.5330359   0.4669642   1.1224928  )
        11           O   tau(  11) = (   0.0330359   0.9669642   0.3741643  )
        12           O   tau(  12) = (   0.9669641   0.0330359   1.1224928  )
        13           O   tau(  13) = (   0.9669642   0.4669641   0.3741643  )
        14           O   tau(  14) = (   0.0330359   0.5330359   1.1224928  )
        15           O   tau(  15) = (   0.5330358   0.0330359   0.3741643  )
        16           O   tau(  16) = (   0.4669642   0.9669641   1.1224928  )

     number of k points=    60  gaussian smearing, width (Ry)=  0.0007
                       cart. coord. in units 2pi/alat
        k(    1) = (   0.0000000   0.0000000   0.0000000), wk =   0.0041152
        k(    2) = (   0.0000000   0.0000000   0.1113593), wk =   0.0082305
        k(    3) = (   0.0000000   0.0000000   0.2227186), wk =   0.0082305
        k(    4) = (   0.0000000   0.0000000  -0.3340779), wk =   0.0041152
        k(    5) = (   0.0000000   0.1111111   0.0000000), wk =   0.0164609
        k(    6) = (   0.0000000   0.1111111   0.1113593), wk =   0.0329218
        k(    7) = (   0.0000000   0.1111111   0.2227186), wk =   0.0329218
        k(    8) = (   0.0000000   0.1111111  -0.3340779), wk =   0.0164609
        k(    9) = (   0.0000000   0.2222222   0.0000000), wk =   0.0164609
        k(   10) = (   0.0000000   0.2222222   0.1113593), wk =   0.0329218
        k(   11) = (   0.0000000   0.2222222   0.2227186), wk =   0.0329218
        k(   12) = (   0.0000000   0.2222222  -0.3340779), wk =   0.0164609
        k(   13) = (   0.0000000   0.3333333   0.0000000), wk =   0.0164609
        k(   14) = (   0.0000000   0.3333333   0.1113593), wk =   0.0329218
        k(   15) = (   0.0000000   0.3333333   0.2227186), wk =   0.0329218
        k(   16) = (   0.0000000   0.3333333  -0.3340779), wk =   0.0164609
        k(   17) = (   0.0000000   0.4444444   0.0000000), wk =   0.0164609
        k(   18) = (   0.0000000   0.4444444   0.1113593), wk =   0.0329218
        k(   19) = (   0.0000000   0.4444444   0.2227186), wk =   0.0329218
        k(   20) = (   0.0000000   0.4444444  -0.3340779), wk =   0.0164609
        k(   21) = (   0.1111111   0.1111111   0.0000000), wk =   0.0164609
        k(   22) = (   0.1111111   0.1111111   0.1113593), wk =   0.0329218
        k(   23) = (   0.1111111   0.1111111   0.2227186), wk =   0.0329218
        k(   24) = (   0.1111111   0.1111111  -0.3340779), wk =   0.0164609
        k(   25) = (   0.1111111   0.2222222   0.0000000), wk =   0.0329218
        k(   26) = (   0.1111111   0.2222222   0.1113593), wk =   0.0658436
        k(   27) = (   0.1111111   0.2222222   0.2227186), wk =   0.0658436
        k(   28) = (   0.1111111   0.2222222  -0.3340779), wk =   0.0329218
        k(   29) = (   0.1111111   0.3333333   0.0000000), wk =   0.0329218
        k(   30) = (   0.1111111   0.3333333   0.1113593), wk =   0.0658436
        k(   31) = (   0.1111111   0.3333333   0.2227186), wk =   0.0658436
        k(   32) = (   0.1111111   0.3333333  -0.3340779), wk =   0.0329218
        k(   33) = (   0.1111111   0.4444444   0.0000000), wk =   0.0329218
        k(   34) = (   0.1111111   0.4444444   0.1113593), wk =   0.0658436
        k(   35) = (   0.1111111   0.4444444   0.2227186), wk =   0.0658436
        k(   36) = (   0.1111111   0.4444444  -0.3340779), wk =   0.0329218
        k(   37) = (   0.2222222   0.2222222   0.0000000), wk =   0.0164609
        k(   38) = (   0.2222222   0.2222222   0.1113593), wk =   0.0329218
        k(   39) = (   0.2222222   0.2222222   0.2227186), wk =   0.0329218
        k(   40) = (   0.2222222   0.2222222  -0.3340779), wk =   0.0164609
        k(   41) = (   0.2222222   0.3333333   0.0000000), wk =   0.0329218
        k(   42) = (   0.2222222   0.3333333   0.1113593), wk =   0.0658436
        k(   43) = (   0.2222222   0.3333333   0.2227186), wk =   0.0658436
        k(   44) = (   0.2222222   0.3333333  -0.3340779), wk =   0.0329218
        k(   45) = (   0.2222222   0.4444444   0.0000000), wk =   0.0329218
        k(   46) = (   0.2222222   0.4444444   0.1113593), wk =   0.0658436
        k(   47) = (   0.2222222   0.4444444   0.2227186), wk =   0.0658436
        k(   48) = (   0.2222222   0.4444444  -0.3340779), wk =   0.0329218
        k(   49) = (   0.3333333   0.3333333   0.0000000), wk =   0.0164609
        k(   50) = (   0.3333333   0.3333333   0.1113593), wk =   0.0329218
        k(   51) = (   0.3333333   0.3333333   0.2227186), wk =   0.0329218
        k(   52) = (   0.3333333   0.3333333  -0.3340779), wk =   0.0164609
        k(   53) = (   0.3333333   0.4444444   0.0000000), wk =   0.0329218
        k(   54) = (   0.3333333   0.4444444   0.1113593), wk =   0.0658436
        k(   55) = (   0.3333333   0.4444444   0.2227186), wk =   0.0658436
        k(   56) = (   0.3333333   0.4444444  -0.3340779), wk =   0.0329218
        k(   57) = (   0.4444444   0.4444444   0.0000000), wk =   0.0164609
        k(   58) = (   0.4444444   0.4444444   0.1113593), wk =   0.0329218
        k(   59) = (   0.4444444   0.4444444   0.2227186), wk =   0.0329218
        k(   60) = (   0.4444444   0.4444444  -0.3340779), wk =   0.0164609

     Initial potential from superposition of free atoms

     starting charge  183.99828, renormalised to  184.00000
     Starting wfcs are  116 randomized atomic wfcs

     Self-consistent Calculation

     iteration #  1     ecut=   120.00 Ry     beta= 0.70
     Davidson diagonalization with overlap
     ethr =  1.00E-02,  avg # of iterations =  4.4

     total energy              =   -3126.99556492 Ry
     Harris-Foulkes estimate   =   -3132.28910997 Ry
     estimated scf accuracy    <       6.71078524 Ry

[...]

     End of self-consistent calculation

          k = 0.0000 0.0000 0.0000 ( 31095 PWs)   bands (ev):

   -66.1439 -66.1435 -66.1421 -66.1417 -30.5280 -30.5280 -30.5247 -30.5247
   -30.4939 -30.4879 -30.4345 -30.4316 -30.4316 -30.4297 -30.4289 -30.4289
   -20.2950 -20.2950 -20.2949 -20.2949 -20.2755 -20.2755 -20.2755 -20.2755
   -20.2742 -20.2742 -20.2741 -20.2741 -20.2722 -20.2720 -20.2666 -20.2663
   -20.2639 -20.2639 -20.2636 -20.2635 -20.2631 -20.2631 -20.2627 -20.2627
   -20.2584 -20.2584 -20.2574 -20.2574 -10.0322  -9.7791  -9.1538  -9.1375
    -8.9770  -8.7915  -7.7429  -7.6989  -7.6989  -7.6780  -7.6780  -7.6233
     0.9519   0.9522   1.2945   1.4203   1.6912   1.7210   2.2857   2.3709
     2.6259   2.6259   4.0498   4.0498   5.0079   5.0585   5.0585   5.5875
     5.5875   5.6235   5.6235   5.9233   5.9277   5.9277   6.0726   6.7995
     6.7995   6.8284   7.0300   7.1140   7.2413   7.2413   7.2721   7.2721
     8.1198   8.1252   8.1994   8.1994   9.0902   9.0940   9.8793   9.8793
    12.3637  12.3637  13.4466  13.4498  13.5360  13.5360  13.7106  14.2885
    14.2885  14.8064  15.1903  15.1975  15.4933  16.8450

[...]

     the Fermi energy is     8.8338 ev

!    total energy              =   -3130.54094426 Ry
     Harris-Foulkes estimate   =   -3130.54094426 Ry
     estimated scf accuracy    <          2.0E-09 Ry

     The total energy is the sum of the following terms:

     one-electron contribution =   -2376.71774015 Ry
     hartree contribution      =    1306.85996742 Ry
[...]
O        0.033035909   0.533035892   0.750000000    0   0   0
O        0.533035846   0.033035875   0.250000000    0   0   0
O        0.466964154   0.966964062   0.750000000    0   0   0

     Writing output data file Landau_10.save/
     NEW-OLD atomic charge density approx. for the potential
     extrapolated charge  187.06993, renormalised to  184.00000

[...]

     enthalpy old            =   -3130.5409442565 Ry
     enthalpy new            =   -3130.5468014899 Ry

     CASE: enthalpy_new < enthalpy_old

[...]

     number of scf cycles    =   4
     number of bfgs steps    =   3

     enthalpy old            =   -3130.5470836209 Ry
     enthalpy new            =   -3130.5470894243 Ry

     CASE: enthalpy_new < enthalpy_old

     new trust radius        =       0.0002774405 bohr
     new conv_thr            =            1.0E-10 Ry

     new unit-cell volume =   1419.20063 a.u.^3 (   210.30383 Ang^3 )
     density =      7.32229 g/cm^3

[...]

ATOMIC_POSITIONS (crystal)
W        0.250000000   0.250000000   0.214725028    0   0   0
W        0.750000023   0.750000023   0.785274987    0   0   0
W        0.750000023   0.750000023   0.285274987    0   0   0
W        0.250000000   0.250000000   0.714725013    0   0   0
O        0.250000000   0.250000000   0.485245357    0   0   0
O        0.750000023   0.750000023   0.514754643    0   0   0
O        0.750000023   0.750000023   0.014754656    0   0   0
O        0.250000000   0.250000000   0.985245357    0   0   0
O        0.466964108   0.533035846   0.250000000    0   0   0
O        0.533035892   0.466964154   0.750000000    0   0   0
O        0.033035875   0.966964154   0.250000000    0   0   0
O        0.966964062   0.033035909   0.750000000    0   0   0
O        0.966964154   0.466964108   0.250000000    0   0   0
O        0.033035909   0.533035892   0.750000000    0   0   0
O        0.533035846   0.033035875   0.250000000    0   0   0
O        0.466964154   0.966964062   0.750000000    0   0   0

     Writing output data file Landau_10.save/
     NEW-OLD atomic charge density approx. for the potential
     extrapolated charge  183.99840, renormalised to  184.00000

[...]

     Threshold (ethr) on eigenvalues was too large:
     Diagonalizing with lowered threshold

     Davidson diagonalization with overlap
     ethr =  1.53E-10,  avg # of iterations =  3.0

[...]

     bfgs converged in   5 scf cycles and   4 bfgs steps
     (criteria: energy <  1.0E-07 Ry, force <  1.0E-07Ry/Bohr, cell <  5.0E-01kbar)

     End of BFGS Geometry Optimization

     Final enthalpy =   -3130.5470894737 Ry
Begin final coordinates
     new unit-cell volume =   1419.20063 a.u.^3 (   210.30383 Ang^3 )
     density =      7.32229 g/cm^3

CELL_PARAMETERS (angstrom)
   5.224683449   0.000000000   0.000000000
   0.000000000   5.224683449   0.000000000
   0.000000000   0.000000000   7.704194229

ATOMIC_POSITIONS (crystal)
W        0.250000000   0.250000000   0.214725028    0   0   0
W        0.750000023   0.750000023   0.785274987    0   0   0
W        0.750000023   0.750000023   0.285274987    0   0   0
W        0.250000000   0.250000000   0.714725013    0   0   0
O        0.250000000   0.250000000   0.485245357    0   0   0
O        0.750000023   0.750000023   0.514754643    0   0   0
O        0.750000023   0.750000023   0.014754656    0   0   0
O        0.250000000   0.250000000   0.985245357    0   0   0
O        0.466964108   0.533035846   0.250000000    0   0   0
O        0.533035892   0.466964154   0.750000000    0   0   0
O        0.033035875   0.966964154   0.250000000    0   0   0
O        0.966964062   0.033035909   0.750000000    0   0   0
O        0.966964154   0.466964108   0.250000000    0   0   0
O        0.033035909   0.533035892   0.750000000    0   0   0
O        0.533035846   0.033035875   0.250000000    0   0   0
O        0.466964154   0.966964062   0.750000000    0   0   0
End final coordinates

     Writing output data file Landau_10.save/

     Final scf calculation at the relaxed structure.
     The G-vectors are recalculated for the final unit cell
     Results may differ from those at the preceding step.

     bravais-lattice index     =            0
     lattice parameter (alat)  =       9.7849  a.u.
     unit-cell volume          =    1419.2006 (a.u.)^3
     number of atoms/cell      =           16
     number of atomic types    =            2
     number of electrons       =       184.00
     number of Kohn-Sham states=          110
     kinetic-energy cutoff     =     120.0000  Ry
     charge density cutoff     =     480.0000  Ry
     convergence threshold     =      1.0E-10
     mixing beta               =       0.7000
     number of iterations used =            8  plain     mixing
     Exchange-correlation      = SLA PW NOGX NOGC ( 1  4  0  0 0 0)

     celldm(1)=   9.784926  celldm(2)=   0.000000  celldm(3)=   0.000000
     celldm(4)=   0.000000  celldm(5)=   0.000000  celldm(6)=   0.000000

     crystal axes: (cart. coord. in units of alat)
               a(1) = (   1.009024   0.000000   0.000000 )
               a(2) = (   0.000000   1.009024   0.000000 )
               a(3) = (   0.000000   0.000000   1.487882 )

     reciprocal axes: (cart. coord. in units 2 pi/alat)
               b(1) = (  0.991057  0.000000  0.000000 )
               b(2) = (  0.000000  0.991057  0.000000 )
               b(3) = (  0.000000  0.000000  0.672096 )

     PseudoPot. # 1 for W  read from file:
     /cluster/scratch/mnoe/QE/pps/W_ONCV_LDA-4.0.upf
     MD5 check sum: ba0307d5d4cd419d6f1d13dc49d7c13a
     Pseudo is Norm-conserving + core correction, Zval = 28.0
     Generated using ONCVPSP code by D. R. Hamann
     Using radial grid of 1380 points,  8 beta functions with:
                l(1) =   0
                l(2) =   0
                l(3) =   1
                l(4) =   1
                l(5) =   2
                l(6) =   2
                l(7) =   3
                l(8) =   3

     PseudoPot. # 2 for O  read from file:
     /cluster/scratch/mnoe/QE/pps/O_ONCV_LDA-3.0.upf
     MD5 check sum: b55cdb4f45ae2203d24ad12cf8d61a31
     Pseudo is Norm-conserving + core correction, Zval =  6.0
     Generated using ONCVPSP code by D. R. Hamann
     Using radial grid of  926 points,  5 beta functions with:
                l(1) =   0
                l(2) =   0
                l(3) =   1
                l(4) =   1
                l(5) =   2

     atomic species   valence    mass     pseudopotential
        W             28.00   183.84000     W ( 1.00)
        O              6.00    15.99940     O ( 1.00)

     16 Sym. Ops., with inversion, found (14 have fractional translation)

   Cartesian axes

     site n.     atom                  positions (alat units)
         1           W   tau(   1) = (   0.2522559   0.2522559   0.3194855  )
         2           W   tau(   2) = (   0.7567677   0.7567677   1.1683966  )
         3           W   tau(   3) = (   0.7567677   0.7567677   0.4244556  )
         4           W   tau(   4) = (   0.2522559   0.2522559   1.0634266  )
         5           O   tau(   5) = (   0.2522559   0.2522559   0.7219879  )
         6           O   tau(   6) = (   0.7567677   0.7567677   0.7658943  )
         7           O   tau(   7) = (   0.7567677   0.7567677   0.0219532  )
         8           O   tau(   8) = (   0.2522559   0.2522559   1.4659290  )
         9           O   tau(   9) = (   0.4711778   0.5378457   0.3719705  )
        10           O   tau(  10) = (   0.5378458   0.4711778   1.1159116  )
        11           O   tau(  11) = (   0.0333340   0.9756896   0.3719705  )
        12           O   tau(  12) = (   0.9756895   0.0333340   1.1159116  )
        13           O   tau(  13) = (   0.9756896   0.4711778   0.3719705  )
        14           O   tau(  14) = (   0.0333340   0.5378458   1.1159116  )
        15           O   tau(  15) = (   0.5378457   0.0333340   0.3719705  )
        16           O   tau(  16) = (   0.4711778   0.9756895   1.1159116  )

     number of k points=    60  gaussian smearing, width (Ry)=  0.0007
                       cart. coord. in units 2pi/alat
        k(    1) = (   0.0000000   0.0000000   0.0000000), wk =   0.0041152
        k(    2) = (   0.0000000   0.0000000   0.1120160), wk =   0.0082305
        k(    3) = (   0.0000000   0.0000000   0.2240321), wk =   0.0082305
        k(    4) = (   0.0000000   0.0000000  -0.3360481), wk =   0.0041152
        k(    5) = (   0.0000000   0.1101175   0.0000000), wk =   0.0164609
        k(    6) = (   0.0000000   0.1101175   0.1120160), wk =   0.0329218
        k(    7) = (   0.0000000   0.1101175   0.2240321), wk =   0.0329218
        k(    8) = (   0.0000000   0.1101175  -0.3360481), wk =   0.0164609
        k(    9) = (   0.0000000   0.2202349   0.0000000), wk =   0.0164609
        k(   10) = (   0.0000000   0.2202349   0.1120160), wk =   0.0329218
        k(   11) = (   0.0000000   0.2202349   0.2240321), wk =   0.0329218
        k(   12) = (   0.0000000   0.2202349  -0.3360481), wk =   0.0164609
        k(   13) = (   0.0000000   0.3303524   0.0000000), wk =   0.0164609
        k(   14) = (   0.0000000   0.3303524   0.1120160), wk =   0.0329218
        k(   15) = (   0.0000000   0.3303524   0.2240321), wk =   0.0329218
        k(   16) = (   0.0000000   0.3303524  -0.3360481), wk =   0.0164609
        k(   17) = (   0.0000000   0.4404698   0.0000000), wk =   0.0164609
        k(   18) = (   0.0000000   0.4404698   0.1120160), wk =   0.0329218
        k(   19) = (   0.0000000   0.4404698   0.2240321), wk =   0.0329218
        k(   20) = (   0.0000000   0.4404698  -0.3360481), wk =   0.0164609
        k(   21) = (   0.1101175   0.1101175   0.0000000), wk =   0.0164609
        k(   22) = (   0.1101175   0.1101175   0.1120160), wk =   0.0329218
        k(   23) = (   0.1101175   0.1101175   0.2240321), wk =   0.0329218
        k(   24) = (   0.1101175   0.1101175  -0.3360481), wk =   0.0164609
        k(   25) = (   0.1101175   0.2202349   0.0000000), wk =   0.0329218
        k(   26) = (   0.1101175   0.2202349   0.1120160), wk =   0.0658436
        k(   27) = (   0.1101175   0.2202349   0.2240321), wk =   0.0658436
        k(   28) = (   0.1101175   0.2202349  -0.3360481), wk =   0.0329218
        k(   29) = (   0.1101175   0.3303524   0.0000000), wk =   0.0329218
        k(   30) = (   0.1101175   0.3303524   0.1120160), wk =   0.0658436
        k(   31) = (   0.1101175   0.3303524   0.2240321), wk =   0.0658436
        k(   32) = (   0.1101175   0.3303524  -0.3360481), wk =   0.0329218
        k(   33) = (   0.1101175   0.4404698   0.0000000), wk =   0.0329218
        k(   34) = (   0.1101175   0.4404698   0.1120160), wk =   0.0658436
        k(   35) = (   0.1101175   0.4404698   0.2240321), wk =   0.0658436
        k(   36) = (   0.1101175   0.4404698  -0.3360481), wk =   0.0329218
        k(   37) = (   0.2202349   0.2202349   0.0000000), wk =   0.0164609
        k(   38) = (   0.2202349   0.2202349   0.1120160), wk =   0.0329218
        k(   39) = (   0.2202349   0.2202349   0.2240321), wk =   0.0329218
        k(   40) = (   0.2202349   0.2202349  -0.3360481), wk =   0.0164609
        k(   41) = (   0.2202349   0.3303524   0.0000000), wk =   0.0329218
        k(   42) = (   0.2202349   0.3303524   0.1120160), wk =   0.0658436
        k(   43) = (   0.2202349   0.3303524   0.2240321), wk =   0.0658436
        k(   44) = (   0.2202349   0.3303524  -0.3360481), wk =   0.0329218
        k(   45) = (   0.2202349   0.4404698   0.0000000), wk =   0.0329218
        k(   46) = (   0.2202349   0.4404698   0.1120160), wk =   0.0658436
        k(   47) = (   0.2202349   0.4404698   0.2240321), wk =   0.0658436
        k(   48) = (   0.2202349   0.4404698  -0.3360481), wk =   0.0329218
        k(   49) = (   0.3303524   0.3303524   0.0000000), wk =   0.0164609
        k(   50) = (   0.3303524   0.3303524   0.1120160), wk =   0.0329218
        k(   51) = (   0.3303524   0.3303524   0.2240321), wk =   0.0329218
        k(   52) = (   0.3303524   0.3303524  -0.3360481), wk =   0.0164609
        k(   53) = (   0.3303524   0.4404698   0.0000000), wk =   0.0329218
        k(   54) = (   0.3303524   0.4404698   0.1120160), wk =   0.0658436
        k(   55) = (   0.3303524   0.4404698   0.2240321), wk =   0.0658436
        k(   56) = (   0.3303524   0.4404698  -0.3360481), wk =   0.0329218
        k(   57) = (   0.4404698   0.4404698   0.0000000), wk =   0.0164609
        k(   58) = (   0.4404698   0.4404698   0.1120160), wk =   0.0329218
        k(   59) = (   0.4404698   0.4404698   0.2240321), wk =   0.0329218
        k(   60) = (   0.4404698   0.4404698  -0.3360481), wk =   0.0164609

     Initial potential from superposition of free atoms

     starting charge  183.99828, renormalised to  184.00000
     Starting wfcs are  116 randomized atomic wfcs

     Self-consistent Calculation

[...]

     total energy              =   -3130.54720197 Ry
     Harris-Foulkes estimate   =   -3130.54720197 Ry
     estimated scf accuracy    <          2.4E-10 Ry

     iteration # 14     ecut=   120.00 Ry     beta= 0.70
     Davidson diagonalization with overlap
     ethr =  1.32E-13,  avg # of iterations =  2.0

     End of self-consistent calculation

[...]

          k = 0.4405 0.4405-0.3360 ( 31540 PWs)   bands (ev):

   -66.3753 -66.3753 -66.3753 -66.3752 -30.7171 -30.7171 -30.7163 -30.7163
   -30.7132 -30.7132 -30.7112 -30.7112 -30.6249 -30.6249 -30.6224 -30.6224
   -20.5390 -20.5390 -20.5389 -20.5389 -20.5221 -20.5221 -20.5220 -20.5220
   -20.5177 -20.5177 -20.5176 -20.5176 -20.5132 -20.5132 -20.5132 -20.5132
   -20.5078 -20.5078 -20.5077 -20.5077 -20.5056 -20.5056 -20.5054 -20.5054
   -20.5009 -20.5009 -20.5007 -20.5007  -9.5281  -9.5281  -9.4852  -9.4852
    -8.6232  -8.6232  -8.6180  -8.6180  -7.9797  -7.9797  -7.9223  -7.9223
     1.0839   1.0840   1.1991   1.1991   2.9966   2.9966   3.0020   3.0020
     3.2396   3.2396   3.2652   3.2652   4.3997   4.3997   4.6014   4.6014
     5.0679   5.0679   5.1776   5.1776   5.7207   5.7207   5.8831   5.8831
     6.0340   6.0340   6.1709   6.1709   6.5595   6.5595   6.6546   6.6546
     7.3239   7.3239   7.3332   7.3332  11.1005  11.1005  11.1585  11.1585
    12.1705  12.1705  12.2577  12.2578  13.3554  13.3554  13.4434  13.4434
    15.1899  15.1900  15.3500  15.3501  17.8073  17.8073

     the Fermi energy is     8.6153 ev

!    total energy              =   -3130.54720197 Ry
     Harris-Foulkes estimate   =   -3130.54720197 Ry
     estimated scf accuracy    <          2.9E-12 Ry

     The total energy is the sum of the following terms:

     one-electron contribution =   -2385.75021824 Ry
     hartree contribution      =    1309.94953528 Ry
     xc contribution           =    -482.84607314 Ry
     ewald contribution        =   -1571.90044587 Ry
     smearing contrib. (-TS)   =      -0.00000000 Ry

     convergence has been achieved in  14 iterations

     Forces acting on atoms (cartesian axes, Ry/au):

     atom    1 type  1   force =     0.00000000    0.00000000   -0.00532316
     atom    2 type  1   force =     0.00000000    0.00000000    0.00532316
     atom    3 type  1   force =     0.00000000    0.00000000    0.00532316
     atom    4 type  1   force =     0.00000000    0.00000000   -0.00532316
     atom    5 type  2   force =     0.00000000    0.00000000    0.02965175
     atom    6 type  2   force =     0.00000000    0.00000000   -0.02965175
     atom    7 type  2   force =     0.00000000    0.00000000   -0.02965175
     atom    8 type  2   force =     0.00000000    0.00000000    0.02965175
     atom    9 type  2   force =    -0.00145152    0.00145152    0.00000000
     atom   10 type  2   force =     0.00145152   -0.00145152    0.00000000
     atom   11 type  2   force =     0.00145152   -0.00145152    0.00000000
     atom   12 type  2   force =    -0.00145152    0.00145152    0.00000000
     atom   13 type  2   force =    -0.00145152   -0.00145152    0.00000000
     atom   14 type  2   force =     0.00145152    0.00145152    0.00000000
     atom   15 type  2   force =     0.00145152    0.00145152    0.00000000
     atom   16 type  2   force =    -0.00145152   -0.00145152    0.00000000

     Total force =     0.000000     Total SCF correction =     0.000000

     Computing stress (Cartesian axis) and pressure

          total   stress  (Ry/bohr**3)                   (kbar)     P=    0.40
   0.00000386   0.00000000   0.00000000          0.57      0.00      0.00
   0.00000000   0.00000386   0.00000000          0.00      0.57      0.00
   0.00000000   0.00000000   0.00000038          0.00      0.00      0.06

     Writing output data file Landau_10.save/

     General routines

     Parallel routines

   This run was terminated on:  18: 1: 0  21Nov2019

   JOB DONE.