     Program PWSCF v.6.2 (svn rev. 14038) starts on  4Mar2020 at 22:10:38

     K-points division:     npool     =      64
     Reading input from rscf.in

     Current dimensions of program PWSCF are:
     Max number of different atomic species (ntypx) = 10
     Max number of k-points (npk) =  40000
     Max angular momentum in pseudopotentials (lmaxx) =  3

     Subspace diagonalization in iterative solution of the eigenvalue problem:
     a serial algorithm will be used

     Found symmetry operation: I + (  0.5000  0.0000 -0.5000)
     This is a supercell, fractional translations are disabled

     bravais-lattice index     =            0
     lattice parameter (alat)  =      13.8397  a.u.
     unit-cell volume          =    2804.9816 (a.u.)^3
     number of atoms/cell      =           32
     number of atomic types    =            2
     number of electrons       =       368.00
     number of Kohn-Sham states=          221
     kinetic-energy cutoff     =     120.0000  Ry
     charge density cutoff     =     480.0000  Ry
     convergence threshold     =      1.0E-08
     mixing beta               =       0.7000
     number of iterations used =            8  plain     mixing
     Exchange-correlation      = SLA PW NOGX NOGC ( 1  4  0  0 0 0)
     nstep                     =           50

     celldm(1)=  13.839685  celldm(2)=   0.000000  celldm(3)=   0.000000
     celldm(4)=   0.000000  celldm(5)=   0.000000  celldm(6)=   0.000000

     crystal axes: (cart. coord. in units of alat)
               a(1) = (   1.000000   0.000000   0.000000 )
               a(2) = (   0.000000   1.058160   0.000000 )
               a(3) = (   0.000000   0.000000   1.000000 )

     reciprocal axes: (cart. coord. in units 2 pi/alat)
               b(1) = (  1.000000  0.000000  0.000000 )
               b(2) = (  0.000000  0.945037  0.000000 )
               b(3) = (  0.000000  0.000000  1.000000 )

     PseudoPot. # 1 for W  read from file:
     /cluster/scratch/mnoe/QE/pps/W_ONCV_LDA-4.0.upf
     MD5 check sum: ba0307d5d4cd419d6f1d13dc49d7c13a
     Pseudo is Norm-conserving + core correction, Zval = 28.0
     Generated using ONCVPSP code by D. R. Hamann
     Using radial grid of 1380 points,  8 beta functions with:
                l(1) =   0
                l(2) =   0
                l(3) =   1
                l(4) =   1
                l(5) =   2
                l(6) =   2
                l(7) =   3
                l(8) =   3

     PseudoPot. # 2 for O  read from file:
     /cluster/scratch/mnoe/QE/pps/O_ONCV_LDA-3.0.upf
     MD5 check sum: a1bd6164e7280c17a38c229939bfbd54
     Pseudo is Norm-conserving + core correction, Zval =  6.0
     Generated using ONCVPSP code by D. R. Hamann
     Using radial grid of  926 points,  5 beta functions with:
                l(1) =   0
                l(2) =   0
                l(3) =   1
                l(4) =   1
                l(5) =   2

     atomic species   valence    mass     pseudopotential
        W             28.00   183.84000     W ( 1.00)
        O              6.00    15.99940     O ( 1.00)

      2 Sym. Ops., with inversion, found

   Cartesian axes

     site n.     atom                  positions (alat units)
         1           W   tau(   1) = (   0.2500000   0.2940417   0.0000000  )
         2           W   tau(   2) = (   0.7500000   0.7641184   0.0000000  )
         3           W   tau(   3) = (   0.2500000   0.2350383   0.5000000  )
         4           W   tau(   4) = (   0.7500000   0.8231218   0.5000000  )
         5           W   tau(   5) = (   0.7500000   0.2940417   0.5000000  )
         6           W   tau(   6) = (   0.2500000   0.7641184   0.5000000  )
         7           W   tau(   7) = (   0.7500000   0.2350383   0.0000000  )
         8           W   tau(   8) = (   0.2500000   0.8231218   0.0000000  )
         9           O   tau(   9) = (   0.2500000   0.0076566   0.0000000  )
        10           O   tau(  10) = (   0.7500000   1.0505035   0.0000000  )
        11           O   tau(  11) = (   0.2500000   0.5214234   0.5000000  )
        12           O   tau(  12) = (   0.7500000   0.5367367   0.5000000  )
        13           O   tau(  13) = (   0.7500000   0.0076566   0.5000000  )
        14           O   tau(  14) = (   0.2500000   1.0505035   0.5000000  )
        15           O   tau(  15) = (   0.7500000   0.5214234   0.0000000  )
        16           O   tau(  16) = (   0.2500000   0.5367367   0.0000000  )
        17           O   tau(  17) = (   0.5000000   0.2645400   0.4592715  )
        18           O   tau(  18) = (   0.5000000   0.7936201   0.5407286  )
        19           O   tau(  19) = (   0.0000000   0.2645400   0.9592715  )
        20           O   tau(  20) = (   0.0000000   0.7936201   0.0407285  )
        21           O   tau(  21) = (   0.5000000   0.2645400   0.0407285  )
        22           O   tau(  22) = (   0.5000000   0.7936201   0.9592715  )
        23           O   tau(  23) = (   0.0000000   0.2645400   0.5407286  )
        24           O   tau(  24) = (   0.0000000   0.7936201   0.4592715  )
        25           O   tau(  25) = (   0.7092715   0.2645400   0.7500000  )
        26           O   tau(  26) = (   0.2907285   0.7936201   0.2500000  )
        27           O   tau(  27) = (   0.7907286   0.2645400   0.2500000  )
        28           O   tau(  28) = (   0.2092715   0.7936201   0.7500000  )
        29           O   tau(  29) = (   0.2907285   0.2645400   0.7500000  )
        30           O   tau(  30) = (   0.7092715   0.7936201   0.2500000  )
        31           O   tau(  31) = (   0.2092715   0.2645400   0.2500000  )
        32           O   tau(  32) = (   0.7907286   0.7936201   0.7500000  )

     number of k points=   112  gaussian smearing, width (Ry)=  0.0007

     Number of k-points >= 100: set verbosity='high' to print them.

     Initial potential from superposition of free atoms

     starting charge  367.99656, renormalised to  368.00000
     Starting wfc are  232 randomized atomic wfcs

     Self-consistent Calculation

     iteration #  1     ecut=   120.00 Ry     beta= 0.70
     Davidson diagonalization with overlap
     ethr =  1.00E-02,  avg # of iterations =  5.2

     total energy              =   -6254.03737652 Ry
     Harris-Foulkes estimate   =   -6264.58453057 Ry
     estimated scf accuracy    <      13.37138604 Ry

[...]

     End of self-consistent calculation

     Number of k-points >= 100: set verbosity='high' to print the bands.

     the Fermi energy is     9.0130 ev

!    total energy              =   -6261.09332710 Ry
     Harris-Foulkes estimate   =   -6261.09332710 Ry
     estimated scf accuracy    <          4.5E-09 Ry

     The total energy is the sum of the following terms:

     one-electron contribution =   -4754.33721319 Ry
     hartree contribution      =    2613.91897644 Ry
     xc contribution           =    -966.02563622 Ry
     ewald contribution        =   -3154.64945413 Ry
     smearing contrib. (-TS)   =      -0.00000000 Ry

     convergence has been achieved in  14 iterations

     Forces acting on atoms (cartesian axes, Ry/au):

     atom    1 type  1   force =    -0.00003946    0.03175094    0.00000046
     atom    2 type  1   force =     0.00003946   -0.03175094   -0.00000046
     atom    3 type  1   force =    -0.00002002   -0.03170652   -0.00000279
     atom    4 type  1   force =     0.00002002    0.03170652    0.00000279
     atom    5 type  1   force =     0.00001315    0.03176812   -0.00000218
     atom    6 type  1   force =    -0.00001315   -0.03176812    0.00000218
     atom    7 type  1   force =     0.00003357   -0.03175027    0.00000224
     atom    8 type  1   force =    -0.00003357    0.03175027   -0.00000224
     atom    9 type  2   force =     0.00000010   -0.01581182   -0.00000005
     atom   10 type  2   force =    -0.00000010    0.01581182    0.00000005
     atom   11 type  2   force =     0.00000069    0.01580939    0.00000010
     atom   12 type  2   force =    -0.00000069   -0.01580939   -0.00000010
     atom   13 type  2   force =    -0.00000020   -0.01581531   -0.00000003
     atom   14 type  2   force =     0.00000020    0.01581531    0.00000003
     atom   15 type  2   force =    -0.00000009    0.01581303    0.00000001
     atom   16 type  2   force =     0.00000009   -0.01581303   -0.00000001
     atom   17 type  2   force =     0.00000002    0.00000184   -0.00787137
     atom   18 type  2   force =    -0.00000002   -0.00000184    0.00787137
     atom   19 type  2   force =     0.00000117    0.00000009   -0.00787024
     atom   20 type  2   force =    -0.00000117   -0.00000009    0.00787024
     atom   21 type  2   force =    -0.00000095    0.00000013    0.00787038
     atom   22 type  2   force =     0.00000095   -0.00000013   -0.00787038
     atom   23 type  2   force =    -0.00000039    0.00000031    0.00787053
     atom   24 type  2   force =     0.00000039   -0.00000031   -0.00787053
     atom   25 type  2   force =    -0.00787088    0.00000030    0.00000242
     atom   26 type  2   force =     0.00787088   -0.00000030   -0.00000242
     atom   27 type  2   force =     0.00787013    0.00000007   -0.00000309
     atom   28 type  2   force =    -0.00787013   -0.00000007    0.00000309
     atom   29 type  2   force =     0.00787091    0.00000103    0.00000452
     atom   30 type  2   force =    -0.00787091   -0.00000103   -0.00000452
     atom   31 type  2   force =    -0.00787003    0.00000100   -0.00000488
     atom   32 type  2   force =     0.00787003   -0.00000100    0.00000488

     Total force =     0.000000     Total SCF correction =     0.000000

     Computing stress (Cartesian axis) and pressure

          total   stress  (Ry/bohr**3)                   (kbar)     P=   32.02
   0.00043102  -0.00000001  -0.00000000         63.40     -0.00     -0.00
  -0.00000001  -0.00020905  -0.00000000         -0.00    -30.75     -0.00
  -0.00000000  -0.00000000   0.00043103         -0.00     -0.00     63.41

     BFGS Geometry Optimization

     number of scf cycles    =   1
     number of bfgs steps    =   0

     enthalpy new            =   -6261.0933270991 Ry

     new trust radius        =       0.1141399867 bohr
     new conv_thr            =       0.0000000100 Ry

     new unit-cell volume =   2850.78084 a.u.^3 (   422.44213 Ang^3 )
     density =      7.29049 g/cm^3

CELL_PARAMETERS (angstrom)
   7.402561433  -0.000001126  -0.000000009
  -0.000001191   7.709089581  -0.000000112
  -0.000000009  -0.000000106   7.402562995

ATOMIC_POSITIONS (crystal)
W        0.250000000   0.277880181  -0.000000000    0   0   0
W        0.749999979   0.722119819   0.000000000    0   0   0
W        0.250000000   0.222119835   0.500000000    0   0   0
W        0.749999979   0.777880191   0.500000000    0   0   0
W        0.749999979   0.277880181   0.500000000    0   0   0
W        0.250000000   0.722119819   0.500000000    0   0   0
W        0.749999979   0.222119835   0.000000000    0   0   0
W        0.250000000   0.777880191   0.000000000    0   0   0
O        0.250000000   0.007235778   0.000000000    0   0   0
O        0.749999979   0.992764217   0.000000000    0   0   0
[...]
O        0.749999979   0.492764227   0.000000000    0   0   0
O        0.250000000   0.507235783  -0.000000000    0   0   0
O        0.500000000   0.250000000   0.459271452    0   0   0
O        0.500000000   0.750000005   0.540728559    0   0   0
O       -0.000000000   0.250000000   0.959271485    0   0   0
O       -0.000000000   0.750000005   0.040728527    0   0   0
O        0.500000000   0.250000000   0.040728527    0   0   0
O        0.500000000   0.750000005   0.959271485    0   0   0
O       -0.000000000   0.250000000   0.540728559    0   0   0
O        0.000000000   0.750000005   0.459271452    0   0   0
O        0.709271463   0.250000000   0.749999979    0   0   0
O        0.290728527   0.750000005   0.250000000    0   0   0
O        0.790728580   0.250000000   0.250000000    0   0   0
O        0.209271468   0.750000005   0.749999979    0   0   0
O        0.290728527   0.250000000   0.749999979    0   0   0
O        0.709271463   0.750000005   0.250000000    0   0   0
O        0.209271468   0.250000000   0.250000000    0   0   0
O        0.790728580   0.750000005   0.749999979    0   0   0

     Writing output data file Landau_10.save
     NEW-OLD atomic charge density approx. for the potential
     extrapolated charge  373.91204, renormalised to  368.00000

[...]

     enthalpy old            =   -6261.0933270991 Ry
     enthalpy new            =   -6261.1050418897 Ry

     CASE: enthalpy_new < enthalpy_old

[...]

     Threshold (ethr) on eigenvalues was too large:
     Diagonalizing with lowered threshold

     Davidson diagonalization with overlap
     ethr =  1.71E-11,  avg # of iterations =  4.0

[...]

     number of scf cycles    =   5
     number of bfgs steps    =   4

     enthalpy old            =   -6261.1056736866 Ry
     enthalpy new            =   -6261.1056738713 Ry

     CASE: enthalpy_new < enthalpy_old

     small trust_radius: resetting bfgs history

     new trust radius        =       0.0000230845 bohr
     new conv_thr            =            1.0E-10 Ry

     new unit-cell volume =   2837.05006 a.u.^3 (   420.40744 Ang^3 )
     density =      7.32578 g/cm^3

[...]

ATOMIC_POSITIONS (crystal)
W        0.250000000   0.277880181  -0.000000000    0   0   0
W        0.749999979   0.722119819  -0.000000000    0   0   0
W        0.250000000   0.222119835   0.500000000    0   0   0
W        0.749999979   0.777880191   0.500000000    0   0   0
W        0.749999979   0.277880181   0.500000000    0   0   0
W        0.250000000   0.722119819   0.500000000    0   0   0
W        0.749999979   0.222119835  -0.000000000    0   0   0
W        0.250000000   0.777880191  -0.000000000    0   0   0
O        0.250000000   0.007235778   0.000000000    0   0   0
O        0.749999979   0.992764217  -0.000000000    0   0   0
O        0.250000000   0.492764227   0.500000000    0   0   0
O        0.749999979   0.507235783   0.500000000    0   0   0
O        0.749999979   0.007235778   0.500000000    0   0   0
O        0.250000000   0.992764217   0.500000000    0   0   0
O        0.749999979   0.492764227  -0.000000000    0   0   0
O        0.250000000   0.507235783  -0.000000000    0   0   0
O        0.500000000   0.250000000   0.459271452    0   0   0
O        0.500000000   0.750000005   0.540728559    0   0   0
O        0.000000000   0.250000000   0.959271485    0   0   0
O       -0.000000000   0.750000005   0.040728527    0   0   0
O        0.500000000   0.250000000   0.040728527    0   0   0
O        0.500000000   0.750000005   0.959271485    0   0   0
O       -0.000000000   0.250000000   0.540728559    0   0   0
O       -0.000000000   0.750000005   0.459271452    0   0   0
O        0.709271463   0.250000000   0.749999979    0   0   0
O        0.290728527   0.750000005   0.250000000    0   0   0
O        0.790728580   0.250000000   0.250000000    0   0   0
O        0.209271468   0.750000005   0.749999979    0   0   0
O        0.290728527   0.250000000   0.749999979    0   0   0
O        0.709271463   0.750000005   0.250000000    0   0   0
O        0.209271468   0.250000000   0.250000000    0   0   0
O        0.790728580   0.750000005   0.749999979    0   0   0

     Writing output data file Landau_10.save
     NEW-OLD atomic charge density approx. for the potential
     extrapolated charge  367.99765, renormalised to  368.00000

[...]

     Threshold (ethr) on eigenvalues was too large:
     Diagonalizing with lowered threshold

     Davidson diagonalization with overlap
     ethr =  8.33E-11,  avg # of iterations =  2.0

[...]

     bfgs converged in   6 scf cycles and   5 bfgs steps
     (criteria: energy <  1.0E-07 Ry, force <  1.0E-07Ry/Bohr, cell <  5.0E-01kbar)

     End of BFGS Geometry Optimization

     Final enthalpy =   -6261.1056738733 Ry
Begin final coordinates
     new unit-cell volume =   2837.05006 a.u.^3 (   420.40744 Ang^3 )
     density =      7.32578 g/cm^3

CELL_PARAMETERS (angstrom)
   7.388216929  -0.000000155   0.000000039
  -0.000000151   7.701780275  -0.000000002
   0.000000039  -0.000000004   7.388216775

ATOMIC_POSITIONS (crystal)
W        0.250000000   0.277880181  -0.000000000    0   0   0
W        0.749999979   0.722119819  -0.000000000    0   0   0
W        0.250000000   0.222119835   0.500000000    0   0   0
W        0.749999979   0.777880191   0.500000000    0   0   0
W        0.749999979   0.277880181   0.500000000    0   0   0
W        0.250000000   0.722119819   0.500000000    0   0   0
W        0.749999979   0.222119835  -0.000000000    0   0   0
W        0.250000000   0.777880191  -0.000000000    0   0   0
O        0.250000000   0.007235778   0.000000000    0   0   0
O        0.749999979   0.992764217  -0.000000000    0   0   0
O        0.250000000   0.492764227   0.500000000    0   0   0
O        0.749999979   0.507235783   0.500000000    0   0   0
O        0.749999979   0.007235778   0.500000000    0   0   0
O        0.250000000   0.992764217   0.500000000    0   0   0
O        0.749999979   0.492764227  -0.000000000    0   0   0
O        0.250000000   0.507235783  -0.000000000    0   0   0
O        0.500000000   0.250000000   0.459271452    0   0   0
O        0.500000000   0.750000005   0.540728559    0   0   0
O        0.000000000   0.250000000   0.959271485    0   0   0
O       -0.000000000   0.750000005   0.040728527    0   0   0
O        0.500000000   0.250000000   0.040728527    0   0   0
O        0.500000000   0.750000005   0.959271485    0   0   0
O       -0.000000000   0.250000000   0.540728559    0   0   0
O       -0.000000000   0.750000005   0.459271452    0   0   0
O        0.709271463   0.250000000   0.749999979    0   0   0
O        0.290728527   0.750000005   0.250000000    0   0   0
O        0.790728580   0.250000000   0.250000000    0   0   0
O        0.209271468   0.750000005   0.749999979    0   0   0
O        0.290728527   0.250000000   0.749999979    0   0   0
O        0.709271463   0.750000005   0.250000000    0   0   0
O        0.209271468   0.250000000   0.250000000    0   0   0
O        0.790728580   0.750000005   0.749999979    0   0   0
End final coordinates

     A final scf calculation at the relaxed structure.
     The G-vectors are recalculated for the final unit cell
     Results may differ from those at the preceding step.

     bravais-lattice index     =            0
     lattice parameter (alat)  =      13.8397  a.u.
     unit-cell volume          =    2837.0501 (a.u.)^3
     number of atoms/cell      =           32
     number of atomic types    =            2
     number of electrons       =       368.00
     number of Kohn-Sham states=          221
     kinetic-energy cutoff     =     120.0000  Ry
     charge density cutoff     =     480.0000  Ry
     convergence threshold     =      1.0E-10
     mixing beta               =       0.7000
     number of iterations used =            8  plain     mixing
     Exchange-correlation      = SLA PW NOGX NOGC ( 1  4  0  0 0 0)

     celldm(1)=  13.839685  celldm(2)=   0.000000  celldm(3)=   0.000000
     celldm(4)=   0.000000  celldm(5)=   0.000000  celldm(6)=   0.000000

     crystal axes: (cart. coord. in units of alat)
               a(1) = (   1.008817  -0.000000   0.000000 )
               a(2) = (  -0.000000   1.051632  -0.000000 )
               a(3) = (   0.000000  -0.000000   1.008817 )

     reciprocal axes: (cart. coord. in units 2 pi/alat)
               b(1) = (  0.991260  0.000000 -0.000000 )
               b(2) = (  0.000000  0.950903  0.000000 )
               b(3) = ( -0.000000  0.000000  0.991260 )

     PseudoPot. # 1 for W  read from file:
     /cluster/scratch/mnoe/QE/pps/W_ONCV_LDA-4.0.upf
     MD5 check sum: ba0307d5d4cd419d6f1d13dc49d7c13a
     Pseudo is Norm-conserving + core correction, Zval = 28.0
     Generated using ONCVPSP code by D. R. Hamann
     Using radial grid of 1380 points,  8 beta functions with:
                l(1) =   0
                l(2) =   0
                l(3) =   1
                l(4) =   1
                l(5) =   2
                l(6) =   2
                l(7) =   3
                l(8) =   3

     PseudoPot. # 2 for O  read from file:
     /cluster/scratch/mnoe/QE/pps/O_ONCV_LDA-3.0.upf
     MD5 check sum: a1bd6164e7280c17a38c229939bfbd54
     Pseudo is Norm-conserving + core correction, Zval =  6.0
     Generated using ONCVPSP code by D. R. Hamann
     Using radial grid of  926 points,  5 beta functions with:
                l(1) =   0
                l(2) =   0
                l(3) =   1
                l(4) =   1
                l(5) =   2

     atomic species   valence    mass     pseudopotential
        W             28.00   183.84000     W ( 1.00)
        O              6.00    15.99940     O ( 1.00)

      2 Sym. Ops., with inversion, found

   Cartesian axes

     site n.     atom                  positions (alat units)
         1           W   tau(   1) = (   0.2522042   0.2922277   0.0000000  )
         2           W   tau(   2) = (   0.7566125   0.7594043   0.0000000  )
         3           W   tau(   3) = (   0.2522042   0.2335883   0.5044084  )
         4           W   tau(   4) = (   0.7566125   0.8180437   0.5044084  )
         5           W   tau(   5) = (   0.7566125   0.2922277   0.5044084  )
         6           W   tau(   6) = (   0.2522042   0.7594043   0.5044084  )
         7           W   tau(   7) = (   0.7566125   0.2335883   0.0000000  )
         8           W   tau(   8) = (   0.2522042   0.8180437   0.0000000  )
         9           O   tau(   9) = (   0.2522042   0.0076094   0.0000000  )
        10           O   tau(  10) = (   0.7566125   1.0440226   0.0000000  )
        11           O   tau(  11) = (   0.2522042   0.5182066   0.5044084  )
        12           O   tau(  12) = (   0.7566125   0.5334253   0.5044084  )
        13           O   tau(  13) = (   0.7566126   0.0076094   0.5044084  )
        14           O   tau(  14) = (   0.2522042   1.0440226   0.5044084  )
        15           O   tau(  15) = (   0.7566125   0.5182066   0.0000000  )
        16           O   tau(  16) = (   0.2522042   0.5334254   0.0000000  )
        17           O   tau(  17) = (   0.5044084   0.2629080   0.4633207  )
        18           O   tau(  18) = (   0.5044084   0.7887240   0.5454960  )
        19           O   tau(  19) = (   0.0000000   0.2629080   0.9677291  )
        20           O   tau(  20) = (  -0.0000000   0.7887240   0.0410876  )
        21           O   tau(  21) = (   0.5044084   0.2629080   0.0410876  )
        22           O   tau(  22) = (   0.5044084   0.7887240   0.9677291  )
        23           O   tau(  23) = (  -0.0000000   0.2629080   0.5454960  )
        24           O   tau(  24) = (  -0.0000000   0.7887240   0.4633207  )
        25           O   tau(  25) = (   0.7155249   0.2629080   0.7566125  )
        26           O   tau(  26) = (   0.2932918   0.7887240   0.2522042  )
        27           O   tau(  27) = (   0.7977002   0.2629080   0.2522042  )
        28           O   tau(  28) = (   0.2111166   0.7887240   0.7566125  )
        29           O   tau(  29) = (   0.2932918   0.2629080   0.7566125  )
        30           O   tau(  30) = (   0.7155249   0.7887240   0.2522042  )
        31           O   tau(  31) = (   0.2111166   0.2629080   0.2522042  )
        32           O   tau(  32) = (   0.7977002   0.7887240   0.7566125  )

     number of k points=   112  gaussian smearing, width (Ry)=  0.0007

     Number of k-points >= 100: set verbosity='high' to print them.

     Initial potential from superposition of free atoms

     starting charge  367.99656, renormalised to  368.00000
     Starting wfc are  232 randomized atomic wfcs

     Writing output data file Landau_10.save

     Self-consistent Calculation

[...]

     total energy              =   -6261.10588672 Ry
     Harris-Foulkes estimate   =   -6261.10588672 Ry
     estimated scf accuracy    <          2.4E-10 Ry

     iteration # 17     ecut=   120.00 Ry     beta= 0.70
     Davidson diagonalization with overlap
     ethr =  1.00E-13,  avg # of iterations =  2.0

     End of self-consistent calculation

     Number of k-points >= 100: set verbosity='high' to print the bands.

     the Fermi energy is     8.8506 ev

!    total energy              =   -6261.10588672 Ry
     Harris-Foulkes estimate   =   -6261.10588672 Ry
     estimated scf accuracy    <          6.2E-11 Ry

     The total energy is the sum of the following terms:

     one-electron contribution =   -4770.09411437 Ry
     hartree contribution      =    2619.11102622 Ry
     xc contribution           =    -965.66967223 Ry
     ewald contribution        =   -3144.45312634 Ry
     smearing contrib. (-TS)   =      -0.00000000 Ry

     convergence has been achieved in  17 iterations

     Forces acting on atoms (cartesian axes, Ry/au):

     atom    1 type  1   force =     0.00000090    0.00948421   -0.00000222
     atom    2 type  1   force =    -0.00000090   -0.00948421    0.00000222
     atom    3 type  1   force =     0.00000022   -0.00947738    0.00000190
     atom    4 type  1   force =    -0.00000022    0.00947738   -0.00000190
     atom    5 type  1   force =    -0.00000006    0.00949022    0.00000001
     atom    6 type  1   force =     0.00000006   -0.00949022   -0.00000001
     atom    7 type  1   force =     0.00000025   -0.00948183   -0.00000003
     atom    8 type  1   force =    -0.00000025    0.00948183    0.00000003
     atom    9 type  2   force =     0.00000000   -0.00489535    0.00000002
     atom   10 type  2   force =    -0.00000000    0.00489535   -0.00000002
     atom   11 type  2   force =     0.00000001    0.00489505   -0.00000003
     atom   12 type  2   force =    -0.00000001   -0.00489505    0.00000003
     atom   13 type  2   force =    -0.00000001   -0.00489600   -0.00000001
     atom   14 type  2   force =     0.00000001    0.00489600    0.00000001
     atom   15 type  2   force =    -0.00000001    0.00489587    0.00000001
     atom   16 type  2   force =     0.00000001   -0.00489587   -0.00000001
     atom   17 type  2   force =     0.00000007   -0.00000011   -0.00132555
     atom   18 type  2   force =    -0.00000007    0.00000011    0.00132555
     atom   19 type  2   force =     0.00000012    0.00000002   -0.00132552
     atom   20 type  2   force =    -0.00000012   -0.00000002    0.00132552
     atom   21 type  2   force =    -0.00000003    0.00000007    0.00132555
     atom   22 type  2   force =     0.00000003   -0.00000007   -0.00132555
     atom   23 type  2   force =    -0.00000003   -0.00000006    0.00132544
     atom   24 type  2   force =     0.00000003    0.00000006   -0.00132544
     atom   25 type  2   force =    -0.00132553   -0.00000002    0.00000016
     atom   26 type  2   force =     0.00132553    0.00000002   -0.00000016
     atom   27 type  2   force =     0.00132550   -0.00000001   -0.00000016
     atom   28 type  2   force =    -0.00132550    0.00000001    0.00000016
     atom   29 type  2   force =     0.00132556    0.00000009    0.00000026
     atom   30 type  2   force =    -0.00132556   -0.00000009   -0.00000026
     atom   31 type  2   force =    -0.00132543    0.00000002   -0.00000027
     atom   32 type  2   force =     0.00132543   -0.00000002    0.00000027

     Total force =     0.000000     Total SCF correction =     0.000000

     Computing stress (Cartesian axis) and pressure

          total   stress  (Ry/bohr**3)                   (kbar)     P=    0.36
   0.00000362   0.00000000  -0.00000000          0.53      0.00     -0.00
   0.00000000   0.00000019  -0.00000000          0.00      0.03     -0.00
  -0.00000000  -0.00000000   0.00000363         -0.00     -0.00      0.53

     Writing output data file Landau_10.save

     General routines

     Parallel routines

   This run was terminated on:   3: 5:40   5Mar2020

   JOB DONE.