     Program PWSCF v.6.4.1 starts on 21Nov2019 at 16: 4: 7

     K-points division:     npool     =      40
     Reading input from scf.in

     Current dimensions of program PWSCF are:
     Max number of different atomic species (ntypx) = 10
     Max number of k-points (npk) =  40000
     Max angular momentum in pseudopotentials (lmaxx) =  3

     Subspace diagonalization in iterative solution of the eigenvalue problem:
     a serial algorithm will be used

     Message from routine setup:
     using ibrav=0 with symmetry is DISCOURAGED, use correct ibrav instead

     bravais-lattice index     =            0
     lattice parameter (alat)  =       9.9269  a.u.
     unit-cell volume          =    1424.8707 (a.u.)^3
     number of atoms/cell      =           16
     number of atomic types    =            2
     number of electrons       =       184.34
     number of Kohn-Sham states=          111
     kinetic-energy cutoff     =     120.0000  Ry
     charge density cutoff     =     480.0000  Ry
     convergence threshold     =      1.0E-08
     mixing beta               =       0.7000
     number of iterations used =            8  plain     mixing
     Exchange-correlation      = SLA PW NOGX NOGC ( 1  4  0  0 0 0)

     celldm(1)=   9.926857  celldm(2)=   0.000000  celldm(3)=   0.000000
     celldm(4)=   0.000000  celldm(5)=   0.000000  celldm(6)=   0.000000

     crystal axes: (cart. coord. in units of alat)
               a(1) = (   1.000000   0.000000   0.000000 )
               a(2) = (   0.000000   1.000000   0.000000 )
               a(3) = (   0.000000   0.000000   1.456600 )

     reciprocal axes: (cart. coord. in units 2 pi/alat)
               b(1) = (  1.000000  0.000000  0.000000 )
               b(2) = (  0.000000  1.000000  0.000000 )
               b(3) = (  0.000000  0.000000  0.686530 )

     PseudoPot. # 1 for W  read from file:
     /cluster/scratch/mnoe/QE/pps/W_ONCV_LDA-4.0.upf
     MD5 check sum: ba0307d5d4cd419d6f1d13dc49d7c13a
     Pseudo is Norm-conserving + core correction, Zval = 28.0
     Generated using ONCVPSP code by D. R. Hamann
     Using radial grid of 1380 points,  8 beta functions with:
                l(1) =   0
                l(2) =   0
                l(3) =   1
                l(4) =   1
                l(5) =   2
                l(6) =   2
                l(7) =   3
                l(8) =   3

     PseudoPot. # 2 for O  read from file:
     /cluster/scratch/mnoe/QE/pps/O_ONCV_LDA-3.0.upf
     MD5 check sum: b55cdb4f45ae2203d24ad12cf8d61a31
     Pseudo is Norm-conserving + core correction, Zval =  6.0
     Generated using ONCVPSP code by D. R. Hamann
     Using radial grid of  926 points,  5 beta functions with:
                l(1) =   0
                l(2) =   0
                l(3) =   1
                l(4) =   1
                l(5) =   2

     atomic species   valence    mass     pseudopotential
        W             28.00   183.84000     W ( 1.00)
        O              6.00    15.99940     O ( 1.00)

     16 Sym. Ops., with inversion, found (14 have fractional translation)

   Cartesian axes

     site n.     atom                  positions (alat units)
         1           W   tau(   1) = (   0.2500000   0.2500000   0.3058453  )
         2           W   tau(   2) = (   0.7500000   0.7500000   1.1507544  )
         3           W   tau(   3) = (   0.7500000   0.7500000   0.4224546  )
         4           W   tau(   4) = (   0.2500000   0.2500000   1.0341451  )
         5           O   tau(   5) = (   0.2500000   0.2500000   0.6937068  )
         6           O   tau(   6) = (   0.7500000   0.7500000   0.7628929  )
         7           O   tau(   7) = (   0.7500000   0.7500000   0.0345931  )
         8           O   tau(   8) = (   0.2500000   0.2500000   1.4220066  )
         9           O   tau(   9) = (   0.4915399   0.5084601   0.3641499  )
        10           O   tau(  10) = (   0.5084601   0.4915399   1.0924497  )
        11           O   tau(  11) = (   0.0084601   0.9915399   0.3641499  )
        12           O   tau(  12) = (   0.9915398   0.0084601   1.0924497  )
        13           O   tau(  13) = (   0.9915399   0.4915399   0.3641499  )
        14           O   tau(  14) = (   0.0084601   0.5084601   1.0924497  )
        15           O   tau(  15) = (   0.5084601   0.0084601   0.3641499  )
        16           O   tau(  16) = (   0.4915399   0.9915398   1.0924497  )

     number of k points=    40  gaussian smearing, width (Ry)=  0.0007
                       cart. coord. in units 2pi/alat
        k(    1) = (   0.0000000   0.0000000   0.0000000), wk =   0.0092593
        k(    2) = (   0.0000000   0.0000000   0.1144217), wk =   0.0185185
        k(    3) = (   0.0000000   0.0000000   0.2288435), wk =   0.0185185
        k(    4) = (   0.0000000   0.0000000  -0.3432652), wk =   0.0092593
        k(    5) = (   0.0000000   0.1666667   0.0000000), wk =   0.0370370
        k(    6) = (   0.0000000   0.1666667   0.1144217), wk =   0.0740741
        k(    7) = (   0.0000000   0.1666667   0.2288435), wk =   0.0740741
        k(    8) = (   0.0000000   0.1666667  -0.3432652), wk =   0.0370370
        k(    9) = (   0.0000000   0.3333333   0.0000000), wk =   0.0370370
        k(   10) = (   0.0000000   0.3333333   0.1144217), wk =   0.0740741
        k(   11) = (   0.0000000   0.3333333   0.2288435), wk =   0.0740741
        k(   12) = (   0.0000000   0.3333333  -0.3432652), wk =   0.0370370
        k(   13) = (   0.0000000  -0.5000000   0.0000000), wk =   0.0185185
        k(   14) = (   0.0000000  -0.5000000   0.1144217), wk =   0.0370370
        k(   15) = (   0.0000000  -0.5000000   0.2288435), wk =   0.0370370
        k(   16) = (   0.0000000  -0.5000000  -0.3432652), wk =   0.0185185
        k(   17) = (   0.1666667   0.1666667   0.0000000), wk =   0.0370370
        k(   18) = (   0.1666667   0.1666667   0.1144217), wk =   0.0740741
        k(   19) = (   0.1666667   0.1666667   0.2288435), wk =   0.0740741
        k(   20) = (   0.1666667   0.1666667  -0.3432652), wk =   0.0370370
        k(   21) = (   0.1666667   0.3333333   0.0000000), wk =   0.0740741
        k(   22) = (   0.1666667   0.3333333   0.1144217), wk =   0.1481481
        k(   23) = (   0.1666667   0.3333333   0.2288435), wk =   0.1481481
        k(   24) = (   0.1666667   0.3333333  -0.3432652), wk =   0.0740741
        k(   25) = (   0.1666667  -0.5000000   0.0000000), wk =   0.0370370
        k(   26) = (   0.1666667  -0.5000000   0.1144217), wk =   0.0740741
        k(   27) = (   0.1666667  -0.5000000   0.2288435), wk =   0.0740741
        k(   28) = (   0.1666667  -0.5000000  -0.3432652), wk =   0.0370370
        k(   29) = (   0.3333333   0.3333333   0.0000000), wk =   0.0370370
        k(   30) = (   0.3333333   0.3333333   0.1144217), wk =   0.0740741
        k(   31) = (   0.3333333   0.3333333   0.2288435), wk =   0.0740741
        k(   32) = (   0.3333333   0.3333333  -0.3432652), wk =   0.0370370
        k(   33) = (   0.3333333  -0.5000000   0.0000000), wk =   0.0370370
        k(   34) = (   0.3333333  -0.5000000   0.1144217), wk =   0.0740741
        k(   35) = (   0.3333333  -0.5000000   0.2288435), wk =   0.0740741
        k(   36) = (   0.3333333  -0.5000000  -0.3432652), wk =   0.0370370
        k(   37) = (  -0.5000000  -0.5000000   0.0000000), wk =   0.0092593
        k(   38) = (  -0.5000000  -0.5000000   0.1144217), wk =   0.0185185
        k(   39) = (  -0.5000000  -0.5000000   0.2288435), wk =   0.0185185
        k(   40) = (  -0.5000000  -0.5000000  -0.3432652), wk =   0.0092593

     Initial potential from superposition of free atoms

     starting charge  183.99828, renormalised to  184.34000
     Starting wfcs are  116 randomized atomic wfcs

     Self-consistent Calculation

     iteration #  1     ecut=   120.00 Ry     beta= 0.70
     Davidson diagonalization with overlap
     ethr =  1.00E-02,  avg # of iterations =  4.6

     total energy              =   -3126.57808110 Ry
     Harris-Foulkes estimate   =   -3132.12803198 Ry
     estimated scf accuracy    <       6.98169652 Ry

[...]

     total energy              =   -3130.28732032 Ry
     Harris-Foulkes estimate   =   -3130.28732034 Ry
     estimated scf accuracy    <       0.00000004 Ry

     iteration # 12     ecut=   120.00 Ry     beta= 0.70
     Davidson diagonalization with overlap
     ethr =  2.13E-11,  avg # of iterations =  2.0

     End of self-consistent calculation

          k = 0.0000 0.0000 0.0000 ( 31639 PWs)   bands (ev):

   -66.2940 -66.2935 -66.2927 -66.2922 -30.6855 -30.6812 -30.6274 -30.6274
   -30.6233 -30.6233 -30.6144 -30.6113 -30.5474 -30.5474 -30.5441 -30.5441
   -20.4460 -20.4460 -20.4459 -20.4459 -20.4392 -20.4392 -20.4325 -20.4325
   -20.4307 -20.4306 -20.4306 -20.4305 -20.4294 -20.4294 -20.4281 -20.4281
   -20.4267 -20.4267 -20.4253 -20.4253 -20.4175 -20.4175 -20.4174 -20.4174
   -20.4149 -20.4149 -20.4149 -20.4149 -10.1749  -9.7800  -9.3993  -9.1423
    -9.1183  -9.0423  -7.9910  -7.8802  -7.8802  -7.8671  -7.8557  -7.8557
     0.9821   0.9826   1.0250   1.2321   1.3234   1.4236   2.3410   2.3410
     2.3713   2.4842   3.9428   3.9428   4.6345   4.6345   4.8651   5.4579
     5.4579   5.5513   5.5513   5.7125   5.7125   5.8107   5.8616   6.4748
     6.4748   6.7097   6.9960   7.0453   7.0566   7.0566   7.0718   7.0718
     8.1520   8.1520   8.2444   8.2539   8.8501   8.8554   9.4608   9.4608
    12.3345  12.3345  13.2075  13.2075  13.4285  13.6611  13.6730  14.0897
    14.0897  14.1437  14.1464  14.5063  15.4718  16.3358  16.7796

[...]

          k = 0.3333-0.5000-0.3433 ( 31652 PWs)   bands (ev):

[...]

          k =-0.5000-0.5000 0.0000 ( 31608 PWs)   bands (ev):

[...]

          k =-0.5000-0.5000-0.3433 ( 31648 PWs)   bands (ev):

   -66.2931 -66.2931 -66.2931 -66.2931 -30.6482 -30.6482 -30.6482 -30.6482
   -30.6301 -30.6301 -30.6301 -30.6301 -30.5415 -30.5415 -30.5415 -30.5415
   -20.4459 -20.4459 -20.4459 -20.4459 -20.4359 -20.4359 -20.4359 -20.4359
   -20.4306 -20.4306 -20.4306 -20.4306 -20.4287 -20.4287 -20.4287 -20.4287
   -20.4259 -20.4259 -20.4259 -20.4259 -20.4191 -20.4191 -20.4191 -20.4191
   -20.4133 -20.4133 -20.4133 -20.4133  -9.5343  -9.5343  -9.5343  -9.5343
    -8.6388  -8.6387  -8.6387  -8.6387  -7.9224  -7.9224  -7.9224  -7.9224
     1.1171   1.1171   1.1171   1.1171   2.9251   2.9251   2.9251   2.9251
     3.1743   3.1743   3.1743   3.1743   4.5346   4.5346   4.5346   4.5346
     5.1887   5.1887   5.1887   5.1887   5.8633   5.8633   5.8633   5.8633
     6.1040   6.1040   6.1040   6.1040   6.5584   6.5584   6.5584   6.5584
     7.3736   7.3736   7.3736   7.3736  11.0753  11.0753  11.0753  11.0753
    12.4017  12.4017  12.4017  12.4017  13.5001  13.5001  13.5001  13.5001
    14.9671  14.9671  14.9671  14.9671  17.7584  17.7584  17.7584

     the Fermi energy is     9.5097 ev

!    total energy              =   -3130.28732032 Ry
     Harris-Foulkes estimate   =   -3130.28732032 Ry
     estimated scf accuracy    <          2.1E-09 Ry

     The total energy is the sum of the following terms:

     one-electron contribution =   -2397.33008350 Ry
     hartree contribution      =    1316.37833439 Ry
     xc contribution           =    -483.23226343 Ry
     ewald contribution        =   -1566.10322030 Ry
     smearing contrib. (-TS)   =      -0.00008747 Ry

     convergence has been achieved in  12 iterations

     Writing output data file Landau_24.save/

     General routines

     Parallel routines

   This run was terminated on:  16: 6:24  21Nov2019

   JOB DONE.