     Program PWSCF v.6.2 (svn rev. 14038) starts on 10Sep2019 at 13:10:26

     K-points division:     npool     =      40
     Reading input from scf.in

     Current dimensions of program PWSCF are:
     Max number of different atomic species (ntypx) = 10
     Max number of k-points (npk) =  40000
     Max angular momentum in pseudopotentials (lmaxx) =  3

     Subspace diagonalization in iterative solution of the eigenvalue problem:
     a serial algorithm will be used

     Found symmetry operation: I + ( -0.5000  0.0000 -0.5000)
     This is a supercell, fractional translations are disabled

     bravais-lattice index     =            0
     lattice parameter (alat)  =      13.8397  a.u.
     unit-cell volume          =    2804.9817 (a.u.)^3
     number of atoms/cell      =           32
     number of atomic types    =            2
     number of electrons       =       368.05
     number of Kohn-Sham states=          221
     kinetic-energy cutoff     =     120.0000  Ry
     charge density cutoff     =     480.0000  Ry
     convergence threshold     =      1.0E-08
     mixing beta               =       0.7000
     number of iterations used =            8  plain     mixing
     Exchange-correlation      = SLA PW NOGX NOGC ( 1  4  0  0 0 0)

     celldm(1)=  13.839685  celldm(2)=   0.000000  celldm(3)=   0.000000
     celldm(4)=   0.000000  celldm(5)=   0.000000  celldm(6)=   0.000000

     crystal axes: (cart. coord. in units of alat)
               a(1) = (   1.000000   0.000000   0.000000 )
               a(2) = (   0.000000   1.058160   0.000000 )
               a(3) = (   0.000000   0.000000   1.000000 )

     reciprocal axes: (cart. coord. in units 2 pi/alat)
               b(1) = (  1.000000  0.000000  0.000000 )
               b(2) = (  0.000000  0.945037  0.000000 )
               b(3) = (  0.000000  0.000000  1.000000 )

     PseudoPot. # 1 for W  read from file:
     /cluster/scratch/mnoe/QE/pps/W_ONCV_LDA-4.0.upf
     MD5 check sum: ba0307d5d4cd419d6f1d13dc49d7c13a
     Pseudo is Norm-conserving + core correction, Zval = 28.0
     Generated using ONCVPSP code by D. R. Hamann
     Using radial grid of 1380 points,  8 beta functions with:
                l(1) =   0
                l(2) =   0
                l(3) =   1
                l(4) =   1
                l(5) =   2
                l(6) =   2
                l(7) =   3
                l(8) =   3

     PseudoPot. # 2 for O  read from file:
     /cluster/scratch/mnoe/QE/pps/O_ONCV_LDA-3.0.upf
     MD5 check sum: ca1549d10c4e927e51167f6fca52ae32
     Pseudo is Norm-conserving + core correction, Zval =  6.0
     Generated using ONCVPSP code by D. R. Hamann
     Using radial grid of  926 points,  5 beta functions with:
                l(1) =   0
                l(2) =   0
                l(3) =   1
                l(4) =   1
                l(5) =   2

     atomic species   valence    mass     pseudopotential
        W             28.00   183.84000     W ( 1.00)
        O              6.00    15.99940     O ( 1.00)

      4 Sym. Ops. (no inversion) found

   Cartesian axes

     site n.     atom                  positions (alat units)
         1           W   tau(   1) = (   0.2500000   0.2982530   0.2500000  )
         2           W   tau(   2) = (   0.7500000   0.7599071   0.2500000  )
         3           W   tau(   3) = (   0.2500000   0.2308271   0.7500000  )
         4           W   tau(   4) = (   0.7500000   0.8273330   0.7500000  )
         5           W   tau(   5) = (   0.7500000   0.2982530   0.7500000  )
         6           W   tau(   6) = (   0.2500000   0.7599071   0.7500000  )
         7           W   tau(   7) = (   0.7500000   0.2308271   0.2500000  )
         8           W   tau(   8) = (   0.2500000   0.8273330   0.2500000  )
         9           O   tau(   9) = (   0.2500000   0.0088039   0.2500000  )
        10           O   tau(  10) = (   0.7500000   1.0493562   0.2500000  )
        11           O   tau(  11) = (   0.2500000   0.5202761   0.7500000  )
        12           O   tau(  12) = (   0.7500000   0.5378839   0.7500000  )
        13           O   tau(  13) = (   0.7500000   0.0088039   0.7500000  )
        14           O   tau(  14) = (   0.2500000   1.0493562   0.7500000  )
        15           O   tau(  15) = (   0.7500000   0.5202761   0.2500000  )
        16           O   tau(  16) = (   0.2500000   0.5378839   0.2500000  )
        17           O   tau(  17) = (   0.5000000   0.2645400   0.6995400  )
        18           O   tau(  18) = (   0.5000000   0.7936200   0.8004600  )
        19           O   tau(  19) = (   0.0000000   0.2645400   1.1995400  )
        20           O   tau(  20) = (   0.0000000   0.7936200   0.3004600  )
        21           O   tau(  21) = (   0.5000000   0.2645400   0.3004600  )
        22           O   tau(  22) = (   0.5000000   0.7936200   1.1995400  )
        23           O   tau(  23) = (   0.0000000   0.2645400   0.8004600  )
        24           O   tau(  24) = (   0.0000000   0.7936200   0.6995400  )
        25           O   tau(  25) = (   0.6995400   0.2645400   1.0000000  )
        26           O   tau(  26) = (   0.3004600   0.7936200   0.5000000  )
        27           O   tau(  27) = (   0.8004600   0.2645400   0.5000000  )
        28           O   tau(  28) = (   0.1995400   0.7936200   1.0000000  )
        29           O   tau(  29) = (   0.3004600   0.2645400   1.0000000  )
        30           O   tau(  30) = (   0.6995400   0.7936200   0.5000000  )
        31           O   tau(  31) = (   0.1995400   0.2645400   0.5000000  )
        32           O   tau(  32) = (   0.8004600   0.7936200   1.0000000  )

     number of k points=    44  gaussian smearing, width (Ry)=  0.0007
                       cart. coord. in units 2pi/alat
        k(    1) = (   0.0000000   0.0000000   0.0000000), wk =   0.0092593
        k(    2) = (   0.0000000   0.0000000   0.1666667), wk =   0.0370370
        k(    3) = (   0.0000000   0.0000000   0.3333333), wk =   0.0370370
        k(    4) = (   0.0000000   0.0000000  -0.5000000), wk =   0.0185185
        k(    5) = (   0.0000000   0.1575061   0.0000000), wk =   0.0185185
        k(    6) = (   0.0000000   0.1575061   0.1666667), wk =   0.0740741
        k(    7) = (   0.0000000   0.1575061   0.3333333), wk =   0.0740741
        k(    8) = (   0.0000000   0.1575061  -0.5000000), wk =   0.0370370
        k(    9) = (   0.0000000   0.3150122   0.0000000), wk =   0.0185185
        k(   10) = (   0.0000000   0.3150122   0.1666667), wk =   0.0740741
        k(   11) = (   0.0000000   0.3150122   0.3333333), wk =   0.0740741
        k(   12) = (   0.0000000   0.3150122  -0.5000000), wk =   0.0370370
        k(   13) = (   0.0000000  -0.4725183   0.0000000), wk =   0.0092593
        k(   14) = (   0.0000000  -0.4725183   0.1666667), wk =   0.0370370
        k(   15) = (   0.0000000  -0.4725183   0.3333333), wk =   0.0370370
        k(   16) = (   0.0000000  -0.4725183  -0.5000000), wk =   0.0185185
        k(   17) = (   0.1666667   0.0000000   0.1666667), wk =   0.0370370
        k(   18) = (   0.1666667   0.0000000   0.3333333), wk =   0.0370370
        k(   19) = (   0.1666667   0.0000000  -0.5000000), wk =   0.0370370
        k(   20) = (   0.1666667   0.1575061   0.1666667), wk =   0.0740741
        k(   21) = (   0.1666667   0.1575061   0.3333333), wk =   0.0740741
        k(   22) = (   0.1666667   0.1575061  -0.5000000), wk =   0.0740741
        k(   23) = (   0.1666667   0.3150122   0.1666667), wk =   0.0740741
        k(   24) = (   0.1666667   0.3150122   0.3333333), wk =   0.0740741
        k(   25) = (   0.1666667   0.3150122  -0.5000000), wk =   0.0740741
        k(   26) = (   0.1666667  -0.4725183   0.1666667), wk =   0.0370370
        k(   27) = (   0.1666667  -0.4725183   0.3333333), wk =   0.0370370
        k(   28) = (   0.1666667  -0.4725183  -0.5000000), wk =   0.0370370
        k(   29) = (   0.3333333   0.0000000   0.3333333), wk =   0.0370370
        k(   30) = (   0.3333333   0.0000000  -0.5000000), wk =   0.0370370
        k(   31) = (   0.3333333   0.1575061   0.3333333), wk =   0.0740741
        k(   32) = (   0.3333333   0.1575061  -0.5000000), wk =   0.0740741
        k(   33) = (   0.3333333   0.3150122   0.3333333), wk =   0.0740741
        k(   34) = (   0.3333333   0.3150122  -0.5000000), wk =   0.0740741
        k(   35) = (   0.3333333  -0.4725183   0.3333333), wk =   0.0370370
        k(   36) = (   0.3333333  -0.4725183  -0.5000000), wk =   0.0370370
        k(   37) = (  -0.5000000   0.0000000  -0.5000000), wk =   0.0092593
        k(   38) = (  -0.5000000   0.1575061  -0.5000000), wk =   0.0185185
        k(   39) = (  -0.5000000   0.3150122  -0.5000000), wk =   0.0185185
        k(   40) = (  -0.5000000  -0.4725183  -0.5000000), wk =   0.0092593
        k(   41) = (   0.3333333   0.0000000   0.1666667), wk =   0.0370370
        k(   42) = (   0.3333333  -0.1575061   0.1666667), wk =   0.0740741
        k(   43) = (   0.3333333  -0.3150122   0.1666667), wk =   0.0740741
        k(   44) = (   0.3333333   0.4725183   0.1666667), wk =   0.0370370

     Initial potential from superposition of free atoms

     starting charge  367.99656, renormalised to  368.05000
     Starting wfc are  232 randomized atomic wfcs

     Self-consistent Calculation

     iteration #  1     ecut=   120.00 Ry     beta= 0.70
     Davidson diagonalization with overlap
     ethr =  1.00E-02,  avg # of iterations =  5.0

     total energy              =   -6253.93597167 Ry
     Harris-Foulkes estimate   =   -6264.56060125 Ry
     estimated scf accuracy    <      13.44709439 Ry

[...]

     total energy              =   -6261.07547485 Ry
     Harris-Foulkes estimate   =   -6261.07547486 Ry
     estimated scf accuracy    <       0.00000002 Ry

     iteration # 14     ecut=   120.00 Ry     beta= 0.70
     Davidson diagonalization with overlap
     ethr =  5.14E-12,  avg # of iterations =  2.8

     End of self-consistent calculation

          k = 0.0000 0.0000 0.0000 ( 62239 PWs)   bands (ev):

   -66.1634 -66.1630 -66.1624 -66.1624 -66.1619 -66.1619 -66.1613 -66.1609
   -30.5617 -30.5585 -30.5585 -30.5553 -30.5074 -30.5074 -30.5041 -30.5041
   -30.5025 -30.5021 -30.5021 -30.4999 -30.4999 -30.4988 -30.4988 -30.4973
   -30.4066 -30.4066 -30.4039 -30.4039 -30.4022 -30.4022 -30.3995 -30.3995
   -20.3225 -20.3225 -20.3225 -20.3225 -20.3223 -20.3223 -20.3222 -20.3222
   -20.3069 -20.3066 -20.3066 -20.3064 -20.3014 -20.3011 -20.3011 -20.3008
   -20.2995 -20.2995 -20.2992 -20.2992 -20.2987 -20.2987 -20.2986 -20.2986
   -20.2980 -20.2980 -20.2979 -20.2979 -20.2972 -20.2972 -20.2971 -20.2971
   -20.2903 -20.2903 -20.2901 -20.2900 -20.2898 -20.2898 -20.2898 -20.2898
   -20.2896 -20.2896 -20.2896 -20.2895 -20.2893 -20.2893 -20.2893 -20.2892
   -20.2821 -20.2821 -20.2816 -20.2816 -20.2814 -20.2814 -20.2810 -20.2810
    -9.9487  -9.6724  -9.5068  -9.5068  -9.2400  -9.2400  -9.0727  -9.0516
    -9.0396  -8.8753  -8.8489  -8.8489  -7.8542  -7.7953  -7.7953  -7.7787
    -7.7787  -7.7530  -7.7530  -7.7438  -7.6231  -7.6231  -7.6022  -7.6022
     1.1894   1.1899   1.2712   1.2712   1.2893   1.2893   1.3700   1.6309
     1.6309   1.6372   1.6414   1.8586   2.3905   2.4635   2.5808   2.5808
     2.7291   2.7291   4.1350   4.1350   4.3553   4.3553   4.8385   4.8385
     4.8486   4.8486   4.8754   4.8754   5.0352   5.0352   5.0666   5.4410
     5.4410   5.5189   5.5189   5.5281   5.5281   5.5808   5.5808   5.8105
     5.8105   5.8811   5.8811   5.9430   5.9613   6.0377   6.0377   6.1098
     6.1098   6.2478   6.2478   6.5775   6.5775   6.8042   6.8042   6.8322
     6.8322   6.8851   7.0223   7.0223   7.0906   7.0906   7.3950   7.3950
     7.4396   7.4396   7.7824   7.7961   8.0767   8.0767   8.1463   8.1463
     9.2337   9.2411   9.9909   9.9909  10.0302  10.0302  12.2314  12.2314
    12.2857  12.2857  12.3009  12.3009  12.4969  12.4969  12.8589  12.8617
    13.2328  13.2328  13.4078  13.4078  13.7735  14.1534  14.1534  14.1578
    14.1578  14.3388  14.3388  14.9104  15.4120  15.4231  15.4604  16.0469
    16.0469  16.8117  17.0528  17.0528  17.4835

[...]

          k =-0.5000 0.0000-0.5000 ( 62308 PWs)   bands (ev):

[...]

          k =-0.5000-0.4725-0.5000 ( 62272 PWs)   bands (ev):

[...]

          k = 0.3333 0.4725 0.1667 ( 62252 PWs)   bands (ev):

   -66.1629 -66.1628 -66.1624 -66.1624 -66.1620 -66.1619 -66.1615 -66.1615
   -30.5324 -30.5324 -30.5306 -30.5306 -30.5297 -30.5297 -30.5279 -30.5278
   -30.4974 -30.4974 -30.4948 -30.4948 -30.4797 -30.4797 -30.4754 -30.4754
   -30.4299 -30.4299 -30.4259 -30.4259 -30.4108 -30.4108 -30.4086 -30.4086
   -20.3225 -20.3225 -20.3225 -20.3225 -20.3223 -20.3223 -20.3223 -20.3222
   -20.3042 -20.3042 -20.3041 -20.3041 -20.3039 -20.3039 -20.3038 -20.3038
   -20.2989 -20.2989 -20.2988 -20.2988 -20.2986 -20.2986 -20.2985 -20.2985
   -20.2979 -20.2979 -20.2978 -20.2978 -20.2977 -20.2976 -20.2976 -20.2976
   -20.2907 -20.2907 -20.2904 -20.2904 -20.2903 -20.2903 -20.2897 -20.2897
   -20.2889 -20.2889 -20.2888 -20.2888 -20.2874 -20.2874 -20.2869 -20.2869
   -20.2837 -20.2837 -20.2831 -20.2831 -20.2822 -20.2822 -20.2819 -20.2819
    -9.5303  -9.5302  -9.3004  -9.3003  -9.0129  -9.0125  -8.8390  -8.8389
    -8.5464  -8.5455  -8.4665  -8.4647  -8.4268  -8.4257  -8.4152  -8.4151
    -8.1670  -8.1663  -8.0657  -8.0651  -7.8485  -7.8481  -7.7736  -7.7732
     1.5680   1.5691   1.5866   1.5879   2.2300   2.2306   2.4148   2.4160
     2.8804   2.8853   3.2228   3.2233   3.2247   3.2277   3.2321   3.2430
     3.2746   3.3075   3.4265   3.4730   3.4847   3.5173   3.6565   3.6672
     3.7572   3.7716   3.8832   3.9510   4.4555   4.5068   4.6119   4.6128
     4.6694   4.7319   4.7413   4.7823   4.9808   4.9940   5.0018   5.0664
     5.1441   5.2008   5.3258   5.4009   5.7738   5.7896   6.2015   6.2022
     6.6119   6.6195   6.7030   6.7174   6.8638   6.8705   7.0171   7.0829
     7.0996   7.1234   7.1741   7.1997   7.2125   7.2152   7.4254   7.4372
     7.4547   7.4663   7.4693   7.4950   7.4960   7.5333   7.7665   7.7698
    10.4897  10.4932  11.3750  11.3917  11.4081  11.4217  11.7532  11.7628
    11.7687  11.7826  11.8619  11.9141  12.3988  12.4525  12.7129  12.7372
    12.9245  12.9535  13.0997  13.1780  13.4063  13.4340  13.4579  13.5105
    15.6336  15.6525  15.8387  15.8564  16.2368  16.2638  16.6073  16.6336
    16.8481  16.8522  17.4204  17.4620  17.8521

     the Fermi energy is     9.2361 ev

!    total energy              =   -6261.07547485 Ry
     Harris-Foulkes estimate   =   -6261.07547486 Ry
     estimated scf accuracy    <          5.8E-09 Ry

     The total energy is the sum of the following terms:

     one-electron contribution =   -4721.84606118 Ry
     hartree contribution      =    2597.77388450 Ry
     xc contribution           =    -965.72214890 Ry
     ewald contribution        =   -3171.28112790 Ry
     smearing contrib. (-TS)   =      -0.00002137 Ry

     convergence has been achieved in  14 iterations

     Writing output data file Landau_0.save

     General routines

     Parallel routines

   This run was terminated on:  13:36: 6  10Sep2019

   JOB DONE.