     Program PWSCF v.6.2 (svn rev. 14038) starts on 30Apr2019 at 22:29:11

     K-points division:     npool     =      32
     Reading input from rscf.in

     Current dimensions of program PWSCF are:
     Max number of different atomic species (ntypx) = 10
     Max number of k-points (npk) =  40000
     Max angular momentum in pseudopotentials (lmaxx) =  3

     Subspace diagonalization in iterative solution of the eigenvalue problem:
     a serial algorithm will be used

     bravais-lattice index     =            0
     lattice parameter (alat)  =      13.8397  a.u.
     unit-cell volume          =    2804.9816 (a.u.)^3
     number of atoms/cell      =           32
     number of atomic types    =            2
     number of electrons       =       368.00
     number of Kohn-Sham states=          221
     kinetic-energy cutoff     =     120.0000  Ry
     charge density cutoff     =     480.0000  Ry
     convergence threshold     =      1.0E-08
     mixing beta               =       0.7000
     number of iterations used =            8  plain     mixing
     Exchange-correlation      = SLA PW NOGX NOGC ( 1  4  0  0 0 0)
     nstep                     =           50

     celldm(1)=  13.839685  celldm(2)=   0.000000  celldm(3)=   0.000000
     celldm(4)=   0.000000  celldm(5)=   0.000000  celldm(6)=   0.000000

     crystal axes: (cart. coord. in units of alat)
               a(1) = (   1.000000   0.000000   0.000000 )
               a(2) = (   0.000000   1.058160   0.000000 )
               a(3) = (   0.000000   0.000000   1.000000 )

     reciprocal axes: (cart. coord. in units 2 pi/alat)
               b(1) = (  1.000000  0.000000  0.000000 )
               b(2) = (  0.000000  0.945037  0.000000 )
               b(3) = (  0.000000  0.000000  1.000000 )

     PseudoPot. # 1 for W  read from file:
     /cluster/scratch/mnoe/QE/pps/W_ONCV_LDA-4.0.upf
     MD5 check sum: ba0307d5d4cd419d6f1d13dc49d7c13a
     Pseudo is Norm-conserving + core correction, Zval = 28.0
     Generated using ONCVPSP code by D. R. Hamann
     Using radial grid of 1380 points,  8 beta functions with:
                l(1) =   0
                l(2) =   0
                l(3) =   1
                l(4) =   1
                l(5) =   2
                l(6) =   2
                l(7) =   3
                l(8) =   3

     PseudoPot. # 2 for O  read from file:
     /cluster/scratch/mnoe/QE/pps/O_ONCV_LDA-3.0.upf
     MD5 check sum: a1bd6164e7280c17a38c229939bfbd54
     Pseudo is Norm-conserving + core correction, Zval =  6.0
     Generated using ONCVPSP code by D. R. Hamann
     Using radial grid of  926 points,  5 beta functions with:
                l(1) =   0
                l(2) =   0
                l(3) =   1
                l(4) =   1
                l(5) =   2

     atomic species   valence    mass     pseudopotential
        W             28.00   183.84000     W ( 1.00)
        O              6.00    15.99940     O ( 1.00)

      8 Sym. Ops. (no inversion) found ( 4 have fractional translation)

   Cartesian axes

     site n.     atom                  positions (alat units)
         1           W   tau(   1) = (   0.2616900   0.2982530   0.2503300  )
         2           W   tau(   2) = (  -0.2503300   0.7599071  -0.7383099  )
         3           W   tau(   3) = (   0.2383100   0.2308271   0.7503300  )
         4           W   tau(   4) = (   0.7503300   0.8273330   0.7616900  )
         5           W   tau(   5) = (   0.7383100   0.2982530   0.7496700  )
         6           W   tau(   6) = (   0.2503300   0.7599071   0.7383100  )
         7           W   tau(   7) = (  -0.2383099   0.2308271  -0.7503300  )
         8           W   tau(   8) = (   0.2496700   0.8273330   0.2383100  )
         9           O   tau(   9) = (   0.2628600   0.0088039   0.2593200  )
        10           O   tau(  10) = (  -0.2593200   1.0493562  -0.7371400  )
        11           O   tau(  11) = (   0.2371400   0.5202761   0.7593199  )
        12           O   tau(  12) = (   0.7593200   0.5378839   0.7628600  )
        13           O   tau(  13) = (   0.7371400   0.0088039   0.7406800  )
        14           O   tau(  14) = (   0.2593200   1.0493562   0.7371400  )
        15           O   tau(  15) = (  -0.2371400   0.5202761  -0.7593200  )
        16           O   tau(  16) = (   0.2406800   0.5378839   0.2371400  )
        17           O   tau(  17) = (   0.4958700   0.2792061   0.6995400  )
        18           O   tau(  18) = (   0.4991500   0.7842024   0.8004600  )
        19           O   tau(  19) = (  -0.9958699   0.2498739   1.1995400  )
        20           O   tau(  20) = (   0.0008500   0.8030376   0.3004600  )
        21           O   tau(  21) = (   0.5041300   0.2792061   0.3004600  )
        22           O   tau(  22) = (   0.5008500   0.7842024   1.1995400  )
        23           O   tau(  23) = (  -0.0041301   0.2498739   0.8004600  )
        24           O   tau(  24) = (  -1.0008499   0.8030376   0.6995400  )
        25           O   tau(  25) = (   0.6995400   0.2551224   2.0008500  )
        26           O   tau(  26) = (   0.3004600   0.7789538   0.4958700  )
        27           O   tau(  27) = (   0.8004600   0.2739576   0.5008500  )
        28           O   tau(  28) = (   0.1995400   0.8082861   1.9958700  )
        29           O   tau(  29) = (   0.3004600   0.2551224   0.9991501  )
        30           O   tau(  30) = (   0.6995400   0.7789538   0.5041300  )
        31           O   tau(  31) = (   0.1995400   0.2739576   0.4991500  )
        32           O   tau(  32) = (   0.8004600   0.8082861   1.0041301  )

     number of k points=    40  gaussian smearing, width (Ry)=  0.0007
                       cart. coord. in units 2pi/alat
        k(    1) = (   0.0000000   0.0000000   0.0000000), wk =   0.0092593
        k(    2) = (   0.0000000   0.0000000   0.1666667), wk =   0.0370370
        k(    3) = (   0.0000000   0.0000000   0.3333333), wk =   0.0370370
        k(    4) = (   0.0000000   0.0000000  -0.5000000), wk =   0.0185185
        k(    5) = (   0.0000000   0.1575061   0.0000000), wk =   0.0185185
        k(    6) = (   0.0000000   0.1575061   0.1666667), wk =   0.0740741
        k(    7) = (   0.0000000   0.1575061   0.3333333), wk =   0.0740741
        k(    8) = (   0.0000000   0.1575061  -0.5000000), wk =   0.0370370
        k(    9) = (   0.0000000   0.3150122   0.0000000), wk =   0.0185185
        k(   10) = (   0.0000000   0.3150122   0.1666667), wk =   0.0740741
        k(   11) = (   0.0000000   0.3150122   0.3333333), wk =   0.0740741
        k(   12) = (   0.0000000   0.3150122  -0.5000000), wk =   0.0370370
        k(   13) = (   0.0000000  -0.4725183   0.0000000), wk =   0.0092593
        k(   14) = (   0.0000000  -0.4725183   0.1666667), wk =   0.0370370
        k(   15) = (   0.0000000  -0.4725183   0.3333333), wk =   0.0370370
        k(   16) = (   0.0000000  -0.4725183  -0.5000000), wk =   0.0185185
        k(   17) = (   0.1666667   0.0000000   0.1666667), wk =   0.0370370
        k(   18) = (   0.1666667   0.0000000   0.3333333), wk =   0.0740741
        k(   19) = (   0.1666667   0.0000000  -0.5000000), wk =   0.0370370
        k(   20) = (   0.1666667   0.1575061   0.1666667), wk =   0.0740741
        k(   21) = (   0.1666667   0.1575061   0.3333333), wk =   0.1481481
        k(   22) = (   0.1666667   0.1575061  -0.5000000), wk =   0.0740741
        k(   23) = (   0.1666667   0.3150122   0.1666667), wk =   0.0740741
        k(   24) = (   0.1666667   0.3150122   0.3333333), wk =   0.1481481
        k(   25) = (   0.1666667   0.3150122  -0.5000000), wk =   0.0740741
        k(   26) = (   0.1666667  -0.4725183   0.1666667), wk =   0.0370370
        k(   27) = (   0.1666667  -0.4725183   0.3333333), wk =   0.0740741
        k(   28) = (   0.1666667  -0.4725183  -0.5000000), wk =   0.0370370
        k(   29) = (   0.3333333   0.0000000   0.3333333), wk =   0.0370370
        k(   30) = (   0.3333333   0.0000000  -0.5000000), wk =   0.0370370
        k(   31) = (   0.3333333   0.1575061   0.3333333), wk =   0.0740741
        k(   32) = (   0.3333333   0.1575061  -0.5000000), wk =   0.0740741
        k(   33) = (   0.3333333   0.3150122   0.3333333), wk =   0.0740741
        k(   34) = (   0.3333333   0.3150122  -0.5000000), wk =   0.0740741
        k(   35) = (   0.3333333  -0.4725183   0.3333333), wk =   0.0370370
        k(   36) = (   0.3333333  -0.4725183  -0.5000000), wk =   0.0370370
        k(   37) = (  -0.5000000   0.0000000  -0.5000000), wk =   0.0092593
        k(   38) = (  -0.5000000   0.1575061  -0.5000000), wk =   0.0185185
        k(   39) = (  -0.5000000   0.3150122  -0.5000000), wk =   0.0185185
        k(   40) = (  -0.5000000  -0.4725183  -0.5000000), wk =   0.0092593

     Initial potential from superposition of free atoms

     starting charge  367.99656, renormalised to  368.00000
     Starting wfc are  232 randomized atomic wfcs

     Self-consistent Calculation

     iteration #  1     ecut=   120.00 Ry     beta= 0.70
     Davidson diagonalization with overlap
     ethr =  1.00E-02,  avg # of iterations =  5.0

     total energy              =   -6253.96841573 Ry
     Harris-Foulkes estimate   =   -6264.57806082 Ry
     estimated scf accuracy    <      13.43056652 Ry

[...]

     End of self-consistent calculation

          k = 0.0000 0.0000 0.0000 ( 62239 PWs)   bands (ev):

   -66.1733 -66.1728 -66.1722 -66.1722 -66.1718 -66.1718 -66.1712 -66.1708
   -30.5593 -30.5508 -30.5508 -30.5463 -30.5390 -30.5295 -30.5295 -30.5264
   -30.5085 -30.5070 -30.5039 -30.5039 -30.4850 -30.4820 -30.4820 -30.4799
   -30.4366 -30.4366 -30.4362 -30.4321 -30.4097 -30.4097 -30.4053 -30.4042
   -20.3360 -20.3359 -20.3358 -20.3358 -20.3356 -20.3356 -20.3355 -20.3354
   -20.3164 -20.3162 -20.3158 -20.3158 -20.3157 -20.3157 -20.3154 -20.3152
   -20.3152 -20.3149 -20.3149 -20.3144 -20.3124 -20.3117 -20.3117 -20.3113
   -20.3107 -20.3101 -20.3101 -20.3095 -20.3085 -20.3080 -20.3080 -20.3076
   -20.3041 -20.3037 -20.3035 -20.3035 -20.3014 -20.3013 -20.3011 -20.3011
   -20.2970 -20.2965 -20.2965 -20.2964 -20.2963 -20.2963 -20.2954 -20.2953
   -20.2952 -20.2950 -20.2948 -20.2948 -20.2916 -20.2916 -20.2912 -20.2909
    -9.9461  -9.6846  -9.4925  -9.4925  -9.2426  -9.2426  -9.0499  -9.0388
    -9.0005  -8.8247  -8.8049  -8.8049  -7.8746  -7.8272  -7.7872  -7.7681
    -7.7680  -7.7680  -7.7561  -7.7046  -7.6709  -7.6709  -7.6112  -7.6112
     1.1975   1.2006   1.2749   1.2749   1.3233   1.3233   1.4332   1.6442
     1.7033   1.7033   1.7112   1.8860   2.3661   2.4433   2.5953   2.6308
     2.7629   2.7629   4.1421   4.1421   4.3586   4.3634   4.7971   4.7971
     4.8124   4.8299   4.8299   4.9025   5.1017   5.1017   5.1367   5.4715
     5.4757   5.5128   5.5128   5.5583   5.5583   5.6424   5.6424   5.8494
     5.8494   5.8777   5.8862   5.8863   5.9623   5.9677   5.9824   6.0888
     6.0998   6.2525   6.2656   6.5468   6.5468   6.8067   6.8447   6.8447
     6.8682   6.8723   6.9633   7.0101   7.0521   7.0521   7.2937   7.2937
     7.4107   7.4107   7.7432   7.7584   8.0576   8.0576   8.0983   8.1492
     9.3565   9.3607  10.0267  10.0372  10.0624  10.0624  12.2193  12.2193
[...]
W        0.238309973   0.218140012   0.750329955    0   0   0
W        0.750330024   0.781859972   0.761689995    0   0   0
W        0.738309976   0.281860003   0.749670013    0   0   0
W        0.250329955   0.718139997   0.738309973    0   0   0
W       -0.238309940   0.218140012  -0.750329988    0   0   0
W        0.249670013   0.781859972   0.238309976    0   0   0
O        0.262859991   0.008320000   0.259319989    0   0   0
O       -0.259319987   0.991680023  -0.737140009    0   0   0
O        0.237139993   0.491679992   0.759319939    0   0   0
O        0.759319989   0.508319977   0.762859975    0   0   0
O        0.737140011   0.008320000   0.740680013    0   0   0
O        0.259319955   0.991680023   0.737139977    0   0   0
O       -0.237140009   0.491679992  -0.759319987    0   0   0
O        0.240680029   0.508319977   0.237140011    0   0   0
O        0.495869985   0.263859999   0.699540004    0   0   0
O        0.499149997   0.741099943   0.800459963    0   0   0
O       -0.995869919   0.236139971   1.199540037    0   0   0
O        0.000849961   0.758899906   0.300460012    0   0   0
O        0.504130015   0.263859999   0.300460012    0   0   0
O        0.500850003   0.741099943   1.199540037    0   0   0
O       -0.004130058   0.236139971   0.800459963    0   0   0
O       -1.000849938   0.758899906   0.699540004    0   0   0
O        0.699540037   0.241099973   2.000849970    0   0   0
O        0.300459996   0.736139880   0.495870017    0   0   0
O        0.800459963   0.258899997   0.500850036    0   0   0
O        0.199540020   0.763859969   1.995869952    0   0   0
O        0.300459996   0.241099973   0.999150072    0   0   0
O        0.699540037   0.736139880   0.504130048    0   0   0
O        0.199540020   0.258899997   0.499150029    0   0   0
O        0.800459963   0.763859969   1.004130090    0   0   0
End final coordinates

     A final scf calculation at the relaxed structure.
     The G-vectors are recalculated for the final unit cell
     Results may differ from those at the preceding step.

     bravais-lattice index     =            0
     lattice parameter (alat)  =      13.8397  a.u.
     unit-cell volume          =    2796.3335 (a.u.)^3
     number of atoms/cell      =           32
     number of atomic types    =            2
     number of electrons       =       368.00
     number of Kohn-Sham states=          221
     kinetic-energy cutoff     =     120.0000  Ry
     charge density cutoff     =     480.0000  Ry
     convergence threshold     =      1.0E-10
     mixing beta               =       0.7000
     number of iterations used =            8  plain     mixing
     Exchange-correlation      = SLA PW NOGX NOGC ( 1  4  0  0 0 0)

     celldm(1)=  13.839685  celldm(2)=   0.000000  celldm(3)=   0.000000
     celldm(4)=   0.000000  celldm(5)=   0.000000  celldm(6)=   0.000000

     crystal axes: (cart. coord. in units of alat)
               a(1) = (   1.000508   0.000000   0.000000 )
               a(2) = (   0.000000   1.053828   0.000000 )
               a(3) = (   0.000000   0.000000   1.000508 )

     reciprocal axes: (cart. coord. in units 2 pi/alat)
               b(1) = (  0.999493  0.000000  0.000000 )
               b(2) = (  0.000000  0.948922  0.000000 )
               b(3) = (  0.000000  0.000000  0.999493 )

     PseudoPot. # 1 for W  read from file:
     /cluster/scratch/mnoe/QE/pps/W_ONCV_LDA-4.0.upf
     MD5 check sum: ba0307d5d4cd419d6f1d13dc49d7c13a
     Pseudo is Norm-conserving + core correction, Zval = 28.0
     Generated using ONCVPSP code by D. R. Hamann
     Using radial grid of 1380 points,  8 beta functions with:
                l(1) =   0
                l(2) =   0
                l(3) =   1
                l(4) =   1
                l(5) =   2
                l(6) =   2
                l(7) =   3
                l(8) =   3

     PseudoPot. # 2 for O  read from file:
     /cluster/scratch/mnoe/QE/pps/O_ONCV_LDA-3.0.upf
     MD5 check sum: a1bd6164e7280c17a38c229939bfbd54
     Pseudo is Norm-conserving + core correction, Zval =  6.0
     Generated using ONCVPSP code by D. R. Hamann
     Using radial grid of  926 points,  5 beta functions with:
                l(1) =   0
                l(2) =   0
                l(3) =   1
                l(4) =   1
                l(5) =   2

     atomic species   valence    mass     pseudopotential
        W             28.00   183.84000     W ( 1.00)
        O              6.00    15.99940     O ( 1.00)

      8 Sym. Ops. (no inversion) found ( 4 have fractional translation)

   Cartesian axes

     site n.     atom                  positions (alat units)
         1           W   tau(   1) = (   0.2618228   0.2970318   0.2504571  )
         2           W   tau(   2) = (  -0.2504570   0.7567957  -0.7386847  )
         3           W   tau(   3) = (   0.2384309   0.2298820   0.7507108  )
         4           W   tau(   4) = (   0.7507109   0.8239456   0.7620766  )
         5           W   tau(   5) = (   0.7386847   0.2970318   0.7500505  )
         6           W   tau(   6) = (   0.2504570   0.7567957   0.7386847  )
         7           W   tau(   7) = (  -0.2384309   0.2298820  -0.7507108  )
         8           W   tau(   8) = (   0.2497967   0.8239456   0.2384309  )
         9           O   tau(   9) = (   0.2629934   0.0087678   0.2594516  )
        10           O   tau(  10) = (  -0.2594516   1.0450597  -0.7375142  )
        11           O   tau(  11) = (   0.2372604   0.5181459   0.7597053  )
        12           O   tau(  12) = (   0.7597054   0.5356816   0.7632472  )
        13           O   tau(  13) = (   0.7375142   0.0087678   0.7410560  )
        14           O   tau(  14) = (   0.2594516   1.0450597   0.7375141  )
        15           O   tau(  15) = (  -0.2372604   0.5181459  -0.7597054  )
        16           O   tau(  16) = (   0.2408022   0.5356816   0.2372604  )
        17           O   tau(  17) = (   0.4961217   0.2780629   0.6998951  )
        18           O   tau(  18) = (   0.4994034   0.7809915   0.8008663  )
        19           O   tau(  19) = (  -0.9963754   0.2488508   1.2001489  )
        20           O   tau(  20) = (   0.0008504   0.7997496   0.3006125  )
        21           O   tau(  21) = (   0.5043859   0.2780629   0.3006125  )
        22           O   tau(  22) = (   0.5011042   0.7809915   1.2001489  )
        23           O   tau(  23) = (  -0.0041322   0.2488508   0.8008663  )
        24           O   tau(  24) = (  -1.0013579   0.7997496   0.6998951  )
        25           O   tau(  25) = (   0.6998951   0.2540778   2.0018655  )
        26           O   tau(  26) = (   0.3006125   0.7757645   0.4961217  )
        27           O   tau(  27) = (   0.8008663   0.2728360   0.5011043  )
        28           O   tau(  28) = (   0.1996413   0.8049767   1.9968830  )
        29           O   tau(  29) = (   0.3006125   0.2540778   0.9996572  )
        30           O   tau(  30) = (   0.6998951   0.7757645   0.5043859  )
        31           O   tau(  31) = (   0.1996413   0.2728360   0.4994034  )
        32           O   tau(  32) = (   0.8008663   0.8049767   1.0046398  )

     number of k points=    40  gaussian smearing, width (Ry)=  0.0007
                       cart. coord. in units 2pi/alat
        k(    1) = (   0.0000000   0.0000000   0.0000000), wk =   0.0092593
        k(    2) = (   0.0000000   0.0000000   0.1665821), wk =   0.0370370
        k(    3) = (   0.0000000   0.0000000   0.3331642), wk =   0.0370370
        k(    4) = (   0.0000000   0.0000000  -0.4997463), wk =   0.0185185
        k(    5) = (   0.0000000   0.1581536   0.0000000), wk =   0.0185185
        k(    6) = (   0.0000000   0.1581536   0.1665821), wk =   0.0740741
        k(    7) = (   0.0000000   0.1581536   0.3331642), wk =   0.0740741
        k(    8) = (   0.0000000   0.1581536  -0.4997463), wk =   0.0370370
        k(    9) = (   0.0000000   0.3163073   0.0000000), wk =   0.0185185
        k(   10) = (   0.0000000   0.3163073   0.1665821), wk =   0.0740741
        k(   11) = (   0.0000000   0.3163073   0.3331642), wk =   0.0740741
        k(   12) = (   0.0000000   0.3163073  -0.4997463), wk =   0.0370370
        k(   13) = (   0.0000000  -0.4744609   0.0000000), wk =   0.0092593
        k(   14) = (   0.0000000  -0.4744609   0.1665821), wk =   0.0370370
        k(   15) = (   0.0000000  -0.4744609   0.3331642), wk =   0.0370370
        k(   16) = (   0.0000000  -0.4744609  -0.4997463), wk =   0.0185185
        k(   17) = (   0.1665821   0.0000000   0.1665821), wk =   0.0370370
        k(   18) = (   0.1665821   0.0000000   0.3331642), wk =   0.0740741
        k(   19) = (   0.1665821   0.0000000  -0.4997463), wk =   0.0370370
        k(   20) = (   0.1665821   0.1581536   0.1665821), wk =   0.0740741
        k(   21) = (   0.1665821   0.1581536   0.3331642), wk =   0.1481481
        k(   22) = (   0.1665821   0.1581536  -0.4997463), wk =   0.0740741
        k(   23) = (   0.1665821   0.3163073   0.1665821), wk =   0.0740741
        k(   24) = (   0.1665821   0.3163073   0.3331642), wk =   0.1481481
        k(   25) = (   0.1665821   0.3163073  -0.4997463), wk =   0.0740741
        k(   26) = (   0.1665821  -0.4744609   0.1665821), wk =   0.0370370
        k(   27) = (   0.1665821  -0.4744609   0.3331642), wk =   0.0740741
        k(   28) = (   0.1665821  -0.4744609  -0.4997463), wk =   0.0370370
        k(   29) = (   0.3331642   0.0000000   0.3331642), wk =   0.0370370
        k(   30) = (   0.3331642   0.0000000  -0.4997463), wk =   0.0370370
        k(   31) = (   0.3331642   0.1581536   0.3331642), wk =   0.0740741
        k(   32) = (   0.3331642   0.1581536  -0.4997463), wk =   0.0740741
        k(   33) = (   0.3331642   0.3163073   0.3331642), wk =   0.0740741
        k(   34) = (   0.3331642   0.3163073  -0.4997463), wk =   0.0740741
        k(   35) = (   0.3331642  -0.4744609   0.3331642), wk =   0.0370370
        k(   36) = (   0.3331642  -0.4744609  -0.4997463), wk =   0.0370370
        k(   37) = (  -0.4997463   0.0000000  -0.4997463), wk =   0.0092593
        k(   38) = (  -0.4997463   0.1581536  -0.4997463), wk =   0.0185185
        k(   39) = (  -0.4997463   0.3163073  -0.4997463), wk =   0.0185185
        k(   40) = (  -0.4997463  -0.4744609  -0.4997463), wk =   0.0092593

     Initial potential from superposition of free atoms

     starting charge  367.99656, renormalised to  368.00000
     Starting wfc are  232 randomized atomic wfcs

     Writing output data file Landau_13.save

     Self-consistent Calculation

[...]

     total energy              =   -6261.11056331 Ry
     Harris-Foulkes estimate   =   -6261.11056331 Ry
     estimated scf accuracy    <          4.8E-10 Ry

     iteration # 14     ecut=   120.00 Ry     beta= 0.70
     Davidson diagonalization with overlap
     ethr =  1.32E-13,  avg # of iterations =  3.0

     End of self-consistent calculation

[...]

          k = 0.3332-0.4745-0.4997 ( 61996 PWs)   bands (ev):

[...]

          k =-0.4997-0.4745-0.4997 ( 62064 PWs)   bands (ev):

   -66.1120 -66.1120 -66.1120 -66.1120 -66.1120 -66.1119 -66.1119 -66.1119
   -30.4782 -30.4782 -30.4773 -30.4773 -30.4773 -30.4773 -30.4771 -30.4770
   -30.4227 -30.4227 -30.4227 -30.4227 -30.4227 -30.4226 -30.4217 -30.4217
   -30.3943 -30.3943 -30.3941 -30.3941 -30.3940 -30.3940 -30.3940 -30.3940
   -20.2728 -20.2728 -20.2728 -20.2728 -20.2727 -20.2727 -20.2727 -20.2727
   -20.2528 -20.2528 -20.2528 -20.2528 -20.2528 -20.2528 -20.2528 -20.2527
   -20.2503 -20.2503 -20.2503 -20.2503 -20.2502 -20.2502 -20.2501 -20.2501
   -20.2465 -20.2465 -20.2465 -20.2465 -20.2465 -20.2465 -20.2464 -20.2464
   -20.2373 -20.2373 -20.2373 -20.2372 -20.2372 -20.2372 -20.2372 -20.2372
   -20.2349 -20.2349 -20.2348 -20.2348 -20.2348 -20.2348 -20.2348 -20.2347
   -20.2303 -20.2303 -20.2303 -20.2303 -20.2303 -20.2303 -20.2302 -20.2302
    -8.9080  -8.9080  -8.8847  -8.8846  -8.8830  -8.8830  -8.8829  -8.8829
    -8.3908  -8.3908  -8.3598  -8.3598  -8.3598  -8.3598  -8.3553  -8.3553
    -8.2919  -8.2919  -8.2919  -8.2918  -8.2748  -8.2748  -8.2542  -8.2541
     2.9950   2.9950   2.9970   2.9971   2.9971   2.9971   3.0152   3.0152
     3.2207   3.2207   3.2260   3.2260   3.2261   3.2261   3.2526   3.2526
     3.3803   3.3803   3.5066   3.5066   3.5066   3.5066   3.5679   3.5680
     4.1765   4.1765   4.2004   4.2005   4.2056   4.2056   4.2056   4.2056
     4.4152   4.4152   4.4153   4.4153   4.4305   4.4306   4.4555   4.4556
     4.5289   4.5290   4.5465   4.5465   4.5569   4.5570   4.5570   4.5570
     7.1333   7.1333   7.2285   7.2285   7.2285   7.2285   7.3470   7.3470
     7.3965   7.3965   7.3965   7.3966   7.3990   7.3990   7.4016   7.4016
     7.6097   7.6097   7.6338   7.6338   7.6339   7.6339   7.6751   7.6751
    11.8774  11.8774  11.8774  11.8774  11.8779  11.8779  11.8877  11.8877
    12.2450  12.2450  12.3178  12.3178  12.3179  12.3179  12.4417  12.4418
    12.5486  12.5486  12.6097  12.6097  12.6097  12.6097  12.6355  12.6355
    17.1550  17.1550  17.1844  17.1844  17.1844  17.1845  17.2110  17.2110
    17.3973  17.3973  17.3973  17.3973  17.4518

     the Fermi energy is     8.9868 ev

!    total energy              =   -6261.11056331 Ry
     Harris-Foulkes estimate   =   -6261.11056331 Ry
     estimated scf accuracy    <          7.4E-11 Ry

     The total energy is the sum of the following terms:

     one-electron contribution =   -4705.50462236 Ry
     hartree contribution      =    2590.20222873 Ry
     xc contribution           =    -965.66606150 Ry
     ewald contribution        =   -3180.14210817 Ry
     smearing contrib. (-TS)   =      -0.00000000 Ry

     convergence has been achieved in  14 iterations

     Forces acting on atoms (cartesian axes, Ry/au):

     atom    1 type  1   force =    -0.00198316   -0.00260353   -0.00022773
     atom    2 type  1   force =     0.00022773    0.00260353   -0.00198316
     atom    3 type  1   force =     0.00198316    0.00260353   -0.00022773
     atom    4 type  1   force =    -0.00022773   -0.00260353   -0.00198316
     atom    5 type  1   force =     0.00198316   -0.00260353    0.00022773
     atom    6 type  1   force =    -0.00022773    0.00260353    0.00198316
     atom    7 type  1   force =    -0.00198316    0.00260353    0.00022773
     atom    8 type  1   force =     0.00022773   -0.00260353    0.00198316
     atom    9 type  2   force =     0.00077731    0.00141579   -0.00020149
     atom   10 type  2   force =     0.00020149   -0.00141579    0.00077731
     atom   11 type  2   force =    -0.00077731   -0.00141579   -0.00020149
     atom   12 type  2   force =    -0.00020149    0.00141579    0.00077731
     atom   13 type  2   force =    -0.00077731    0.00141579    0.00020149
     atom   14 type  2   force =    -0.00020149   -0.00141579   -0.00077731
     atom   15 type  2   force =     0.00077731   -0.00141579    0.00020149
     atom   16 type  2   force =     0.00020149    0.00141579   -0.00077731
     atom   17 type  2   force =    -0.00189430    0.00085087    0.00020841
     atom   18 type  2   force =    -0.00028458    0.00152006   -0.00090430
     atom   19 type  2   force =     0.00189430   -0.00085087    0.00020841
     atom   20 type  2   force =     0.00028458   -0.00152006   -0.00090430
     atom   21 type  2   force =     0.00189430    0.00085087   -0.00020841
     atom   22 type  2   force =     0.00028458    0.00152006    0.00090430
     atom   23 type  2   force =    -0.00189430   -0.00085087   -0.00020841
     atom   24 type  2   force =    -0.00028458   -0.00152006    0.00090430
     atom   25 type  2   force =     0.00090430    0.00152006    0.00028458
     atom   26 type  2   force =    -0.00020841   -0.00085087   -0.00189430
     atom   27 type  2   force =    -0.00090430   -0.00152006    0.00028458
     atom   28 type  2   force =     0.00020841    0.00085087   -0.00189430
     atom   29 type  2   force =    -0.00090430    0.00152006   -0.00028458
     atom   30 type  2   force =     0.00020841   -0.00085087    0.00189430
     atom   31 type  2   force =     0.00090430   -0.00152006   -0.00028458
     atom   32 type  2   force =    -0.00020841    0.00085087    0.00189430

     Total force =     0.000000     Total SCF correction =     0.000000

     Computing stress (Cartesian axis) and pressure

          total   stress  (Ry/bohr**3)                   (kbar)     P=   -0.05
  -0.00000012   0.00000000   0.00000000         -0.02      0.00      0.00
   0.00000000  -0.00000083   0.00000000          0.00     -0.12      0.00
   0.00000000   0.00000000  -0.00000012          0.00      0.00     -0.02

     Writing output data file Landau_13.save

     General routines

     Parallel routines

   This run was terminated on:   1: 8:20   1May2019

   JOB DONE.