     Program PWSCF v.6.2 (svn rev. 14038) starts on 20Mar2020 at  3: 8:51

     K-points division:     npool     =      40
     Reading input from rscf.in

     Current dimensions of program PWSCF are:
     Max number of different atomic species (ntypx) = 10
     Max number of k-points (npk) =  40000
     Max angular momentum in pseudopotentials (lmaxx) =  3

     Subspace diagonalization in iterative solution of the eigenvalue problem:
     a serial algorithm will be used

     bravais-lattice index     =            0
     lattice parameter (alat)  =      13.8397  a.u.
     unit-cell volume          =    2804.9816 (a.u.)^3
     number of atoms/cell      =           32
     number of atomic types    =            2
     number of electrons       =       368.00
     number of Kohn-Sham states=          221
     kinetic-energy cutoff     =     120.0000  Ry
     charge density cutoff     =     480.0000  Ry
     convergence threshold     =      1.0E-08
     mixing beta               =       0.7000
     number of iterations used =            8  plain     mixing
     Exchange-correlation      = SLA PW NOGX NOGC ( 1  4  0  0 0 0)
     nstep                     =           50

     celldm(1)=  13.839685  celldm(2)=   0.000000  celldm(3)=   0.000000
     celldm(4)=   0.000000  celldm(5)=   0.000000  celldm(6)=   0.000000

     crystal axes: (cart. coord. in units of alat)
               a(1) = (   1.000000   0.000000   0.000000 )
               a(2) = (   0.000000   1.058160   0.000000 )
               a(3) = (   0.000000   0.000000   1.000000 )

     reciprocal axes: (cart. coord. in units 2 pi/alat)
               b(1) = (  1.000000  0.000000  0.000000 )
               b(2) = (  0.000000  0.945037  0.000000 )
               b(3) = (  0.000000  0.000000  1.000000 )

     PseudoPot. # 1 for W  read from file:
     /cluster/scratch/mnoe/QE/pps/W_ONCV_LDA-4.0.upf
     MD5 check sum: ba0307d5d4cd419d6f1d13dc49d7c13a
     Pseudo is Norm-conserving + core correction, Zval = 28.0
     Generated using ONCVPSP code by D. R. Hamann
     Using radial grid of 1380 points,  8 beta functions with:
                l(1) =   0
                l(2) =   0
                l(3) =   1
                l(4) =   1
                l(5) =   2
                l(6) =   2
                l(7) =   3
                l(8) =   3

     PseudoPot. # 2 for O  read from file:
     /cluster/scratch/mnoe/QE/pps/O_ONCV_LDA-3.0.upf
     MD5 check sum: a1bd6164e7280c17a38c229939bfbd54
     Pseudo is Norm-conserving + core correction, Zval =  6.0
     Generated using ONCVPSP code by D. R. Hamann
     Using radial grid of  926 points,  5 beta functions with:
                l(1) =   0
                l(2) =   0
                l(3) =   1
                l(4) =   1
                l(5) =   2

     atomic species   valence    mass     pseudopotential
        W             28.00   183.84000     W ( 1.00)
        O              6.00    15.99940     O ( 1.00)

      8 Sym. Ops., with inversion, found ( 6 have fractional translation)

   Cartesian axes

     site n.     atom                  positions (alat units)
         1           W   tau(   1) = (   0.2468817   0.2945131   0.0029447  )
         2           W   tau(   2) = (   0.7531183   0.7636470  -0.0029447  )
         3           W   tau(   3) = (   0.2531183   0.2345670   0.5029447  )
         4           W   tau(   4) = (   0.7468816   0.8235931   0.4970553  )
         5           W   tau(   5) = (   0.7531183   0.2945131   0.4970553  )
         6           W   tau(   6) = (   0.2468817   0.7636470   0.5029447  )
         7           W   tau(   7) = (   0.7468816   0.2345670  -0.0029447  )
         8           W   tau(   8) = (   0.2531183   0.8235931   0.0029447  )
         9           O   tau(   9) = (   0.2442471   0.0077850   0.0009153  )
        10           O   tau(  10) = (   0.7557529  -0.0077850  -0.0009153  )
        11           O   tau(  11) = (   0.2557529   0.5212950   0.5009153  )
        12           O   tau(  12) = (   0.7442471   0.5368651   0.4990847  )
        13           O   tau(  13) = (   0.7557529   0.0077850   0.4990847  )
        14           O   tau(  14) = (   0.2442471  -0.0077850   0.5009153  )
        15           O   tau(  15) = (   0.7442471   0.5212950  -0.0009153  )
        16           O   tau(  16) = (   0.2557529   0.5368651   0.0009153  )
        17           O   tau(  17) = (   0.5008529   0.2582956   0.4581822  )
        18           O   tau(  18) = (   0.4991471   0.7998645   0.5418178  )
        19           O   tau(  19) = (  -0.0008529   0.2707845   0.9581823  )
        20           O   tau(  20) = (   0.0008529   0.7873756   0.0418177  )
        21           O   tau(  21) = (   0.4991471   0.2582956   0.0418177  )
        22           O   tau(  22) = (   0.5008529   0.7998645   0.9581823  )
        23           O   tau(  23) = (   0.0008529   0.2707845   0.5418178  )
        24           O   tau(  24) = (  -0.0008529   0.7873756   0.4581822  )
        25           O   tau(  25) = (   0.7081823   0.2631773   0.7487071  )
        26           O   tau(  26) = (   0.2918177   0.7949828   0.2512928  )
        27           O   tau(  27) = (   0.7918178   0.2659027   0.2487072  )
        28           O   tau(  28) = (   0.2081823   0.7922574   0.7512928  )
        29           O   tau(  29) = (   0.2918177   0.2631773   0.7512928  )
        30           O   tau(  30) = (   0.7081823   0.7949828   0.2487072  )
        31           O   tau(  31) = (   0.2081823   0.2659027   0.2512928  )
        32           O   tau(  32) = (   0.7918178   0.7922574   0.7487071  )

     number of k points=    64  gaussian smearing, width (Ry)=  0.0007
                       cart. coord. in units 2pi/alat
        k(    1) = (   0.0000000   0.0000000   0.0000000), wk =   0.0092593
        k(    2) = (   0.0000000   0.0000000   0.1666667), wk =   0.0185185
        k(    3) = (   0.0000000   0.0000000   0.3333333), wk =   0.0185185
        k(    4) = (   0.0000000   0.0000000  -0.5000000), wk =   0.0092593
        k(    5) = (   0.0000000   0.1575061   0.0000000), wk =   0.0185185
        k(    6) = (   0.0000000   0.1575061   0.1666667), wk =   0.0370370
        k(    7) = (   0.0000000   0.1575061   0.3333333), wk =   0.0370370
        k(    8) = (   0.0000000   0.1575061  -0.5000000), wk =   0.0185185
        k(    9) = (   0.0000000   0.3150122   0.0000000), wk =   0.0185185
        k(   10) = (   0.0000000   0.3150122   0.1666667), wk =   0.0370370
        k(   11) = (   0.0000000   0.3150122   0.3333333), wk =   0.0370370
        k(   12) = (   0.0000000   0.3150122  -0.5000000), wk =   0.0185185
        k(   13) = (   0.0000000  -0.4725183   0.0000000), wk =   0.0092593
        k(   14) = (   0.0000000  -0.4725183   0.1666667), wk =   0.0185185
        k(   15) = (   0.0000000  -0.4725183   0.3333333), wk =   0.0185185
        k(   16) = (   0.0000000  -0.4725183  -0.5000000), wk =   0.0092593
        k(   17) = (   0.1666667   0.0000000   0.1666667), wk =   0.0370370
        k(   18) = (   0.1666667   0.0000000   0.3333333), wk =   0.0370370
        k(   19) = (   0.1666667   0.0000000  -0.5000000), wk =   0.0185185
        k(   20) = (   0.1666667   0.1575061   0.1666667), wk =   0.0740741
        k(   21) = (   0.1666667   0.1575061   0.3333333), wk =   0.0740741
        k(   22) = (   0.1666667   0.1575061  -0.5000000), wk =   0.0370370
        k(   23) = (   0.1666667   0.3150122   0.1666667), wk =   0.0740741
        k(   24) = (   0.1666667   0.3150122   0.3333333), wk =   0.0740741
        k(   25) = (   0.1666667   0.3150122  -0.5000000), wk =   0.0370370
        k(   26) = (   0.1666667  -0.4725183   0.1666667), wk =   0.0370370
        k(   27) = (   0.1666667  -0.4725183   0.3333333), wk =   0.0370370
        k(   28) = (   0.1666667  -0.4725183  -0.5000000), wk =   0.0185185
        k(   29) = (   0.3333333   0.0000000   0.3333333), wk =   0.0370370
        k(   30) = (   0.3333333   0.0000000  -0.5000000), wk =   0.0185185
        k(   31) = (   0.3333333   0.1575061   0.3333333), wk =   0.0740741
        k(   32) = (   0.3333333   0.1575061  -0.5000000), wk =   0.0370370
        k(   33) = (   0.3333333   0.3150122   0.3333333), wk =   0.0740741
        k(   34) = (   0.3333333   0.3150122  -0.5000000), wk =   0.0370370
        k(   35) = (   0.3333333  -0.4725183   0.3333333), wk =   0.0370370
        k(   36) = (   0.3333333  -0.4725183  -0.5000000), wk =   0.0185185
        k(   37) = (  -0.5000000   0.0000000  -0.5000000), wk =   0.0092593
        k(   38) = (  -0.5000000   0.1575061  -0.5000000), wk =   0.0185185
        k(   39) = (  -0.5000000   0.3150122  -0.5000000), wk =   0.0185185
        k(   40) = (  -0.5000000  -0.4725183  -0.5000000), wk =   0.0092593
        k(   41) = (   0.1666667   0.0000000   0.0000000), wk =   0.0185185
        k(   42) = (   0.3333333   0.0000000   0.0000000), wk =   0.0185185
        k(   43) = (  -0.5000000   0.0000000   0.0000000), wk =   0.0092593
        k(   44) = (   0.1666667  -0.1575061   0.0000000), wk =   0.0370370
        k(   45) = (   0.3333333  -0.1575061   0.0000000), wk =   0.0370370
        k(   46) = (  -0.5000000  -0.1575061   0.0000000), wk =   0.0185185
        k(   47) = (   0.1666667  -0.3150122   0.0000000), wk =   0.0370370
        k(   48) = (   0.3333333  -0.3150122   0.0000000), wk =   0.0370370
        k(   49) = (  -0.5000000  -0.3150122   0.0000000), wk =   0.0185185
        k(   50) = (   0.1666667   0.4725183   0.0000000), wk =   0.0185185
        k(   51) = (   0.3333333   0.4725183   0.0000000), wk =   0.0185185
        k(   52) = (  -0.5000000   0.4725183   0.0000000), wk =   0.0092593
        k(   53) = (   0.3333333   0.0000000   0.1666667), wk =   0.0370370
        k(   54) = (  -0.5000000   0.0000000   0.1666667), wk =   0.0185185
        k(   55) = (   0.3333333  -0.1575061   0.1666667), wk =   0.0740741
        k(   56) = (  -0.5000000  -0.1575061   0.1666667), wk =   0.0370370
        k(   57) = (   0.3333333  -0.3150122   0.1666667), wk =   0.0740741
        k(   58) = (  -0.5000000  -0.3150122   0.1666667), wk =   0.0370370
        k(   59) = (   0.3333333   0.4725183   0.1666667), wk =   0.0370370
        k(   60) = (  -0.5000000   0.4725183   0.1666667), wk =   0.0185185
        k(   61) = (  -0.5000000   0.0000000   0.3333333), wk =   0.0185185
        k(   62) = (  -0.5000000  -0.1575061   0.3333333), wk =   0.0370370
        k(   63) = (  -0.5000000  -0.3150122   0.3333333), wk =   0.0370370
        k(   64) = (  -0.5000000   0.4725183   0.3333333), wk =   0.0185185

     Initial potential from superposition of free atoms

     starting charge  367.99656, renormalised to  368.00000
     Starting wfc are  232 randomized atomic wfcs

     Self-consistent Calculation

     iteration #  1     ecut=   120.00 Ry     beta= 0.70
     Davidson diagonalization with overlap
     ethr =  1.00E-02,  avg # of iterations =  5.1

     total energy              =   -6254.03330954 Ry
     Harris-Foulkes estimate   =   -6264.58477776 Ry
     estimated scf accuracy    <      13.37475449 Ry

[...]

     End of self-consistent calculation

[...]
End final coordinates

     A final scf calculation at the relaxed structure.
     The G-vectors are recalculated for the final unit cell
     Results may differ from those at the preceding step.

     bravais-lattice index     =            0
     lattice parameter (alat)  =      13.8397  a.u.
     unit-cell volume          =    2832.5354 (a.u.)^3
     number of atoms/cell      =           32
     number of atomic types    =            2
     number of electrons       =       368.00
     number of Kohn-Sham states=          221
     kinetic-energy cutoff     =     120.0000  Ry
     charge density cutoff     =     480.0000  Ry
     convergence threshold     =      1.0E-10
     mixing beta               =       0.7000
     number of iterations used =            8  plain     mixing
     Exchange-correlation      = SLA PW NOGX NOGC ( 1  4  0  0 0 0)

     celldm(1)=  13.839685  celldm(2)=   0.000000  celldm(3)=   0.000000
     celldm(4)=   0.000000  celldm(5)=   0.000000  celldm(6)=   0.000000

     crystal axes: (cart. coord. in units of alat)
               a(1) = (   1.007853   0.000000   0.000000 )
               a(2) = (   0.000000   1.051756   0.000000 )
               a(3) = (   0.000000   0.000000   1.008056 )

     reciprocal axes: (cart. coord. in units 2 pi/alat)
               b(1) = (  0.992208  0.000000  0.000000 )
               b(2) = (  0.000000  0.950791  0.000000 )
               b(3) = (  0.000000  0.000000  0.992009 )

     PseudoPot. # 1 for W  read from file:
     /cluster/scratch/mnoe/QE/pps/W_ONCV_LDA-4.0.upf
     MD5 check sum: ba0307d5d4cd419d6f1d13dc49d7c13a
     Pseudo is Norm-conserving + core correction, Zval = 28.0
     Generated using ONCVPSP code by D. R. Hamann
     Using radial grid of 1380 points,  8 beta functions with:
                l(1) =   0
                l(2) =   0
                l(3) =   1
                l(4) =   1
                l(5) =   2
                l(6) =   2
                l(7) =   3
                l(8) =   3

     PseudoPot. # 2 for O  read from file:
     /cluster/scratch/mnoe/QE/pps/O_ONCV_LDA-3.0.upf
     MD5 check sum: a1bd6164e7280c17a38c229939bfbd54
     Pseudo is Norm-conserving + core correction, Zval =  6.0
     Generated using ONCVPSP code by D. R. Hamann
     Using radial grid of  926 points,  5 beta functions with:
                l(1) =   0
                l(2) =   0
                l(3) =   1
                l(4) =   1
                l(5) =   2

     atomic species   valence    mass     pseudopotential
        W             28.00   183.84000     W ( 1.00)
        O              6.00    15.99940     O ( 1.00)

      8 Sym. Ops., with inversion, found ( 6 have fractional translation)

   Cartesian axes

     site n.     atom                  positions (alat units)
         1           W   tau(   1) = (   0.2488205   0.2927305   0.0029684  )
         2           W   tau(   2) = (   0.7590329   0.7590250  -0.0029684  )
         3           W   tau(   3) = (   0.2551062   0.2331473   0.5069963  )
         4           W   tau(   4) = (   0.7527472   0.8186083   0.5010594  )
         5           W   tau(   5) = (   0.7590329   0.2927305   0.5010594  )
         6           W   tau(   6) = (   0.2488205   0.7590250   0.5069963  )
         7           W   tau(   7) = (   0.7527472   0.2331473  -0.0029684  )
         8           W   tau(   8) = (   0.2551062   0.8186083   0.0029684  )
         9           O   tau(   9) = (   0.2461653   0.0077379   0.0009226  )
        10           O   tau(  10) = (   0.7616881  -0.0077379  -0.0009226  )
        11           O   tau(  11) = (   0.2577615   0.5181399   0.5049505  )
        12           O   tau(  12) = (   0.7500920   0.5336157   0.5031052  )
        13           O   tau(  13) = (   0.7616881   0.0077379   0.5031052  )
        14           O   tau(  14) = (   0.2461653  -0.0077379   0.5049505  )
        15           O   tau(  15) = (   0.7500920   0.5181399  -0.0009226  )
        16           O   tau(  16) = (   0.2577615   0.5336157   0.0009226  )
        17           O   tau(  17) = (   0.5047863   0.2567322   0.4618732  )
        18           O   tau(  18) = (   0.5030671   0.7950234   0.5461825  )
        19           O   tau(  19) = (  -0.0008596   0.2691456   0.9659011  )
        20           O   tau(  20) = (   0.0008596   0.7826100   0.0421546  )
        21           O   tau(  21) = (   0.5030671   0.2567322   0.0421546  )
        22           O   tau(  22) = (   0.5047863   0.7950234   0.9659011  )
        23           O   tau(  23) = (   0.0008596   0.2691456   0.5461825  )
        24           O   tau(  24) = (  -0.0008596   0.7826100   0.4618732  )
        25           O   tau(  25) = (   0.7137439   0.2615845   0.7547385  )
        26           O   tau(  26) = (   0.2941095   0.7901711   0.2533172  )
        27           O   tau(  27) = (   0.7980363   0.2642933   0.2507107  )
        28           O   tau(  28) = (   0.2098172   0.7874622   0.7573450  )
        29           O   tau(  29) = (   0.2941095   0.2615845   0.7573450  )
        30           O   tau(  30) = (   0.7137439   0.7901711   0.2507107  )
        31           O   tau(  31) = (   0.2098172   0.2642933   0.2533172  )
        32           O   tau(  32) = (   0.7980363   0.7874622   0.7547385  )

     number of k points=    64  gaussian smearing, width (Ry)=  0.0007
                       cart. coord. in units 2pi/alat
        k(    1) = (   0.0000000   0.0000000   0.0000000), wk =   0.0092593
        k(    2) = (   0.0000000   0.0000000   0.1653348), wk =   0.0185185
        k(    3) = (   0.0000000   0.0000000   0.3306696), wk =   0.0185185
        k(    4) = (   0.0000000   0.0000000  -0.4960044), wk =   0.0092593
        k(    5) = (   0.0000000   0.1584652   0.0000000), wk =   0.0185185
        k(    6) = (   0.0000000   0.1584652   0.1653348), wk =   0.0370370
        k(    7) = (   0.0000000   0.1584652   0.3306696), wk =   0.0370370
        k(    8) = (   0.0000000   0.1584652  -0.4960044), wk =   0.0185185
        k(    9) = (   0.0000000   0.3169304   0.0000000), wk =   0.0185185
        k(   10) = (   0.0000000   0.3169304   0.1653348), wk =   0.0370370
        k(   11) = (   0.0000000   0.3169304   0.3306696), wk =   0.0370370
        k(   12) = (   0.0000000   0.3169304  -0.4960044), wk =   0.0185185
        k(   13) = (   0.0000000  -0.4753956   0.0000000), wk =   0.0092593
        k(   14) = (   0.0000000  -0.4753956   0.1653348), wk =   0.0185185
        k(   15) = (   0.0000000  -0.4753956   0.3306696), wk =   0.0185185
        k(   16) = (   0.0000000  -0.4753956  -0.4960044), wk =   0.0092593
        k(   17) = (   0.1653680   0.0000000   0.1653348), wk =   0.0370370
        k(   18) = (   0.1653680   0.0000000   0.3306696), wk =   0.0370370
        k(   19) = (   0.1653680   0.0000000  -0.4960044), wk =   0.0185185
        k(   20) = (   0.1653680   0.1584652   0.1653348), wk =   0.0740741
        k(   21) = (   0.1653680   0.1584652   0.3306696), wk =   0.0740741
        k(   22) = (   0.1653680   0.1584652  -0.4960044), wk =   0.0370370
        k(   23) = (   0.1653680   0.3169304   0.1653348), wk =   0.0740741
        k(   24) = (   0.1653680   0.3169304   0.3306696), wk =   0.0740741
        k(   25) = (   0.1653680   0.3169304  -0.4960044), wk =   0.0370370
        k(   26) = (   0.1653680  -0.4753956   0.1653348), wk =   0.0370370
        k(   27) = (   0.1653680  -0.4753956   0.3306696), wk =   0.0370370
        k(   28) = (   0.1653680  -0.4753956  -0.4960044), wk =   0.0185185
        k(   29) = (   0.3307359   0.0000000   0.3306696), wk =   0.0370370
        k(   30) = (   0.3307359   0.0000000  -0.4960044), wk =   0.0185185
        k(   31) = (   0.3307359   0.1584652   0.3306696), wk =   0.0740741
        k(   32) = (   0.3307359   0.1584652  -0.4960044), wk =   0.0370370
        k(   33) = (   0.3307359   0.3169304   0.3306696), wk =   0.0740741
        k(   34) = (   0.3307359   0.3169304  -0.4960044), wk =   0.0370370
        k(   35) = (   0.3307359  -0.4753956   0.3306696), wk =   0.0370370
        k(   36) = (   0.3307359  -0.4753956  -0.4960044), wk =   0.0185185
        k(   37) = (  -0.4961039   0.0000000  -0.4960044), wk =   0.0092593
        k(   38) = (  -0.4961039   0.1584652  -0.4960044), wk =   0.0185185
        k(   39) = (  -0.4961039   0.3169304  -0.4960044), wk =   0.0185185
        k(   40) = (  -0.4961039  -0.4753956  -0.4960044), wk =   0.0092593
        k(   41) = (   0.1653680   0.0000000   0.0000000), wk =   0.0185185
        k(   42) = (   0.3307359   0.0000000   0.0000000), wk =   0.0185185
        k(   43) = (  -0.4961039   0.0000000   0.0000000), wk =   0.0092593
        k(   44) = (   0.1653680  -0.1584652   0.0000000), wk =   0.0370370
        k(   45) = (   0.3307359  -0.1584652   0.0000000), wk =   0.0370370
        k(   46) = (  -0.4961039  -0.1584652   0.0000000), wk =   0.0185185
        k(   47) = (   0.1653680  -0.3169304   0.0000000), wk =   0.0370370
        k(   48) = (   0.3307359  -0.3169304   0.0000000), wk =   0.0370370
        k(   49) = (  -0.4961039  -0.3169304   0.0000000), wk =   0.0185185
        k(   50) = (   0.1653680   0.4753956   0.0000000), wk =   0.0185185
        k(   51) = (   0.3307359   0.4753956   0.0000000), wk =   0.0185185
        k(   52) = (  -0.4961039   0.4753956   0.0000000), wk =   0.0092593
        k(   53) = (   0.3307359   0.0000000   0.1653348), wk =   0.0370370
        k(   54) = (  -0.4961039   0.0000000   0.1653348), wk =   0.0185185
        k(   55) = (   0.3307359  -0.1584652   0.1653348), wk =   0.0740741
        k(   56) = (  -0.4961039  -0.1584652   0.1653348), wk =   0.0370370
        k(   57) = (   0.3307359  -0.3169304   0.1653348), wk =   0.0740741
        k(   58) = (  -0.4961039  -0.3169304   0.1653348), wk =   0.0370370
        k(   59) = (   0.3307359   0.4753956   0.1653348), wk =   0.0370370
        k(   60) = (  -0.4961039   0.4753956   0.1653348), wk =   0.0185185
        k(   61) = (  -0.4961039   0.0000000   0.3306696), wk =   0.0185185
        k(   62) = (  -0.4961039  -0.1584652   0.3306696), wk =   0.0370370
        k(   63) = (  -0.4961039  -0.3169304   0.3306696), wk =   0.0370370
        k(   64) = (  -0.4961039   0.4753956   0.3306696), wk =   0.0185185

     Initial potential from superposition of free atoms

     starting charge  367.99656, renormalised to  368.00000
     Starting wfc are  232 randomized atomic wfcs

     Writing output data file Landau_9.save

     Self-consistent Calculation

[...]

     total energy              =   -6261.10721773 Ry
     Harris-Foulkes estimate   =   -6261.10721773 Ry
     estimated scf accuracy    <          6.5E-10 Ry

     iteration # 14     ecut=   120.00 Ry     beta= 0.70
     Davidson diagonalization with overlap
     ethr =  1.77E-13,  avg # of iterations =  2.8

     End of self-consistent calculation

[...]

          k = 0.3307 0.4754 0.1653 ( 62884 PWs)   bands (ev):

[...]

          k =-0.4961 0.4754 0.3307 ( 62840 PWs)   bands (ev):

   -66.3535 -66.3535 -66.3535 -66.3535 -66.3531 -66.3531 -66.3531 -66.3531
   -30.7029 -30.7029 -30.7026 -30.7026 -30.7007 -30.7007 -30.7004 -30.7004
   -30.6673 -30.6673 -30.6673 -30.6673 -30.6446 -30.6446 -30.6443 -30.6443
   -30.6424 -30.6424 -30.6421 -30.6421 -30.6203 -30.6203 -30.6203 -30.6203
   -20.5187 -20.5187 -20.5186 -20.5186 -20.5186 -20.5186 -20.5186 -20.5186
   -20.4950 -20.4950 -20.4950 -20.4950 -20.4948 -20.4948 -20.4948 -20.4948
   -20.4936 -20.4936 -20.4936 -20.4936 -20.4931 -20.4931 -20.4931 -20.4931
   -20.4929 -20.4929 -20.4929 -20.4929 -20.4927 -20.4927 -20.4927 -20.4927
   -20.4853 -20.4853 -20.4853 -20.4853 -20.4845 -20.4845 -20.4845 -20.4845
   -20.4829 -20.4829 -20.4829 -20.4829 -20.4813 -20.4813 -20.4813 -20.4813
   -20.4809 -20.4809 -20.4809 -20.4809 -20.4792 -20.4792 -20.4792 -20.4792
    -9.3307  -9.3307  -9.3282  -9.3282  -8.9399  -8.9399  -8.9331  -8.9331
    -8.7075  -8.7074  -8.7008  -8.7008  -8.5532  -8.5532  -8.5431  -8.5431
    -8.5147  -8.5147  -8.5061  -8.5061  -8.2609  -8.2609  -8.2601  -8.2601
     2.0873   2.0873   2.0913   2.0913   2.8600   2.8600   2.8846   2.8846
     2.9695   2.9695   2.9775   2.9775   3.1162   3.1162   3.1393   3.1393
     3.2212   3.2212   3.2474   3.2474   3.4838   3.4838   3.5107   3.5107
     3.6079   3.6079   3.6654   3.6654   4.0846   4.0846   4.1033   4.1033
     4.1434   4.1434   4.2021   4.2021   4.2730   4.2730   4.3555   4.3555
     4.4932   4.4932   4.6193   4.6193   4.8870   4.8870   4.9027   4.9027
     6.8850   6.8850   6.9259   6.9259   7.0273   7.0273   7.0289   7.0289
     7.1438   7.1438   7.1790   7.1790   7.2068   7.2068   7.2651   7.2651
     7.3360   7.3360   7.3962   7.3962   7.4783   7.4783   7.5049   7.5049
    11.2481  11.2481  11.2868  11.2868  11.5157  11.5157  11.5891  11.5891
    12.0018  12.0018  12.0595  12.0595  12.0845  12.0845  12.1079  12.1079
    12.2800  12.2800  12.4000  12.4000  12.7226  12.7226  12.8024  12.8024
    16.3784  16.3784  16.4204  16.4204  16.9176  16.9176  16.9331  16.9331
    17.2465  17.2465  17.3209  17.3215  17.3580

     the Fermi energy is     8.8298 ev

!    total energy              =   -6261.10721773 Ry
     Harris-Foulkes estimate   =   -6261.10721773 Ry
     estimated scf accuracy    <          5.0E-11 Ry

     The total energy is the sum of the following terms:

     one-electron contribution =   -4762.88146320 Ry
     hartree contribution      =    2615.87580046 Ry
     xc contribution           =    -965.66917211 Ry
     ewald contribution        =   -3148.43238288 Ry
     smearing contrib. (-TS)   =      -0.00000000 Ry

     convergence has been achieved in  14 iterations

     Forces acting on atoms (cartesian axes, Ry/au):

     atom    1 type  1   force =    -0.00221320    0.00821239    0.00174833
     atom    2 type  1   force =     0.00221320   -0.00821239   -0.00174833
     atom    3 type  1   force =     0.00221320   -0.00821239    0.00174833
     atom    4 type  1   force =    -0.00221320    0.00821239   -0.00174833
     atom    5 type  1   force =     0.00221320    0.00821239   -0.00174833
     atom    6 type  1   force =    -0.00221320   -0.00821239    0.00174833
     atom    7 type  1   force =    -0.00221320   -0.00821239   -0.00174833
     atom    8 type  1   force =     0.00221320    0.00821239    0.00174833
     atom    9 type  2   force =    -0.00014126   -0.00418545   -0.00002009
     atom   10 type  2   force =     0.00014126    0.00418545    0.00002009
     atom   11 type  2   force =     0.00014126    0.00418545   -0.00002009
     atom   12 type  2   force =    -0.00014126   -0.00418545    0.00002009
     atom   13 type  2   force =     0.00014126   -0.00418545    0.00002009
     atom   14 type  2   force =    -0.00014126    0.00418545   -0.00002009
     atom   15 type  2   force =    -0.00014126    0.00418545    0.00002009
     atom   16 type  2   force =     0.00014126   -0.00418545   -0.00002009
     atom   17 type  2   force =    -0.00114486   -0.00013733   -0.00110463
     atom   18 type  2   force =     0.00114486    0.00013733    0.00110463
     atom   19 type  2   force =     0.00114486    0.00013733   -0.00110463
     atom   20 type  2   force =    -0.00114486   -0.00013733    0.00110463
     atom   21 type  2   force =     0.00114486   -0.00013733    0.00110463
     atom   22 type  2   force =    -0.00114486    0.00013733   -0.00110463
     atom   23 type  2   force =    -0.00114486    0.00013733    0.00110463
     atom   24 type  2   force =     0.00114486   -0.00013733   -0.00110463
     atom   25 type  2   force =    -0.00125369   -0.00019452    0.00124421
     atom   26 type  2   force =     0.00125369    0.00019452   -0.00124421
     atom   27 type  2   force =     0.00125369    0.00019452    0.00124421
     atom   28 type  2   force =    -0.00125369   -0.00019452   -0.00124421
     atom   29 type  2   force =     0.00125369   -0.00019452   -0.00124421
     atom   30 type  2   force =    -0.00125369    0.00019452    0.00124421
     atom   31 type  2   force =    -0.00125369    0.00019452   -0.00124421
     atom   32 type  2   force =     0.00125369   -0.00019452    0.00124421

     Total force =     0.000000     Total SCF correction =     0.000000

     Computing stress (Cartesian axis) and pressure

          total   stress  (Ry/bohr**3)                   (kbar)     P=    0.29
   0.00000295   0.00000000   0.00000000          0.43      0.00      0.00
   0.00000000  -0.00000012   0.00000000          0.00     -0.02      0.00
   0.00000000   0.00000000   0.00000301          0.00      0.00      0.44

     Writing output data file Landau_9.save

     General routines

     Parallel routines

   This run was terminated on:   7:31:19  20Mar2020

   JOB DONE.