     Program PWSCF v.6.4.1 starts on 20Nov2019 at 23: 7:37

     K-points division:     npool     =      64
     Reading input from rscf.in

     Current dimensions of program PWSCF are:
     Max number of different atomic species (ntypx) = 10
     Max number of k-points (npk) =  40000
     Max angular momentum in pseudopotentials (lmaxx) =  3

     Subspace diagonalization in iterative solution of the eigenvalue problem:
     a serial algorithm will be used

     Message from routine setup:
     using ibrav=0 with symmetry is DISCOURAGED, use correct ibrav instead

     bravais-lattice index     =            0
     lattice parameter (alat)  =      13.8397  a.u.
     unit-cell volume          =    2804.9816 (a.u.)^3
     number of atoms/cell      =           32
     number of atomic types    =            2
     number of electrons       =       368.00
     number of Kohn-Sham states=          221
     kinetic-energy cutoff     =     120.0000  Ry
     charge density cutoff     =     480.0000  Ry
     convergence threshold     =      1.0E-08
     mixing beta               =       0.7000
     number of iterations used =            8  plain     mixing
     Exchange-correlation      = SLA PW NOGX NOGC ( 1  4  0  0 0 0)
     nstep                     =           50

     celldm(1)=  13.839685  celldm(2)=   0.000000  celldm(3)=   0.000000
     celldm(4)=   0.000000  celldm(5)=   0.000000  celldm(6)=   0.000000

     crystal axes: (cart. coord. in units of alat)
               a(1) = (   1.000000   0.000000   0.000000 )
               a(2) = (   0.000000   1.058160   0.000000 )
               a(3) = (   0.000000   0.000000   1.000000 )

     reciprocal axes: (cart. coord. in units 2 pi/alat)
               b(1) = (  1.000000  0.000000  0.000000 )
               b(2) = (  0.000000  0.945037  0.000000 )
               b(3) = (  0.000000  0.000000  1.000000 )

     PseudoPot. # 1 for W  read from file:
     /cluster/scratch/mnoe/QE/pps/W_ONCV_LDA-4.0.upf
     MD5 check sum: ba0307d5d4cd419d6f1d13dc49d7c13a
     Pseudo is Norm-conserving + core correction, Zval = 28.0
     Generated using ONCVPSP code by D. R. Hamann
     Using radial grid of 1380 points,  8 beta functions with:
                l(1) =   0
                l(2) =   0
                l(3) =   1
                l(4) =   1
                l(5) =   2
                l(6) =   2
                l(7) =   3
                l(8) =   3

     PseudoPot. # 2 for O  read from file:
     /cluster/scratch/mnoe/QE/pps/O_ONCV_LDA-3.0.upf
     MD5 check sum: b55cdb4f45ae2203d24ad12cf8d61a31
     Pseudo is Norm-conserving + core correction, Zval =  6.0
     Generated using ONCVPSP code by D. R. Hamann
     Using radial grid of  926 points,  5 beta functions with:
                l(1) =   0
                l(2) =   0
                l(3) =   1
                l(4) =   1
                l(5) =   2

     atomic species   valence    mass     pseudopotential
        W             28.00   183.84000     W ( 1.00)
        O              6.00    15.99940     O ( 1.00)

      8 Sym. Ops., with inversion, found ( 6 have fractional translation)

   Cartesian axes

     site n.     atom                  positions (alat units)
         1           W   tau(   1) = (   0.2449100   0.3022059   0.0048000  )
         2           W   tau(   2) = (   0.7550900   0.7559542   0.9952000  )
         3           W   tau(   3) = (   0.2550900   0.2268742   0.5048000  )
         4           W   tau(   4) = (   0.7449100   0.8312859   0.4952000  )
         5           W   tau(   5) = (   0.7550900   0.3022059   0.4952000  )
         6           W   tau(   6) = (   0.2449100   0.7559542   0.5048000  )
         7           W   tau(   7) = (   0.7449100   0.2268742   0.9952000  )
         8           W   tau(   8) = (   0.2550900   0.8312859   0.0048000  )
         9           O   tau(   9) = (   0.2406200   0.0162836   0.0014900  )
        10           O   tau(  10) = (   0.7593800   1.0418765   0.9985100  )
        11           O   tau(  11) = (   0.2593800   0.5127964   0.5014900  )
        12           O   tau(  12) = (   0.7406200   0.5453636   0.4985100  )
        13           O   tau(  13) = (   0.7593800   0.0162836   0.4985100  )
        14           O   tau(  14) = (   0.2406200   1.0418765   0.5014900  )
        15           O   tau(  15) = (   0.7406200   0.5127964   0.9985100  )
        16           O   tau(  16) = (   0.2593800   0.5453636   0.0014900  )
        17           O   tau(  17) = (   0.5013900   0.2543499   0.4688483  )
        18           O   tau(  18) = (   0.4986100   0.8038101   0.5311517  )
        19           O   tau(  19) = (   0.9986100   0.2747301   0.9688483  )
        20           O   tau(  20) = (   0.0013900   0.7834300   0.0311517  )
        21           O   tau(  21) = (   0.4986100   0.2543499   0.0311517  )
        22           O   tau(  22) = (   0.5013900   0.8038101   0.9688483  )
        23           O   tau(  23) = (   0.0013900   0.2747301   0.5311517  )
        24           O   tau(  24) = (   0.9986100   0.7834300   0.4688483  )
        25           O   tau(  25) = (   0.7188484   0.2623179   0.7478900  )
        26           O   tau(  26) = (   0.2811517   0.7958422   0.2521100  )
        27           O   tau(  27) = (   0.7811517   0.2667621   0.2478900  )
        28           O   tau(  28) = (   0.2188483   0.7913979   0.7521100  )
        29           O   tau(  29) = (   0.2811517   0.2623179   0.7521100  )
        30           O   tau(  30) = (   0.7188484   0.7958422   0.2478900  )
        31           O   tau(  31) = (   0.2188483   0.2667621   0.2521100  )
        32           O   tau(  32) = (   0.7811517   0.7913979   0.7478900  )

     number of k points=    64  gaussian smearing, width (Ry)=  0.0007
                       cart. coord. in units 2pi/alat
        k(    1) = (   0.0000000   0.0000000   0.0000000), wk =   0.0092593
        k(    2) = (   0.0000000   0.0000000   0.1666667), wk =   0.0185185
        k(    3) = (   0.0000000   0.0000000   0.3333333), wk =   0.0185185
        k(    4) = (   0.0000000   0.0000000  -0.5000000), wk =   0.0092593
        k(    5) = (   0.0000000   0.1575061   0.0000000), wk =   0.0185185
        k(    6) = (   0.0000000   0.1575061   0.1666667), wk =   0.0370370
        k(    7) = (   0.0000000   0.1575061   0.3333333), wk =   0.0370370
        k(    8) = (   0.0000000   0.1575061  -0.5000000), wk =   0.0185185
        k(    9) = (   0.0000000   0.3150122   0.0000000), wk =   0.0185185
        k(   10) = (   0.0000000   0.3150122   0.1666667), wk =   0.0370370
        k(   11) = (   0.0000000   0.3150122   0.3333333), wk =   0.0370370
        k(   12) = (   0.0000000   0.3150122  -0.5000000), wk =   0.0185185
        k(   13) = (   0.0000000  -0.4725183   0.0000000), wk =   0.0092593
        k(   14) = (   0.0000000  -0.4725183   0.1666667), wk =   0.0185185
        k(   15) = (   0.0000000  -0.4725183   0.3333333), wk =   0.0185185
        k(   16) = (   0.0000000  -0.4725183  -0.5000000), wk =   0.0092593
        k(   17) = (   0.1666667   0.0000000   0.1666667), wk =   0.0370370
        k(   18) = (   0.1666667   0.0000000   0.3333333), wk =   0.0370370
        k(   19) = (   0.1666667   0.0000000  -0.5000000), wk =   0.0185185
        k(   20) = (   0.1666667   0.1575061   0.1666667), wk =   0.0740741
        k(   21) = (   0.1666667   0.1575061   0.3333333), wk =   0.0740741
        k(   22) = (   0.1666667   0.1575061  -0.5000000), wk =   0.0370370
        k(   23) = (   0.1666667   0.3150122   0.1666667), wk =   0.0740741
        k(   24) = (   0.1666667   0.3150122   0.3333333), wk =   0.0740741
        k(   25) = (   0.1666667   0.3150122  -0.5000000), wk =   0.0370370
        k(   26) = (   0.1666667  -0.4725183   0.1666667), wk =   0.0370370
        k(   27) = (   0.1666667  -0.4725183   0.3333333), wk =   0.0370370
        k(   28) = (   0.1666667  -0.4725183  -0.5000000), wk =   0.0185185
        k(   29) = (   0.3333333   0.0000000   0.3333333), wk =   0.0370370
        k(   30) = (   0.3333333   0.0000000  -0.5000000), wk =   0.0185185
        k(   31) = (   0.3333333   0.1575061   0.3333333), wk =   0.0740741
        k(   32) = (   0.3333333   0.1575061  -0.5000000), wk =   0.0370370
        k(   33) = (   0.3333333   0.3150122   0.3333333), wk =   0.0740741
        k(   34) = (   0.3333333   0.3150122  -0.5000000), wk =   0.0370370
        k(   35) = (   0.3333333  -0.4725183   0.3333333), wk =   0.0370370
        k(   36) = (   0.3333333  -0.4725183  -0.5000000), wk =   0.0185185
        k(   37) = (  -0.5000000   0.0000000  -0.5000000), wk =   0.0092593
        k(   38) = (  -0.5000000   0.1575061  -0.5000000), wk =   0.0185185
        k(   39) = (  -0.5000000   0.3150122  -0.5000000), wk =   0.0185185
        k(   40) = (  -0.5000000  -0.4725183  -0.5000000), wk =   0.0092593
        k(   41) = (   0.1666667   0.0000000   0.0000000), wk =   0.0185185
        k(   42) = (   0.3333333   0.0000000   0.0000000), wk =   0.0185185
        k(   43) = (  -0.5000000   0.0000000   0.0000000), wk =   0.0092593
        k(   44) = (   0.1666667  -0.1575061   0.0000000), wk =   0.0370370
        k(   45) = (   0.3333333  -0.1575061   0.0000000), wk =   0.0370370
        k(   46) = (  -0.5000000  -0.1575061   0.0000000), wk =   0.0185185
        k(   47) = (   0.1666667  -0.3150122   0.0000000), wk =   0.0370370
        k(   48) = (   0.3333333  -0.3150122   0.0000000), wk =   0.0370370
        k(   49) = (  -0.5000000  -0.3150122   0.0000000), wk =   0.0185185
        k(   50) = (   0.1666667   0.4725183   0.0000000), wk =   0.0185185
        k(   51) = (   0.3333333   0.4725183   0.0000000), wk =   0.0185185
        k(   52) = (  -0.5000000   0.4725183   0.0000000), wk =   0.0092593
        k(   53) = (   0.3333333   0.0000000   0.1666667), wk =   0.0370370
        k(   54) = (  -0.5000000   0.0000000   0.1666667), wk =   0.0185185
        k(   55) = (   0.3333333  -0.1575061   0.1666667), wk =   0.0740741
        k(   56) = (  -0.5000000  -0.1575061   0.1666667), wk =   0.0370370
        k(   57) = (   0.3333333  -0.3150122   0.1666667), wk =   0.0740741
        k(   58) = (  -0.5000000  -0.3150122   0.1666667), wk =   0.0370370
        k(   59) = (   0.3333333   0.4725183   0.1666667), wk =   0.0370370
        k(   60) = (  -0.5000000   0.4725183   0.1666667), wk =   0.0185185
        k(   61) = (  -0.5000000   0.0000000   0.3333333), wk =   0.0185185
        k(   62) = (  -0.5000000  -0.1575061   0.3333333), wk =   0.0370370
        k(   63) = (  -0.5000000  -0.3150122   0.3333333), wk =   0.0370370
        k(   64) = (  -0.5000000   0.4725183   0.3333333), wk =   0.0185185

     Initial potential from superposition of free atoms

     starting charge  367.99656, renormalised to  368.00000
     Starting wfcs are  232 randomized atomic wfcs

     Self-consistent Calculation

     iteration #  1     ecut=   120.00 Ry     beta= 0.70
     Davidson diagonalization with overlap
     ethr =  1.00E-02,  avg # of iterations =  5.1

     total energy              =   -6253.99912541 Ry
     Harris-Foulkes estimate   =   -6264.57276464 Ry
[...]
End final coordinates

     Writing output data file Landau_11.save/

     Final scf calculation at the relaxed structure.
     The G-vectors are recalculated for the final unit cell
     Results may differ from those at the preceding step.

     bravais-lattice index     =            0
     lattice parameter (alat)  =      13.8397  a.u.
     unit-cell volume          =    2838.4071 (a.u.)^3
     number of atoms/cell      =           32
     number of atomic types    =            2
     number of electrons       =       368.00
     number of Kohn-Sham states=          221
     kinetic-energy cutoff     =     120.0000  Ry
     charge density cutoff     =     480.0000  Ry
     convergence threshold     =      1.0E-10
     mixing beta               =       0.7000
     number of iterations used =            8  plain     mixing
     Exchange-correlation      = SLA PW NOGX NOGC ( 1  4  0  0 0 0)

     celldm(1)=  13.839685  celldm(2)=   0.000000  celldm(3)=   0.000000
     celldm(4)=   0.000000  celldm(5)=   0.000000  celldm(6)=   0.000000

     crystal axes: (cart. coord. in units of alat)
               a(1) = (   1.009756   0.000000   0.000000 )
               a(2) = (   0.000000   1.049912   0.000000 )
               a(3) = (   0.000000   0.000000   1.010013 )

     reciprocal axes: (cart. coord. in units 2 pi/alat)
               b(1) = (  0.990338  0.000000  0.000000 )
               b(2) = (  0.000000  0.952461  0.000000 )
               b(3) = (  0.000000  0.000000  0.990087 )

     PseudoPot. # 1 for W  read from file:
     /cluster/scratch/mnoe/QE/pps/W_ONCV_LDA-4.0.upf
     MD5 check sum: ba0307d5d4cd419d6f1d13dc49d7c13a
     Pseudo is Norm-conserving + core correction, Zval = 28.0
     Generated using ONCVPSP code by D. R. Hamann
     Using radial grid of 1380 points,  8 beta functions with:
                l(1) =   0
                l(2) =   0
                l(3) =   1
                l(4) =   1
                l(5) =   2
                l(6) =   2
                l(7) =   3
                l(8) =   3

     PseudoPot. # 2 for O  read from file:
     /cluster/scratch/mnoe/QE/pps/O_ONCV_LDA-3.0.upf
     MD5 check sum: b55cdb4f45ae2203d24ad12cf8d61a31
     Pseudo is Norm-conserving + core correction, Zval =  6.0
     Generated using ONCVPSP code by D. R. Hamann
     Using radial grid of  926 points,  5 beta functions with:
                l(1) =   0
                l(2) =   0
                l(3) =   1
                l(4) =   1
                l(5) =   2

     atomic species   valence    mass     pseudopotential
        W             28.00   183.84000     W ( 1.00)
        O              6.00    15.99940     O ( 1.00)

      8 Sym. Ops., with inversion, found ( 6 have fractional translation)

   Cartesian axes

     site n.     atom                  positions (alat units)
         1           W   tau(   1) = (   0.2472993   0.2998502   0.0048481  )
         2           W   tau(   2) = (   0.7624565   0.7500617   1.0051645  )
         3           W   tau(   3) = (   0.2575786   0.2251057   0.5098544  )
         4           W   tau(   4) = (   0.7521772   0.8248061   0.5001583  )
         5           W   tau(   5) = (   0.7624565   0.2998502   0.5001583  )
         6           W   tau(   6) = (   0.2472993   0.7500617   0.5098544  )
         7           W   tau(   7) = (   0.7521772   0.2251057   1.0051645  )
         8           W   tau(   8) = (   0.2575786   0.8248061   0.0048481  )
         9           O   tau(   9) = (   0.2429675   0.0161567   0.0015049  )
        10           O   tau(  10) = (   0.7667884   1.0337552   1.0085077  )
        11           O   tau(  11) = (   0.2619105   0.5087993   0.5065112  )
        12           O   tau(  12) = (   0.7478454   0.5411126   0.5035014  )
        13           O   tau(  13) = (   0.7667884   0.0161567   0.5035014  )
        14           O   tau(  14) = (   0.2429675   1.0337552   0.5065112  )
        15           O   tau(  15) = (   0.7478454   0.5087993   1.0085077  )
        16           O   tau(  16) = (   0.2619105   0.5411126   0.0015049  )
        17           O   tau(  17) = (   0.5062815   0.2523673   0.4735427  )
        18           O   tau(  18) = (   0.5034744   0.7975445   0.5364699  )
        19           O   tau(  19) = (   1.0083523   0.2725886   0.9785490  )
        20           O   tau(  20) = (   0.0014035   0.7773233   0.0314636  )
        21           O   tau(  21) = (   0.5034744   0.2523673   0.0314636  )
        22           O   tau(  22) = (   0.5062815   0.7975445   0.9785490  )
        23           O   tau(  23) = (   0.0014035   0.2725886   0.5364699  )
        24           O   tau(  24) = (   1.0083523   0.7773233   0.4735427  )
        25           O   tau(  25) = (   0.7258613   0.2602731   0.7553783  )
        26           O   tau(  26) = (   0.2838946   0.7896387   0.2546343  )
        27           O   tau(  27) = (   0.7887725   0.2646828   0.2503720  )
        28           O   tau(  28) = (   0.2209834   0.7852291   0.7596406  )
        29           O   tau(  29) = (   0.2838946   0.2602731   0.7596406  )
        30           O   tau(  30) = (   0.7258613   0.7896387   0.2503720  )
        31           O   tau(  31) = (   0.2209834   0.2646828   0.2546343  )
        32           O   tau(  32) = (   0.7887725   0.7852291   0.7553783  )

     number of k points=    64  gaussian smearing, width (Ry)=  0.0007
                       cart. coord. in units 2pi/alat
        k(    1) = (   0.0000000   0.0000000   0.0000000), wk =   0.0092593
        k(    2) = (   0.0000000   0.0000000   0.1650144), wk =   0.0185185
        k(    3) = (   0.0000000   0.0000000   0.3300289), wk =   0.0185185
        k(    4) = (   0.0000000   0.0000000  -0.4950433), wk =   0.0092593
        k(    5) = (   0.0000000   0.1587435   0.0000000), wk =   0.0185185
        k(    6) = (   0.0000000   0.1587435   0.1650144), wk =   0.0370370
        k(    7) = (   0.0000000   0.1587435   0.3300289), wk =   0.0370370
        k(    8) = (   0.0000000   0.1587435  -0.4950433), wk =   0.0185185
        k(    9) = (   0.0000000   0.3174870   0.0000000), wk =   0.0185185
        k(   10) = (   0.0000000   0.3174870   0.1650144), wk =   0.0370370
        k(   11) = (   0.0000000   0.3174870   0.3300289), wk =   0.0370370
        k(   12) = (   0.0000000   0.3174870  -0.4950433), wk =   0.0185185
        k(   13) = (   0.0000000  -0.4762304   0.0000000), wk =   0.0092593
        k(   14) = (   0.0000000  -0.4762304   0.1650144), wk =   0.0185185
        k(   15) = (   0.0000000  -0.4762304   0.3300289), wk =   0.0185185
        k(   16) = (   0.0000000  -0.4762304  -0.4950433), wk =   0.0092593
        k(   17) = (   0.1650564   0.0000000   0.1650144), wk =   0.0370370
        k(   18) = (   0.1650564   0.0000000   0.3300289), wk =   0.0370370
        k(   19) = (   0.1650564   0.0000000  -0.4950433), wk =   0.0185185
        k(   20) = (   0.1650564   0.1587435   0.1650144), wk =   0.0740741
        k(   21) = (   0.1650564   0.1587435   0.3300289), wk =   0.0740741
        k(   22) = (   0.1650564   0.1587435  -0.4950433), wk =   0.0370370
        k(   23) = (   0.1650564   0.3174870   0.1650144), wk =   0.0740741
        k(   24) = (   0.1650564   0.3174870   0.3300289), wk =   0.0740741
        k(   25) = (   0.1650564   0.3174870  -0.4950433), wk =   0.0370370
        k(   26) = (   0.1650564  -0.4762304   0.1650144), wk =   0.0370370
        k(   27) = (   0.1650564  -0.4762304   0.3300289), wk =   0.0370370
        k(   28) = (   0.1650564  -0.4762304  -0.4950433), wk =   0.0185185
        k(   29) = (   0.3301128   0.0000000   0.3300289), wk =   0.0370370
        k(   30) = (   0.3301128   0.0000000  -0.4950433), wk =   0.0185185
        k(   31) = (   0.3301128   0.1587435   0.3300289), wk =   0.0740741
        k(   32) = (   0.3301128   0.1587435  -0.4950433), wk =   0.0370370
        k(   33) = (   0.3301128   0.3174870   0.3300289), wk =   0.0740741
        k(   34) = (   0.3301128   0.3174870  -0.4950433), wk =   0.0370370
        k(   35) = (   0.3301128  -0.4762304   0.3300289), wk =   0.0370370
        k(   36) = (   0.3301128  -0.4762304  -0.4950433), wk =   0.0185185
        k(   37) = (  -0.4951692   0.0000000  -0.4950433), wk =   0.0092593
        k(   38) = (  -0.4951692   0.1587435  -0.4950433), wk =   0.0185185
        k(   39) = (  -0.4951692   0.3174870  -0.4950433), wk =   0.0185185
        k(   40) = (  -0.4951692  -0.4762304  -0.4950433), wk =   0.0092593
        k(   41) = (   0.1650564   0.0000000   0.0000000), wk =   0.0185185
        k(   42) = (   0.3301128   0.0000000   0.0000000), wk =   0.0185185
        k(   43) = (  -0.4951692   0.0000000   0.0000000), wk =   0.0092593
        k(   44) = (   0.1650564  -0.1587435   0.0000000), wk =   0.0370370
        k(   45) = (   0.3301128  -0.1587435   0.0000000), wk =   0.0370370
        k(   46) = (  -0.4951692  -0.1587435   0.0000000), wk =   0.0185185
        k(   47) = (   0.1650564  -0.3174870   0.0000000), wk =   0.0370370
        k(   48) = (   0.3301128  -0.3174870   0.0000000), wk =   0.0370370
        k(   49) = (  -0.4951692  -0.3174870   0.0000000), wk =   0.0185185
        k(   50) = (   0.1650564   0.4762304   0.0000000), wk =   0.0185185
        k(   51) = (   0.3301128   0.4762304   0.0000000), wk =   0.0185185
        k(   52) = (  -0.4951692   0.4762304   0.0000000), wk =   0.0092593
        k(   53) = (   0.3301128   0.0000000   0.1650144), wk =   0.0370370
        k(   54) = (  -0.4951692   0.0000000   0.1650144), wk =   0.0185185
        k(   55) = (   0.3301128  -0.1587435   0.1650144), wk =   0.0740741
        k(   56) = (  -0.4951692  -0.1587435   0.1650144), wk =   0.0370370
        k(   57) = (   0.3301128  -0.3174870   0.1650144), wk =   0.0740741
        k(   58) = (  -0.4951692  -0.3174870   0.1650144), wk =   0.0370370
        k(   59) = (   0.3301128   0.4762304   0.1650144), wk =   0.0370370
        k(   60) = (  -0.4951692   0.4762304   0.1650144), wk =   0.0185185
        k(   61) = (  -0.4951692   0.0000000   0.3300289), wk =   0.0185185
        k(   62) = (  -0.4951692  -0.1587435   0.3300289), wk =   0.0370370
        k(   63) = (  -0.4951692  -0.3174870   0.3300289), wk =   0.0370370
        k(   64) = (  -0.4951692   0.4762304   0.3300289), wk =   0.0185185

     Initial potential from superposition of free atoms

     starting charge  367.99656, renormalised to  368.00000
     Starting wfcs are  232 randomized atomic wfcs

     Self-consistent Calculation

[...]

     total energy              =   -6261.09329448 Ry
     Harris-Foulkes estimate   =   -6261.09329448 Ry
     estimated scf accuracy    <          3.8E-10 Ry

     iteration # 15     ecut=   120.00 Ry     beta= 0.70
     Davidson diagonalization with overlap
     ethr =  1.04E-13,  avg # of iterations =  2.0

     End of self-consistent calculation

[...]

          k = 0.3301 0.4762 0.1650 ( 63002 PWs)   bands (ev):

[...]

          k =-0.4952 0.4762 0.3300 ( 62972 PWs)   bands (ev):

   -66.3704 -66.3704 -66.3704 -66.3704 -66.3700 -66.3700 -66.3700 -66.3700
   -30.7105 -30.7105 -30.7099 -30.7099 -30.7075 -30.7075 -30.7068 -30.7068
   -30.6880 -30.6880 -30.6878 -30.6878 -30.6670 -30.6670 -30.6663 -30.6663
   -30.6652 -30.6652 -30.6644 -30.6644 -30.6441 -30.6441 -30.6441 -30.6441
   -20.5345 -20.5345 -20.5345 -20.5345 -20.5344 -20.5344 -20.5344 -20.5344
   -20.5172 -20.5172 -20.5172 -20.5172 -20.5164 -20.5164 -20.5164 -20.5164
   -20.5150 -20.5149 -20.5149 -20.5149 -20.5139 -20.5139 -20.5138 -20.5138
   -20.5068 -20.5068 -20.5068 -20.5068 -20.5067 -20.5067 -20.5067 -20.5067
   -20.5028 -20.5028 -20.5027 -20.5027 -20.5020 -20.5019 -20.5019 -20.5019
   -20.4982 -20.4982 -20.4981 -20.4981 -20.4975 -20.4975 -20.4974 -20.4974
   -20.4956 -20.4956 -20.4956 -20.4956 -20.4945 -20.4944 -20.4944 -20.4944
    -9.3704  -9.3704  -9.3647  -9.3646  -8.9930  -8.9930  -8.9780  -8.9780
    -8.7194  -8.7194  -8.7070  -8.7070  -8.5482  -8.5482  -8.5335  -8.5335
    -8.5173  -8.5173  -8.5051  -8.5051  -8.2898  -8.2898  -8.2891  -8.2891
     2.0371   2.0371   2.0434   2.0434   2.7797   2.7797   2.8134   2.8134
     2.8725   2.8725   2.8785   2.8785   3.0285   3.0285   3.0605   3.0605
     3.1650   3.1650   3.2129   3.2129   3.4069   3.4069   3.4223   3.4223
     3.5736   3.5736   3.6407   3.6407   4.1421   4.1421   4.1533   4.1533
     4.1897   4.1897   4.2377   4.2377   4.3119   4.3119   4.3946   4.3946
     4.5180   4.5180   4.6344   4.6344   4.8435   4.8435   4.8557   4.8557
     6.8787   6.8787   6.9399   6.9399   7.0001   7.0001   7.0110   7.0111
     7.1192   7.1192   7.1650   7.1650   7.2138   7.2138   7.2369   7.2370
     7.3335   7.3335   7.3897   7.3897   7.4969   7.4969   7.5256   7.5256
    11.2115  11.2115  11.2389  11.2389  11.5432  11.5432  11.6066  11.6066
    12.0157  12.0157  12.0918  12.0918  12.1352  12.1352  12.1703  12.1703
    12.2957  12.2957  12.4143  12.4143  12.7779  12.7779  12.8463  12.8463
    16.1853  16.1853  16.2344  16.2344  16.7877  16.7877  16.8305  16.8305
    17.1470  17.1470  17.2663  17.2666  17.2812

     the Fermi energy is     8.7511 ev

!    total energy              =   -6261.09329448 Ry
     Harris-Foulkes estimate   =   -6261.09329448 Ry
     estimated scf accuracy    <          1.1E-11 Ry

     The total energy is the sum of the following terms:

     one-electron contribution =   -4770.49156363 Ry
     hartree contribution      =    2619.43648786 Ry
     xc contribution           =    -965.69325499 Ry
     ewald contribution        =   -3144.34496373 Ry
     smearing contrib. (-TS)   =      -0.00000000 Ry

     convergence has been achieved in  15 iterations

     Forces acting on atoms (cartesian axes, Ry/au):

     atom    1 type  1   force =    -0.00251394    0.00515905    0.00268970
     atom    2 type  1   force =     0.00251394   -0.00515905   -0.00268970
     atom    3 type  1   force =     0.00251394   -0.00515905    0.00268970
     atom    4 type  1   force =    -0.00251394    0.00515905   -0.00268970
     atom    5 type  1   force =     0.00251394    0.00515905   -0.00268970
     atom    6 type  1   force =    -0.00251394   -0.00515905    0.00268970
     atom    7 type  1   force =    -0.00251394   -0.00515905   -0.00268970
     atom    8 type  1   force =     0.00251394    0.00515905    0.00268970
     atom    9 type  2   force =     0.00056402   -0.03215036    0.00039935
     atom   10 type  2   force =    -0.00056402    0.03215036   -0.00039935
     atom   11 type  2   force =    -0.00056402    0.03215036    0.00039935
     atom   12 type  2   force =     0.00056402   -0.03215036   -0.00039935
     atom   13 type  2   force =    -0.00056402   -0.03215036   -0.00039935
     atom   14 type  2   force =     0.00056402    0.03215036    0.00039935
     atom   15 type  2   force =     0.00056402    0.03215036   -0.00039935
     atom   16 type  2   force =    -0.00056402   -0.03215036    0.00039935
     atom   17 type  2   force =    -0.00080997   -0.00134161   -0.00182108
     atom   18 type  2   force =     0.00080997    0.00134161    0.00182108
     atom   19 type  2   force =     0.00080997    0.00134161   -0.00182108
     atom   20 type  2   force =    -0.00080997   -0.00134161    0.00182108
     atom   21 type  2   force =     0.00080997   -0.00134161    0.00182108
     atom   22 type  2   force =    -0.00080997    0.00134161   -0.00182108
     atom   23 type  2   force =    -0.00080997    0.00134161    0.00182108
     atom   24 type  2   force =     0.00080997   -0.00134161   -0.00182108
     atom   25 type  2   force =    -0.00210954   -0.00049081    0.00213032
     atom   26 type  2   force =     0.00210954    0.00049081   -0.00213032
     atom   27 type  2   force =     0.00210954    0.00049081    0.00213032
     atom   28 type  2   force =    -0.00210954   -0.00049081   -0.00213032
     atom   29 type  2   force =     0.00210954   -0.00049081   -0.00213032
     atom   30 type  2   force =    -0.00210954    0.00049081    0.00213032
     atom   31 type  2   force =    -0.00210954    0.00049081   -0.00213032
     atom   32 type  2   force =     0.00210954   -0.00049081    0.00213032

     Total force =     0.000000     Total SCF correction =     0.000000

     Computing stress (Cartesian axis) and pressure

          total   stress  (Ry/bohr**3)                   (kbar)     P=    0.42
   0.00000417   0.00000000   0.00000000          0.61      0.00      0.00
   0.00000000   0.00000011   0.00000000          0.00      0.02      0.00
   0.00000000   0.00000000   0.00000426          0.00      0.00      0.63

     Writing output data file Landau_11.save/

     General routines

     Parallel routines

   This run was terminated on:   0:52:29  21Nov2019

   JOB DONE.