     Program PWSCF v.6.2 (svn rev. 14038) starts on 28Aug2019 at 15: 6: 5

     K-points division:     npool     =      64
     Reading input from scf.in

     Current dimensions of program PWSCF are:
     Max number of different atomic species (ntypx) = 10
     Max number of k-points (npk) =  40000
     Max angular momentum in pseudopotentials (lmaxx) =  3

     Subspace diagonalization in iterative solution of the eigenvalue problem:
     a serial algorithm will be used

     bravais-lattice index     =            0
     lattice parameter (alat)  =      13.8196  a.u.
     unit-cell volume          =    2772.3119 (a.u.)^3
     number of atoms/cell      =           32
     number of atomic types    =            2
     number of electrons       =       368.52
     number of Kohn-Sham states=          221
     kinetic-energy cutoff     =     120.0000  Ry
     charge density cutoff     =     480.0000  Ry
     convergence threshold     =      1.0E-08
     mixing beta               =       0.7000
     number of iterations used =            8  plain     mixing
     Exchange-correlation      = SLA PW NOGX NOGC ( 1  4  0  0 0 0)

     celldm(1)=  13.819597  celldm(2)=   0.000000  celldm(3)=   0.000000
     celldm(4)=   0.000000  celldm(5)=   0.000000  celldm(6)=   0.000000

     crystal axes: (cart. coord. in units of alat)
               a(1) = (   1.000000   0.000000   0.000000 )
               a(2) = (   0.000000   1.043250   0.000000 )
               a(3) = (   0.000000   0.000000   1.006856 )

     reciprocal axes: (cart. coord. in units 2 pi/alat)
               b(1) = (  1.000000  0.000000  0.000000 )
               b(2) = (  0.000000  0.958543  0.000000 )
               b(3) = (  0.000000  0.000000  0.993190 )

     PseudoPot. # 1 for W  read from file:
     /cluster/scratch/mnoe/QE/pps/W_ONCV_LDA-4.0.upf
     MD5 check sum: ba0307d5d4cd419d6f1d13dc49d7c13a
     Pseudo is Norm-conserving + core correction, Zval = 28.0
     Generated using ONCVPSP code by D. R. Hamann
     Using radial grid of 1380 points,  8 beta functions with:
                l(1) =   0
                l(2) =   0
                l(3) =   1
                l(4) =   1
                l(5) =   2
                l(6) =   2
                l(7) =   3
                l(8) =   3

     PseudoPot. # 2 for O  read from file:
     /cluster/scratch/mnoe/QE/pps/O_ONCV_LDA-3.0.upf
     MD5 check sum: b55cdb4f45ae2203d24ad12cf8d61a31
     Pseudo is Norm-conserving + core correction, Zval =  6.0
     Generated using ONCVPSP code by D. R. Hamann
     Using radial grid of  926 points,  5 beta functions with:
                l(1) =   0
                l(2) =   0
                l(3) =   1
                l(4) =   1
                l(5) =   2

     atomic species   valence    mass     pseudopotential
        W             28.00   183.84000     W ( 1.00)
        O              6.00    15.99940     O ( 1.00)

      8 Sym. Ops., with inversion, found ( 6 have fractional translation)

   Cartesian axes

     site n.     atom                  positions (alat units)
         1           W   tau(   1) = (   0.2333500   0.2940505   0.0158278  )
         2           W   tau(   2) = (   0.7666500   0.7491996   0.9910287  )
         3           W   tau(   3) = (   0.2666500   0.2275746   0.5192560  )
         4           W   tau(   4) = (   0.7333500   0.8156754   0.4876005  )
         5           W   tau(   5) = (   0.7666500   0.2940505   0.4876005  )
         6           W   tau(   6) = (   0.2333500   0.7491996   0.5192560  )
         7           W   tau(   7) = (   0.7333500   0.2275746   0.9910287  )
         8           W   tau(   8) = (   0.2666500   0.8156754   0.0158278  )
         9           O   tau(   9) = (   0.2192900   0.0086798   0.0049235  )
        10           O   tau(  10) = (   0.7807100   1.0345702   1.0019329  )
        11           O   tau(  11) = (   0.2807100   0.5129452   0.5083518  )
        12           O   tau(  12) = (   0.7192900   0.5303048   0.4985047  )
        13           O   tau(  13) = (   0.7807100   0.0086798   0.4985047  )
        14           O   tau(  14) = (   0.2192900   1.0345702   0.5083518  )
        15           O   tau(  15) = (   0.7192900   0.5129452   1.0019329  )
        16           O   tau(  16) = (   0.2807100   0.5303048   0.0049235  )
        17           O   tau(  17) = (   0.5045500   0.2279397   0.4526223  )
        18           O   tau(  18) = (   0.4954500   0.8153103   0.5542342  )
        19           O   tau(  19) = (   0.9954500   0.2936853   0.9560505  )
        20           O   tau(  20) = (   0.0045500   0.7495647   0.0508060  )
        21           O   tau(  21) = (   0.4954500   0.2279397   0.0508060  )
        22           O   tau(  22) = (   0.5045500   0.8153103   0.9560505  )
        23           O   tau(  23) = (   0.0045500   0.2936853   0.5542342  )
        24           O   tau(  24) = (   0.9954500   0.7495647   0.4526223  )
        25           O   tau(  25) = (   0.6995400   0.2536349   0.7481950  )
        26           O   tau(  26) = (   0.3004600   0.7896150   0.2586614  )
        27           O   tau(  27) = (   0.8004600   0.2679900   0.2447667  )
        28           O   tau(  28) = (   0.1995400   0.7752599   0.7620897  )
        29           O   tau(  29) = (   0.3004600   0.2536349   0.7620897  )
        30           O   tau(  30) = (   0.6995400   0.7896150   0.2447667  )
        31           O   tau(  31) = (   0.1995400   0.2679900   0.2586614  )
        32           O   tau(  32) = (   0.8004600   0.7752599   0.7481950  )

     number of k points=    64  gaussian smearing, width (Ry)=  0.0007
                       cart. coord. in units 2pi/alat
        k(    1) = (   0.0000000   0.0000000   0.0000000), wk =   0.0092593
        k(    2) = (   0.0000000   0.0000000   0.1655317), wk =   0.0185185
        k(    3) = (   0.0000000   0.0000000   0.3310634), wk =   0.0185185
        k(    4) = (   0.0000000   0.0000000  -0.4965951), wk =   0.0092593
        k(    5) = (   0.0000000   0.1597572   0.0000000), wk =   0.0185185
        k(    6) = (   0.0000000   0.1597572   0.1655317), wk =   0.0370370
        k(    7) = (   0.0000000   0.1597572   0.3310634), wk =   0.0370370
        k(    8) = (   0.0000000   0.1597572  -0.4965951), wk =   0.0185185
        k(    9) = (   0.0000000   0.3195143   0.0000000), wk =   0.0185185
        k(   10) = (   0.0000000   0.3195143   0.1655317), wk =   0.0370370
        k(   11) = (   0.0000000   0.3195143   0.3310634), wk =   0.0370370
        k(   12) = (   0.0000000   0.3195143  -0.4965951), wk =   0.0185185
        k(   13) = (   0.0000000  -0.4792715   0.0000000), wk =   0.0092593
        k(   14) = (   0.0000000  -0.4792715   0.1655317), wk =   0.0185185
        k(   15) = (   0.0000000  -0.4792715   0.3310634), wk =   0.0185185
        k(   16) = (   0.0000000  -0.4792715  -0.4965951), wk =   0.0092593
        k(   17) = (   0.1666667   0.0000000   0.0000000), wk =   0.0185185
        k(   18) = (   0.1666667   0.0000000   0.1655317), wk =   0.0370370
        k(   19) = (   0.1666667   0.0000000   0.3310634), wk =   0.0370370
        k(   20) = (   0.1666667   0.0000000  -0.4965951), wk =   0.0185185
        k(   21) = (   0.1666667   0.1597572   0.0000000), wk =   0.0370370
        k(   22) = (   0.1666667   0.1597572   0.1655317), wk =   0.0740741
        k(   23) = (   0.1666667   0.1597572   0.3310634), wk =   0.0740741
        k(   24) = (   0.1666667   0.1597572  -0.4965951), wk =   0.0370370
        k(   25) = (   0.1666667   0.3195143   0.0000000), wk =   0.0370370
        k(   26) = (   0.1666667   0.3195143   0.1655317), wk =   0.0740741
        k(   27) = (   0.1666667   0.3195143   0.3310634), wk =   0.0740741
        k(   28) = (   0.1666667   0.3195143  -0.4965951), wk =   0.0370370
        k(   29) = (   0.1666667  -0.4792715   0.0000000), wk =   0.0185185
        k(   30) = (   0.1666667  -0.4792715   0.1655317), wk =   0.0370370
        k(   31) = (   0.1666667  -0.4792715   0.3310634), wk =   0.0370370
        k(   32) = (   0.1666667  -0.4792715  -0.4965951), wk =   0.0185185
        k(   33) = (   0.3333333   0.0000000   0.0000000), wk =   0.0185185
        k(   34) = (   0.3333333   0.0000000   0.1655317), wk =   0.0370370
        k(   35) = (   0.3333333   0.0000000   0.3310634), wk =   0.0370370
        k(   36) = (   0.3333333   0.0000000  -0.4965951), wk =   0.0185185
        k(   37) = (   0.3333333   0.1597572   0.0000000), wk =   0.0370370
        k(   38) = (   0.3333333   0.1597572   0.1655317), wk =   0.0740741
        k(   39) = (   0.3333333   0.1597572   0.3310634), wk =   0.0740741
        k(   40) = (   0.3333333   0.1597572  -0.4965951), wk =   0.0370370
        k(   41) = (   0.3333333   0.3195143   0.0000000), wk =   0.0370370
        k(   42) = (   0.3333333   0.3195143   0.1655317), wk =   0.0740741
        k(   43) = (   0.3333333   0.3195143   0.3310634), wk =   0.0740741
        k(   44) = (   0.3333333   0.3195143  -0.4965951), wk =   0.0370370
        k(   45) = (   0.3333333  -0.4792715   0.0000000), wk =   0.0185185
        k(   46) = (   0.3333333  -0.4792715   0.1655317), wk =   0.0370370
        k(   47) = (   0.3333333  -0.4792715   0.3310634), wk =   0.0370370
        k(   48) = (   0.3333333  -0.4792715  -0.4965951), wk =   0.0185185
        k(   49) = (  -0.5000000   0.0000000   0.0000000), wk =   0.0092593
        k(   50) = (  -0.5000000   0.0000000   0.1655317), wk =   0.0185185
        k(   51) = (  -0.5000000   0.0000000   0.3310634), wk =   0.0185185
        k(   52) = (  -0.5000000   0.0000000  -0.4965951), wk =   0.0092593
        k(   53) = (  -0.5000000   0.1597572   0.0000000), wk =   0.0185185
        k(   54) = (  -0.5000000   0.1597572   0.1655317), wk =   0.0370370
        k(   55) = (  -0.5000000   0.1597572   0.3310634), wk =   0.0370370
        k(   56) = (  -0.5000000   0.1597572  -0.4965951), wk =   0.0185185
        k(   57) = (  -0.5000000   0.3195143   0.0000000), wk =   0.0185185
        k(   58) = (  -0.5000000   0.3195143   0.1655317), wk =   0.0370370
        k(   59) = (  -0.5000000   0.3195143   0.3310634), wk =   0.0370370
        k(   60) = (  -0.5000000   0.3195143  -0.4965951), wk =   0.0185185
        k(   61) = (  -0.5000000  -0.4792715   0.0000000), wk =   0.0092593
        k(   62) = (  -0.5000000  -0.4792715   0.1655317), wk =   0.0185185
        k(   63) = (  -0.5000000  -0.4792715   0.3310634), wk =   0.0185185
        k(   64) = (  -0.5000000  -0.4792715  -0.4965951), wk =   0.0092593

     Initial potential from superposition of free atoms

     starting charge  367.99656, renormalised to  368.52000
     Starting wfc are  232 randomized atomic wfcs

     Self-consistent Calculation

     iteration #  1     ecut=   120.00 Ry     beta= 0.70
     Davidson diagonalization with overlap
     ethr =  1.00E-02,  avg # of iterations =  5.0

     total energy              =   -6253.54070303 Ry
     Harris-Foulkes estimate   =   -6264.24724040 Ry
     estimated scf accuracy    <      13.50043189 Ry

[...]

     total energy              =   -6260.72097424 Ry
     Harris-Foulkes estimate   =   -6260.72097426 Ry
     estimated scf accuracy    <       0.00000003 Ry

     iteration # 13     ecut=   120.00 Ry     beta= 0.70
     Davidson diagonalization with overlap
     ethr =  6.95E-12,  avg # of iterations =  2.3

     End of self-consistent calculation

          k = 0.0000 0.0000 0.0000 ( 61535 PWs)   bands (ev):

   -65.8243 -65.8237 -65.8234 -65.8232 -65.8228 -65.8227 -65.8223 -65.8218
   -30.2638 -30.2560 -30.2552 -30.2470 -30.2204 -30.2122 -30.2073 -30.1998
   -30.1996 -30.1853 -30.1831 -30.1734 -30.1661 -30.1612 -30.1566 -30.1353
   -30.1035 -30.1020 -30.0949 -30.0912 -30.0801 -30.0726 -30.0715 -30.0642
   -19.9753 -19.9751 -19.9747 -19.9746 -19.9740 -19.9738 -19.9733 -19.9732
   -19.9609 -19.9605 -19.9605 -19.9599 -19.9599 -19.9597 -19.9594 -19.9589
   -19.9563 -19.9560 -19.9551 -19.9549 -19.9547 -19.9540 -19.9535 -19.9530
   -19.9528 -19.9521 -19.9521 -19.9516 -19.9504 -19.9500 -19.9499 -19.9495
   -19.9421 -19.9419 -19.9417 -19.9416 -19.9388 -19.9386 -19.9383 -19.9381
   -19.9268 -19.9267 -19.9257 -19.9256 -19.9212 -19.9212 -19.9202 -19.9202
   -19.9162 -19.9161 -19.9150 -19.9149 -19.9124 -19.9123 -19.9112 -19.9111
    -9.7326  -9.4061  -9.2854  -9.2769  -8.9750  -8.9343  -8.8688  -8.7496
    -8.7262  -8.6580  -8.6112  -8.6052  -7.7140  -7.6321  -7.6038  -7.5723
    -7.5618  -7.5547  -7.5518  -7.5002  -7.4685  -7.4390  -7.4301  -7.4190
     1.5588   1.5741   1.6165   1.6175   1.6488   1.6523   1.7076   1.8332
     1.8471   1.9299   1.9527   2.1574   2.6103   2.7098   2.7392   2.7886
     2.8818   2.9654   4.3089   4.4065   4.5582   4.7797   4.8374   4.9493
     4.9995   5.0177   5.0328   5.0362   5.2886   5.3407   5.4218   5.5663
     5.6967   5.7517   5.7699   5.7770   5.8638   5.8737   5.9483   5.9948
     6.0233   6.0273   6.0519   6.0775   6.1526   6.1746   6.2107   6.3075
     6.3439   6.4399   6.4831   6.6970   6.7221   6.9290   6.9659   7.0304
     7.0361   7.1174   7.1432   7.1573   7.1636   7.2274   7.3749   7.4177
     7.5032   7.5410   7.9034   7.9339   8.0920   8.1594   8.3019   8.3514
     9.9603   9.9963  10.3775  10.3850  10.4473  10.4606  12.3649  12.4913
    12.6029  12.6181  12.7566  12.7797  12.7967  12.8881  12.9541  12.9702
    13.4654  13.4762  13.5219  13.5889  13.8183  13.9027  14.2938  14.2991
    14.8223  14.8341  15.0978  15.1157  15.6518  15.6969  15.8589  16.1540
    16.2858  16.9564  17.0763  17.2446  17.8228

[...]

          k = 0.3333-0.4793-0.4966 ( 61500 PWs)   bands (ev):

[...]

          k =-0.5000 0.0000 0.0000 ( 61528 PWs)   bands (ev):

[...]

          k =-0.5000-0.4793-0.4966 ( 61584 PWs)   bands (ev):

   -65.8230 -65.8230 -65.8230 -65.8230 -65.8230 -65.8230 -65.8230 -65.8230
   -30.2254 -30.2254 -30.2254 -30.2254 -30.2244 -30.2244 -30.2244 -30.2244
   -30.1539 -30.1539 -30.1539 -30.1539 -30.1512 -30.1512 -30.1512 -30.1512
   -30.1125 -30.1125 -30.1125 -30.1124 -30.1097 -30.1097 -30.1097 -30.1097
   -19.9742 -19.9742 -19.9742 -19.9742 -19.9742 -19.9742 -19.9742 -19.9742
   -19.9600 -19.9600 -19.9600 -19.9600 -19.9599 -19.9599 -19.9599 -19.9599
   -19.9545 -19.9545 -19.9545 -19.9544 -19.9543 -19.9543 -19.9543 -19.9543
   -19.9517 -19.9517 -19.9516 -19.9516 -19.9513 -19.9513 -19.9513 -19.9513
   -19.9403 -19.9402 -19.9402 -19.9402 -19.9400 -19.9400 -19.9400 -19.9399
   -19.9236 -19.9236 -19.9236 -19.9236 -19.9236 -19.9236 -19.9236 -19.9236
   -19.9138 -19.9138 -19.9138 -19.9138 -19.9137 -19.9137 -19.9137 -19.9137
    -8.7415  -8.7414  -8.7414  -8.7414  -8.7074  -8.7074  -8.7074  -8.7074
    -8.2039  -8.2039  -8.2039  -8.2039  -8.1504  -8.1504  -8.1504  -8.1504
    -8.1228  -8.1228  -8.1228  -8.1228  -8.0760  -8.0760  -8.0760  -8.0760
     3.0830   3.0830   3.0830   3.0831   3.1879   3.1879   3.1879   3.1879
     3.3695   3.3696   3.3696   3.3696   3.5001   3.5001   3.5001   3.5001
     3.5681   3.5681   3.5681   3.5682   3.7793   3.7793   3.7794   3.7794
     4.3556   4.3556   4.3556   4.3556   4.3981   4.3981   4.3981   4.3981
     4.5640   4.5640   4.5640   4.5640   4.6519   4.6519   4.6519   4.6519
     4.7350   4.7350   4.7350   4.7350   4.8299   4.8299   4.8299   4.8299
     7.2583   7.2583   7.2583   7.2583   7.4496   7.4496   7.4496   7.4496
     7.5227   7.5227   7.5227   7.5227   7.5931   7.5931   7.5932   7.5932
     7.7346   7.7346   7.7346   7.7346   7.8253   7.8253   7.8253   7.8253
    12.1493  12.1493  12.1493  12.1493  12.1813  12.1813  12.1813  12.1813
    12.4272  12.4272  12.4273  12.4273  12.6274  12.6274  12.6274  12.6274
    12.7893  12.7893  12.7893  12.7893  12.9207  12.9207  12.9207  12.9207
    17.2062  17.2062  17.2062  17.2062  17.3187  17.3187  17.3187  17.3187
    17.5626  17.5626  17.5626  17.5626  17.6676

     the Fermi energy is    10.2904 ev

!    total energy              =   -6260.72097425 Ry
     Harris-Foulkes estimate   =   -6260.72097425 Ry
     estimated scf accuracy    <          1.8E-09 Ry

     The total energy is the sum of the following terms:

     one-electron contribution =   -4662.13185574 Ry
     hartree contribution      =    2572.16106582 Ry
     xc contribution           =    -966.23283423 Ry
     ewald contribution        =   -3204.51733030 Ry
     smearing contrib. (-TS)   =      -0.00001980 Ry

     convergence has been achieved in  13 iterations

     Writing output data file Landau_36.save

     General routines

     Parallel routines

   This run was terminated on:  15:16:30  28Aug2019

   JOB DONE.