     Program PWSCF v.6.2 (svn rev. 14038) starts on 26Mar2020 at  1:34:16

     K-points division:     npool     =      40
     Reading input from rscf.in

     Current dimensions of program PWSCF are:
     Max number of different atomic species (ntypx) = 10
     Max number of k-points (npk) =  40000
     Max angular momentum in pseudopotentials (lmaxx) =  3

     Subspace diagonalization in iterative solution of the eigenvalue problem:
     a serial algorithm will be used

     bravais-lattice index     =            0
     lattice parameter (alat)  =      13.8397  a.u.
     unit-cell volume          =    2804.9816 (a.u.)^3
     number of atoms/cell      =           32
     number of atomic types    =            2
     number of electrons       =       368.00
     number of Kohn-Sham states=          221
     kinetic-energy cutoff     =     120.0000  Ry
     charge density cutoff     =     480.0000  Ry
     convergence threshold     =      1.0E-08
     mixing beta               =       0.7000
     number of iterations used =            8  plain     mixing
     Exchange-correlation      = SLA PW NOGX NOGC ( 1  4  0  0 0 0)
     nstep                     =           50

     celldm(1)=  13.839685  celldm(2)=   0.000000  celldm(3)=   0.000000
     celldm(4)=   0.000000  celldm(5)=   0.000000  celldm(6)=   0.000000

     crystal axes: (cart. coord. in units of alat)
               a(1) = (   1.000000   0.000000   0.000000 )
               a(2) = (   0.000000   1.058160   0.000000 )
               a(3) = (   0.000000   0.000000   1.000000 )

     reciprocal axes: (cart. coord. in units 2 pi/alat)
               b(1) = (  1.000000  0.000000  0.000000 )
               b(2) = (  0.000000  0.945037  0.000000 )
               b(3) = (  0.000000  0.000000  1.000000 )

     PseudoPot. # 1 for W  read from file:
     /cluster/scratch/mnoe/QE/pps/W_ONCV_LDA-4.0.upf
     MD5 check sum: ba0307d5d4cd419d6f1d13dc49d7c13a
     Pseudo is Norm-conserving + core correction, Zval = 28.0
     Generated using ONCVPSP code by D. R. Hamann
     Using radial grid of 1380 points,  8 beta functions with:
                l(1) =   0
                l(2) =   0
                l(3) =   1
                l(4) =   1
                l(5) =   2
                l(6) =   2
                l(7) =   3
                l(8) =   3

     PseudoPot. # 2 for O  read from file:
     /cluster/scratch/mnoe/QE/pps/O_ONCV_LDA-3.0.upf
     MD5 check sum: a1bd6164e7280c17a38c229939bfbd54
     Pseudo is Norm-conserving + core correction, Zval =  6.0
     Generated using ONCVPSP code by D. R. Hamann
     Using radial grid of  926 points,  5 beta functions with:
                l(1) =   0
                l(2) =   0
                l(3) =   1
                l(4) =   1
                l(5) =   2

     atomic species   valence    mass     pseudopotential
        W             28.00   183.84000     W ( 1.00)
        O              6.00    15.99940     O ( 1.00)

      8 Sym. Ops. (no inversion) found ( 7 have fractional translation)

   Cartesian axes

     site n.     atom                  positions (alat units)
         1           W   tau(   1) = (   0.2482035   0.2980296  -0.0000514  )
         2           W   tau(   2) = (   0.7500514   0.7601305  -0.0017965  )
         3           W   tau(   3) = (   0.2517965   0.2310505   0.4999486  )
         4           W   tau(   4) = (   0.7499486   0.8271096   0.4982035  )
         5           W   tau(   5) = (   0.7517965   0.2980296   0.5000514  )
         6           W   tau(   6) = (   0.2499486   0.7601305   0.5017965  )
         7           W   tau(   7) = (   0.7482035   0.2310505   0.0000514  )
         8           W   tau(   8) = (   0.2500514   0.8271096   0.0017965  )
         9           O   tau(   9) = (   0.2480242   0.0087430  -0.0014334  )
        10           O   tau(  10) = (   0.7514334  -0.0087430  -0.0019758  )
        11           O   tau(  11) = (   0.2519758   0.5203370   0.4985666  )
        12           O   tau(  12) = (   0.7485666   0.5378230   0.4980242  )
        13           O   tau(  13) = (   0.7519758   0.0087430   0.5014334  )
        14           O   tau(  14) = (   0.2485666  -0.0087430   0.5019758  )
        15           O   tau(  15) = (   0.7480242   0.5203370   0.0014334  )
        16           O   tau(  16) = (   0.2514334   0.5378230   0.0019758  )
        17           O   tau(  17) = (   0.5006358   0.2622860   0.4500563  )
        18           O   tau(  18) = (   0.5001304   0.7950666   0.5499436  )
        19           O   tau(  19) = (  -0.0006358   0.2667941   0.9500564  )
        20           O   tau(  20) = (  -0.0001304   0.7921735   0.0499437  )
        21           O   tau(  21) = (   0.4993642   0.2622860   0.0499437  )
        22           O   tau(  22) = (   0.4998696   0.7950666   0.9500564  )
        23           O   tau(  23) = (   0.0006358   0.2667941   0.5499436  )
        24           O   tau(  24) = (   0.0001304   0.7921735   0.4500563  )
        25           O   tau(  25) = (   0.7000564   0.2659865   0.7498696  )
        26           O   tau(  26) = (   0.2999437   0.7958741   0.2506358  )
        27           O   tau(  27) = (   0.7999436   0.2630935   0.2498696  )
        28           O   tau(  28) = (   0.2000564   0.7913660   0.7506358  )
        29           O   tau(  29) = (   0.2999437   0.2659865   0.7501304  )
        30           O   tau(  30) = (   0.7000564   0.7958741   0.2493642  )
        31           O   tau(  31) = (   0.2000564   0.2630935   0.2501304  )
        32           O   tau(  32) = (   0.7999436   0.7913660   0.7493642  )

     number of k points=    40  gaussian smearing, width (Ry)=  0.0007
                       cart. coord. in units 2pi/alat
        k(    1) = (   0.0000000   0.0000000   0.0000000), wk =   0.0092593
        k(    2) = (   0.0000000   0.0000000   0.1666667), wk =   0.0370370
        k(    3) = (   0.0000000   0.0000000   0.3333333), wk =   0.0370370
        k(    4) = (   0.0000000   0.0000000  -0.5000000), wk =   0.0185185
        k(    5) = (   0.0000000   0.1575061   0.0000000), wk =   0.0185185
        k(    6) = (   0.0000000   0.1575061   0.1666667), wk =   0.0740741
        k(    7) = (   0.0000000   0.1575061   0.3333333), wk =   0.0740741
        k(    8) = (   0.0000000   0.1575061  -0.5000000), wk =   0.0370370
        k(    9) = (   0.0000000   0.3150122   0.0000000), wk =   0.0185185
        k(   10) = (   0.0000000   0.3150122   0.1666667), wk =   0.0740741
        k(   11) = (   0.0000000   0.3150122   0.3333333), wk =   0.0740741
        k(   12) = (   0.0000000   0.3150122  -0.5000000), wk =   0.0370370
        k(   13) = (   0.0000000  -0.4725183   0.0000000), wk =   0.0092593
        k(   14) = (   0.0000000  -0.4725183   0.1666667), wk =   0.0370370
        k(   15) = (   0.0000000  -0.4725183   0.3333333), wk =   0.0370370
        k(   16) = (   0.0000000  -0.4725183  -0.5000000), wk =   0.0185185
        k(   17) = (   0.1666667   0.0000000   0.1666667), wk =   0.0370370
        k(   18) = (   0.1666667   0.0000000   0.3333333), wk =   0.0740741
        k(   19) = (   0.1666667   0.0000000  -0.5000000), wk =   0.0370370
        k(   20) = (   0.1666667   0.1575061   0.1666667), wk =   0.0740741
        k(   21) = (   0.1666667   0.1575061   0.3333333), wk =   0.1481481
        k(   22) = (   0.1666667   0.1575061  -0.5000000), wk =   0.0740741
        k(   23) = (   0.1666667   0.3150122   0.1666667), wk =   0.0740741
        k(   24) = (   0.1666667   0.3150122   0.3333333), wk =   0.1481481
        k(   25) = (   0.1666667   0.3150122  -0.5000000), wk =   0.0740741
        k(   26) = (   0.1666667  -0.4725183   0.1666667), wk =   0.0370370
        k(   27) = (   0.1666667  -0.4725183   0.3333333), wk =   0.0740741
        k(   28) = (   0.1666667  -0.4725183  -0.5000000), wk =   0.0370370
        k(   29) = (   0.3333333   0.0000000   0.3333333), wk =   0.0370370
        k(   30) = (   0.3333333   0.0000000  -0.5000000), wk =   0.0370370
        k(   31) = (   0.3333333   0.1575061   0.3333333), wk =   0.0740741
        k(   32) = (   0.3333333   0.1575061  -0.5000000), wk =   0.0740741
        k(   33) = (   0.3333333   0.3150122   0.3333333), wk =   0.0740741
        k(   34) = (   0.3333333   0.3150122  -0.5000000), wk =   0.0740741
        k(   35) = (   0.3333333  -0.4725183   0.3333333), wk =   0.0370370
        k(   36) = (   0.3333333  -0.4725183  -0.5000000), wk =   0.0370370
        k(   37) = (  -0.5000000   0.0000000  -0.5000000), wk =   0.0092593
        k(   38) = (  -0.5000000   0.1575061  -0.5000000), wk =   0.0185185
        k(   39) = (  -0.5000000   0.3150122  -0.5000000), wk =   0.0185185
        k(   40) = (  -0.5000000  -0.4725183  -0.5000000), wk =   0.0092593

     Initial potential from superposition of free atoms

     starting charge  367.99656, renormalised to  368.00000
     Starting wfc are  232 randomized atomic wfcs

     Self-consistent Calculation

     iteration #  1     ecut=   120.00 Ry     beta= 0.70
     Davidson diagonalization with overlap
     ethr =  1.00E-02,  avg # of iterations =  5.0

     total energy              =   -6253.98216645 Ry
     Harris-Foulkes estimate   =   -6264.58698530 Ry
     estimated scf accuracy    <      13.42862852 Ry

[...]

     End of self-consistent calculation

          k = 0.0000 0.0000 0.0000 ( 62239 PWs)   bands (ev):

   -66.1752 -66.1748 -66.1742 -66.1742 -66.1738 -66.1738 -66.1732 -66.1728
   -30.5665 -30.5631 -30.5631 -30.5598 -30.5224 -30.5224 -30.5195 -30.5187
   -30.5171 -30.5171 -30.5139 -30.5139 -30.5066 -30.5042 -30.5042 -30.5020
   -30.4213 -30.4213 -30.4185 -30.4185 -30.4170 -30.4167 -30.4143 -30.4140
   -20.3351 -20.3350 -20.3350 -20.3350 -20.3350 -20.3350 -20.3349 -20.3349
   -20.3172 -20.3170 -20.3170 -20.3167 -20.3123 -20.3122 -20.3120 -20.3118
   -20.3118 -20.3118 -20.3115 -20.3115 -20.3114 -20.3112 -20.3111 -20.3111
   -20.3107 -20.3107 -20.3105 -20.3104 -20.3100 -20.3100 -20.3097 -20.3096
   -20.3032 -20.3031 -20.3028 -20.3028 -20.3026 -20.3023 -20.3022 -20.3022
   -20.3012 -20.3012 -20.3010 -20.3010 -20.3009 -20.3008 -20.3007 -20.3006
   -20.2951 -20.2950 -20.2945 -20.2945 -20.2944 -20.2944 -20.2940 -20.2939
    -9.9553  -9.6838  -9.5127  -9.5127  -9.2540  -9.2540  -9.0667  -9.0641
    -9.0520  -8.8745  -8.8513  -8.8513  -7.8492  -7.7897  -7.7897  -7.7836
    -7.7834  -7.7583  -7.7575  -7.7380  -7.6306  -7.6306  -7.6095  -7.6095
     1.1688   1.1691   1.2555   1.2555   1.2721   1.2721   1.3653   1.6237
     1.6320   1.6320   1.6387   1.8491   2.3781   2.4514   2.5784   2.5793
     2.7262   2.7262   4.1325   4.1325   4.3464   4.3465   4.8294   4.8294
     4.8424   4.8449   4.8566   4.8566   5.0351   5.0351   5.0648   5.4477
     5.4477   5.5145   5.5145   5.5286   5.5286   5.5804   5.5804   5.8173
     5.8173   5.8793   5.8795   5.9340   5.9651   6.0339   6.0346   6.1043
     6.1044   6.2470   6.2470   6.5667   6.5667   6.8094   6.8094   6.8373
     6.8375   6.8765   7.0156   7.0216   7.0861   7.0861   7.3828   7.3828
     7.4256   7.4256   7.7869   7.8006   8.0763   8.0763   8.1462   8.1475
     9.2223   9.2286   9.9767   9.9771  10.0141  10.0141  12.2340  12.2340
[...]
W        0.251796543   0.218351178   0.499948557    0   0   0
W        0.749948556   0.781648808   0.498203457    0   0   0
W        0.751796540   0.281648837   0.500051443    0   0   0
W        0.249948557   0.718351163   0.501796543    0   0   0
W        0.748203459   0.218351178   0.000051444    0   0   0
W        0.250051443   0.781648808   0.001796541    0   0   0
O        0.248024152   0.008262472  -0.001433436    0   0   0
O        0.751433435  -0.008262451  -0.001975845    0   0   0
O        0.251975845   0.491737521   0.498566561    0   0   0
O        0.748566563   0.508262451   0.498024153    0   0   0
O        0.751975844   0.008262472   0.501433438    0   0   0
O        0.248566560  -0.008262451   0.501975846    0   0   0
O        0.748024154   0.491737521   0.001433436    0   0   0
O        0.251433437   0.508262451   0.001975845    0   0   0
O        0.500635807   0.247869822   0.450056346    0   0   0
O        0.500130357   0.751366998   0.549943624    0   0   0
O       -0.000635805   0.252130177   0.950056379    0   0   0
O       -0.000130356   0.748632980   0.049943668    0   0   0
O        0.499364193   0.247869822   0.049943668    0   0   0
O        0.499869643   0.751366998   0.950056379    0   0   0
O        0.000635804   0.252130177   0.549943624    0   0   0
O        0.000130355   0.748632980   0.450056346    0   0   0
O        0.700056378   0.251367009   0.749869644    0   0   0
O        0.299943653   0.752130167   0.250635807    0   0   0
O        0.799943625   0.248632990   0.249869646    0   0   0
O        0.200056362   0.747869811   0.750635807    0   0   0
O        0.299943653   0.251367009   0.750130358    0   0   0
O        0.700056378   0.752130167   0.249364196    0   0   0
O        0.200056362   0.248632990   0.250130357    0   0   0
O        0.799943625   0.747869811   0.749364195    0   0   0
End final coordinates

     A final scf calculation at the relaxed structure.
     The G-vectors are recalculated for the final unit cell
     Results may differ from those at the preceding step.

     bravais-lattice index     =            0
     lattice parameter (alat)  =      13.8397  a.u.
     unit-cell volume          =    2806.4431 (a.u.)^3
     number of atoms/cell      =           32
     number of atomic types    =            2
     number of electrons       =       368.00
     number of Kohn-Sham states=          221
     kinetic-energy cutoff     =     120.0000  Ry
     charge density cutoff     =     480.0000  Ry
     convergence threshold     =      1.0E-10
     mixing beta               =       0.7000
     number of iterations used =            8  plain     mixing
     Exchange-correlation      = SLA PW NOGX NOGC ( 1  4  0  0 0 0)

     celldm(1)=  13.839685  celldm(2)=   0.000000  celldm(3)=   0.000000
     celldm(4)=   0.000000  celldm(5)=   0.000000  celldm(6)=   0.000000

     crystal axes: (cart. coord. in units of alat)
               a(1) = (   1.000496   0.000000   0.000000 )
               a(2) = (   0.000000   1.057663   0.000000 )
               a(3) = (   0.000000   0.000000   1.000496 )

     reciprocal axes: (cart. coord. in units 2 pi/alat)
               b(1) = (  0.999505  0.000000  0.000000 )
               b(2) = (  0.000000  0.945481  0.000000 )
               b(3) = (  0.000000  0.000000  0.999505 )

     PseudoPot. # 1 for W  read from file:
     /cluster/scratch/mnoe/QE/pps/W_ONCV_LDA-4.0.upf
     MD5 check sum: ba0307d5d4cd419d6f1d13dc49d7c13a
     Pseudo is Norm-conserving + core correction, Zval = 28.0
     Generated using ONCVPSP code by D. R. Hamann
     Using radial grid of 1380 points,  8 beta functions with:
                l(1) =   0
                l(2) =   0
                l(3) =   1
                l(4) =   1
                l(5) =   2
                l(6) =   2
                l(7) =   3
                l(8) =   3

     PseudoPot. # 2 for O  read from file:
     /cluster/scratch/mnoe/QE/pps/O_ONCV_LDA-3.0.upf
     MD5 check sum: a1bd6164e7280c17a38c229939bfbd54
     Pseudo is Norm-conserving + core correction, Zval =  6.0
     Generated using ONCVPSP code by D. R. Hamann
     Using radial grid of  926 points,  5 beta functions with:
                l(1) =   0
                l(2) =   0
                l(3) =   1
                l(4) =   1
                l(5) =   2

     atomic species   valence    mass     pseudopotential
        W             28.00   183.84000     W ( 1.00)
        O              6.00    15.99940     O ( 1.00)

      8 Sym. Ops. (no inversion) found ( 7 have fractional translation)

   Cartesian axes

     site n.     atom                  positions (alat units)
         1           W   tau(   1) = (   0.2483265   0.2978894  -0.0000515  )
         2           W   tau(   2) = (   0.7504233   0.7597731  -0.0017974  )
         3           W   tau(   3) = (   0.2519214   0.2309419   0.5001964  )
         4           W   tau(   4) = (   0.7503203   0.8267206   0.4984504  )
         5           W   tau(   5) = (   0.7521692   0.2978894   0.5002993  )
         6           W   tau(   6) = (   0.2500725   0.7597731   0.5020453  )
         7           W   tau(   7) = (   0.7485744   0.2309419   0.0000515  )
         8           W   tau(   8) = (   0.2501754   0.8267206   0.0017974  )
         9           O   tau(   9) = (   0.2481471   0.0087389  -0.0014341  )
        10           O   tau(  10) = (   0.7518059  -0.0087389  -0.0019768  )
        11           O   tau(  11) = (   0.2521008   0.5200923   0.4988137  )
        12           O   tau(  12) = (   0.7489377   0.5375701   0.4982710  )
        13           O   tau(  13) = (   0.7523486   0.0087389   0.5016820  )
        14           O   tau(  14) = (   0.2486898  -0.0087389   0.5022247  )
        15           O   tau(  15) = (   0.7483950   0.5200923   0.0014341  )
        16           O   tau(  16) = (   0.2515581   0.5375701   0.0019768  )
        17           O   tau(  17) = (   0.5008840   0.2621626   0.4502795  )
        18           O   tau(  18) = (   0.5003783   0.7946927   0.5502162  )
        19           O   tau(  19) = (  -0.0006361   0.2666686   0.9505274  )
        20           O   tau(  20) = (  -0.0001304   0.7918010   0.0499684  )
        21           O   tau(  21) = (   0.4996117   0.2621626   0.0499684  )
        22           O   tau(  22) = (   0.5001174   0.7946927   0.9505274  )
        23           O   tau(  23) = (   0.0006361   0.2666686   0.5502162  )
        24           O   tau(  24) = (   0.0001304   0.7918010   0.4502795  )
        25           O   tau(  25) = (   0.7004034   0.2658615   0.7502414  )
        26           O   tau(  26) = (   0.3000923   0.7954999   0.2507601  )
        27           O   tau(  27) = (   0.8003402   0.2629698   0.2499935  )
        28           O   tau(  28) = (   0.2001555   0.7909939   0.7510079  )
        29           O   tau(  29) = (   0.3000923   0.2658615   0.7505022  )
        30           O   tau(  30) = (   0.7004034   0.7954999   0.2494878  )
        31           O   tau(  31) = (   0.2001555   0.2629698   0.2502544  )
        32           O   tau(  32) = (   0.8003402   0.7909939   0.7497357  )

     number of k points=    40  gaussian smearing, width (Ry)=  0.0007
                       cart. coord. in units 2pi/alat
        k(    1) = (   0.0000000   0.0000000   0.0000000), wk =   0.0092593
        k(    2) = (   0.0000000   0.0000000   0.1665841), wk =   0.0370370
        k(    3) = (   0.0000000   0.0000000   0.3331682), wk =   0.0370370
        k(    4) = (   0.0000000   0.0000000  -0.4997523), wk =   0.0185185
        k(    5) = (   0.0000000   0.1575802   0.0000000), wk =   0.0185185
        k(    6) = (   0.0000000   0.1575802   0.1665841), wk =   0.0740741
        k(    7) = (   0.0000000   0.1575802   0.3331682), wk =   0.0740741
        k(    8) = (   0.0000000   0.1575802  -0.4997523), wk =   0.0370370
        k(    9) = (   0.0000000   0.3151604   0.0000000), wk =   0.0185185
        k(   10) = (   0.0000000   0.3151604   0.1665841), wk =   0.0740741
        k(   11) = (   0.0000000   0.3151604   0.3331682), wk =   0.0740741
        k(   12) = (   0.0000000   0.3151604  -0.4997523), wk =   0.0370370
        k(   13) = (   0.0000000  -0.4727406   0.0000000), wk =   0.0092593
        k(   14) = (   0.0000000  -0.4727406   0.1665841), wk =   0.0370370
        k(   15) = (   0.0000000  -0.4727406   0.3331682), wk =   0.0370370
        k(   16) = (   0.0000000  -0.4727406  -0.4997523), wk =   0.0185185
        k(   17) = (   0.1665841   0.0000000   0.1665841), wk =   0.0370370
        k(   18) = (   0.1665841   0.0000000   0.3331682), wk =   0.0740741
        k(   19) = (   0.1665841   0.0000000  -0.4997523), wk =   0.0370370
        k(   20) = (   0.1665841   0.1575802   0.1665841), wk =   0.0740741
        k(   21) = (   0.1665841   0.1575802   0.3331682), wk =   0.1481481
        k(   22) = (   0.1665841   0.1575802  -0.4997523), wk =   0.0740741
        k(   23) = (   0.1665841   0.3151604   0.1665841), wk =   0.0740741
        k(   24) = (   0.1665841   0.3151604   0.3331682), wk =   0.1481481
        k(   25) = (   0.1665841   0.3151604  -0.4997523), wk =   0.0740741
        k(   26) = (   0.1665841  -0.4727406   0.1665841), wk =   0.0370370
        k(   27) = (   0.1665841  -0.4727406   0.3331682), wk =   0.0740741
        k(   28) = (   0.1665841  -0.4727406  -0.4997523), wk =   0.0370370
        k(   29) = (   0.3331682   0.0000000   0.3331682), wk =   0.0370370
        k(   30) = (   0.3331682   0.0000000  -0.4997523), wk =   0.0370370
        k(   31) = (   0.3331682   0.1575802   0.3331682), wk =   0.0740741
        k(   32) = (   0.3331682   0.1575802  -0.4997523), wk =   0.0740741
        k(   33) = (   0.3331682   0.3151604   0.3331682), wk =   0.0740741
        k(   34) = (   0.3331682   0.3151604  -0.4997523), wk =   0.0740741
        k(   35) = (   0.3331682  -0.4727406   0.3331682), wk =   0.0370370
        k(   36) = (   0.3331682  -0.4727406  -0.4997523), wk =   0.0370370
        k(   37) = (  -0.4997523   0.0000000  -0.4997523), wk =   0.0092593
        k(   38) = (  -0.4997523   0.1575802  -0.4997523), wk =   0.0185185
        k(   39) = (  -0.4997523   0.3151604  -0.4997523), wk =   0.0185185
        k(   40) = (  -0.4997523  -0.4727406  -0.4997523), wk =   0.0092593

     Initial potential from superposition of free atoms

     starting charge  367.99656, renormalised to  368.00000
     Starting wfc are  232 randomized atomic wfcs

     Writing output data file Landau_1.save

     Self-consistent Calculation

[...]

     total energy              =   -6261.10944094 Ry
     Harris-Foulkes estimate   =   -6261.10944094 Ry
     estimated scf accuracy    <          6.1E-10 Ry

     iteration # 14     ecut=   120.00 Ry     beta= 0.70
     Davidson diagonalization with overlap
     ethr =  1.65E-13,  avg # of iterations =  2.0

     End of self-consistent calculation

[...]

          k = 0.3332-0.4727-0.4998 ( 62248 PWs)   bands (ev):

[...]

          k =-0.4998-0.4727-0.4998 ( 62328 PWs)   bands (ev):

   -66.1841 -66.1841 -66.1841 -66.1841 -66.1841 -66.1841 -66.1841 -66.1841
   -30.5474 -30.5474 -30.5474 -30.5474 -30.5473 -30.5473 -30.5473 -30.5473
   -30.4762 -30.4762 -30.4762 -30.4762 -30.4761 -30.4761 -30.4761 -30.4761
   -30.4745 -30.4745 -30.4744 -30.4744 -30.4744 -30.4743 -30.4743 -30.4743
   -20.3456 -20.3456 -20.3456 -20.3456 -20.3455 -20.3455 -20.3455 -20.3455
   -20.3250 -20.3250 -20.3250 -20.3250 -20.3250 -20.3250 -20.3250 -20.3250
   -20.3216 -20.3216 -20.3216 -20.3216 -20.3215 -20.3215 -20.3215 -20.3215
   -20.3213 -20.3213 -20.3213 -20.3213 -20.3213 -20.3213 -20.3213 -20.3213
   -20.3128 -20.3128 -20.3128 -20.3128 -20.3128 -20.3128 -20.3128 -20.3128
   -20.3091 -20.3091 -20.3091 -20.3091 -20.3091 -20.3091 -20.3091 -20.3091
   -20.3080 -20.3080 -20.3080 -20.3080 -20.3080 -20.3080 -20.3080 -20.3080
    -8.9449  -8.9449  -8.9429  -8.9429  -8.9429  -8.9429  -8.9416  -8.9415
    -8.4292  -8.4292  -8.4268  -8.4268  -8.4268  -8.4268  -8.4251  -8.4251
    -8.3501  -8.3501  -8.3487  -8.3487  -8.3487  -8.3487  -8.3459  -8.3458
     2.9852   2.9852   2.9880   2.9880   2.9880   2.9880   2.9913   2.9914
     3.1243   3.1243   3.1289   3.1289   3.1289   3.1289   3.1339   3.1339
     3.4228   3.4229   3.4388   3.4388   3.4388   3.4388   3.4529   3.4530
     4.1397   4.1397   4.1429   4.1429   4.1429   4.1429   4.1454   4.1454
     4.3668   4.3668   4.3668   4.3668   4.3678   4.3678   4.3679   4.3679
     4.4492   4.4492   4.4540   4.4540   4.4540   4.4540   4.4572   4.4572
     7.1816   7.1816   7.1994   7.1994   7.1994   7.1994   7.2184   7.2184
     7.3256   7.3257   7.3275   7.3275   7.3275   7.3275   7.3288   7.3288
     7.5915   7.5915   7.5962   7.5962   7.5962   7.5962   7.6013   7.6013
    11.7853  11.7853  11.7863  11.7863  11.7863  11.7863  11.7877  11.7877
    12.2538  12.2538  12.2698  12.2698  12.2698  12.2698  12.2871  12.2871
    12.5097  12.5097  12.5172  12.5172  12.5172  12.5172  12.5238  12.5238
    17.1559  17.1559  17.1627  17.1627  17.1627  17.1627  17.1690  17.1691
    17.3630  17.3630  17.3630  17.3630  17.3641

     the Fermi energy is     8.5374 ev

!    total energy              =   -6261.10944094 Ry
     Harris-Foulkes estimate   =   -6261.10944094 Ry
     estimated scf accuracy    <          6.3E-11 Ry

     The total energy is the sum of the following terms:

     one-electron contribution =   -4723.97974568 Ry
     hartree contribution      =    2598.56517395 Ry
     xc contribution           =    -965.66916923 Ry
     ewald contribution        =   -3170.02569999 Ry
     smearing contrib. (-TS)   =      -0.00000000 Ry

     convergence has been achieved in  14 iterations

     Forces acting on atoms (cartesian axes, Ry/au):

     atom    1 type  1   force =    -0.00065892    0.00054133   -0.00012802
     atom    2 type  1   force =     0.00012802   -0.00054133   -0.00065892
     atom    3 type  1   force =     0.00065892   -0.00054133   -0.00012802
     atom    4 type  1   force =    -0.00012802    0.00054133   -0.00065892
     atom    5 type  1   force =     0.00065892    0.00054133    0.00012802
     atom    6 type  1   force =    -0.00012802   -0.00054133    0.00065892
     atom    7 type  1   force =    -0.00065892   -0.00054133    0.00012802
     atom    8 type  1   force =     0.00012802    0.00054133    0.00065892
     atom    9 type  2   force =    -0.00010487   -0.00025227   -0.00002499
     atom   10 type  2   force =     0.00002499    0.00025227   -0.00010487
     atom   11 type  2   force =     0.00010487    0.00025227   -0.00002499
     atom   12 type  2   force =    -0.00002499   -0.00025227   -0.00010487
     atom   13 type  2   force =     0.00010487   -0.00025227    0.00002499
     atom   14 type  2   force =    -0.00002499    0.00025227    0.00010487
     atom   15 type  2   force =    -0.00010487    0.00025227    0.00002499
     atom   16 type  2   force =     0.00002499   -0.00025227    0.00010487
     atom   17 type  2   force =    -0.00033602   -0.00015349   -0.00012440
     atom   18 type  2   force =     0.00004915   -0.00018015    0.00011290
     atom   19 type  2   force =     0.00033602    0.00015349   -0.00012440
     atom   20 type  2   force =    -0.00004915    0.00018015    0.00011290
     atom   21 type  2   force =     0.00033602   -0.00015349    0.00012440
     atom   22 type  2   force =    -0.00004915   -0.00018015   -0.00011290
     atom   23 type  2   force =    -0.00033602    0.00015349    0.00012440
     atom   24 type  2   force =     0.00004915    0.00018015   -0.00011290
     atom   25 type  2   force =    -0.00011290   -0.00018015   -0.00004915
     atom   26 type  2   force =     0.00012440    0.00015349   -0.00033602
     atom   27 type  2   force =     0.00011290    0.00018015   -0.00004915
     atom   28 type  2   force =    -0.00012440   -0.00015349   -0.00033602
     atom   29 type  2   force =     0.00011290   -0.00018015    0.00004915
     atom   30 type  2   force =    -0.00012440    0.00015349    0.00033602
     atom   31 type  2   force =    -0.00011290    0.00018015    0.00004915
     atom   32 type  2   force =     0.00012440   -0.00015349    0.00033602

     Total force =     0.000000     Total SCF correction =     0.000000

     Computing stress (Cartesian axis) and pressure

          total   stress  (Ry/bohr**3)                   (kbar)     P=   -0.02
  -0.00000005   0.00000000   0.00000000         -0.01      0.00      0.00
   0.00000000  -0.00000028   0.00000000          0.00     -0.04      0.00
   0.00000000   0.00000000  -0.00000005          0.00      0.00     -0.01

     Writing output data file Landau_1.save

     General routines

     Parallel routines

   This run was terminated on:   3: 8: 8  26Mar2020

   JOB DONE.