     Program PWSCF v.6.4.1 starts on 20Nov2019 at 23: 7:42

     K-points division:     npool     =      64
     Reading input from rscf.in

     Current dimensions of program PWSCF are:
     Max number of different atomic species (ntypx) = 10
     Max number of k-points (npk) =  40000
     Max angular momentum in pseudopotentials (lmaxx) =  3

     Subspace diagonalization in iterative solution of the eigenvalue problem:
     a serial algorithm will be used

     Message from routine setup:
     using ibrav=0 with symmetry is DISCOURAGED, use correct ibrav instead

     bravais-lattice index     =            0
     lattice parameter (alat)  =      13.8397  a.u.
     unit-cell volume          =    2804.9816 (a.u.)^3
     number of atoms/cell      =           32
     number of atomic types    =            2
     number of electrons       =       368.00
     number of Kohn-Sham states=          221
     kinetic-energy cutoff     =     120.0000  Ry
     charge density cutoff     =     480.0000  Ry
     convergence threshold     =      1.0E-08
     mixing beta               =       0.7000
     number of iterations used =            8  plain     mixing
     Exchange-correlation      = SLA PW NOGX NOGC ( 1  4  0  0 0 0)
     nstep                     =           50

     celldm(1)=  13.839685  celldm(2)=   0.000000  celldm(3)=   0.000000
     celldm(4)=   0.000000  celldm(5)=   0.000000  celldm(6)=   0.000000

     crystal axes: (cart. coord. in units of alat)
               a(1) = (   1.000000   0.000000   0.000000 )
               a(2) = (   0.000000   1.058160   0.000000 )
               a(3) = (   0.000000   0.000000   1.000000 )

     reciprocal axes: (cart. coord. in units 2 pi/alat)
               b(1) = (  1.000000  0.000000  0.000000 )
               b(2) = (  0.000000  0.945037  0.000000 )
               b(3) = (  0.000000  0.000000  1.000000 )

     PseudoPot. # 1 for W  read from file:
     /cluster/scratch/mnoe/QE/pps/W_ONCV_LDA-4.0.upf
     MD5 check sum: ba0307d5d4cd419d6f1d13dc49d7c13a
     Pseudo is Norm-conserving + core correction, Zval = 28.0
     Generated using ONCVPSP code by D. R. Hamann
     Using radial grid of 1380 points,  8 beta functions with:
                l(1) =   0
                l(2) =   0
                l(3) =   1
                l(4) =   1
                l(5) =   2
                l(6) =   2
                l(7) =   3
                l(8) =   3

     PseudoPot. # 2 for O  read from file:
     /cluster/scratch/mnoe/QE/pps/O_ONCV_LDA-3.0.upf
     MD5 check sum: b55cdb4f45ae2203d24ad12cf8d61a31
     Pseudo is Norm-conserving + core correction, Zval =  6.0
     Generated using ONCVPSP code by D. R. Hamann
     Using radial grid of  926 points,  5 beta functions with:
                l(1) =   0
                l(2) =   0
                l(3) =   1
                l(4) =   1
                l(5) =   2

     atomic species   valence    mass     pseudopotential
        W             28.00   183.84000     W ( 1.00)
        O              6.00    15.99940     O ( 1.00)

      8 Sym. Ops., with inversion, found ( 6 have fractional translation)

   Cartesian axes

     site n.     atom                  positions (alat units)
         1           W   tau(   1) = (   0.2444500   0.3025652   0.0052400  )
         2           W   tau(   2) = (   0.7555500   0.7555949   0.9947600  )
         3           W   tau(   3) = (   0.2555500   0.2265148   0.5052400  )
         4           W   tau(   4) = (   0.7444500   0.8316452   0.4947600  )
         5           W   tau(   5) = (   0.7555500   0.3025652   0.4947600  )
         6           W   tau(   6) = (   0.2444500   0.7555949   0.5052400  )
         7           W   tau(   7) = (   0.7444500   0.2265148   0.9947600  )
         8           W   tau(   8) = (   0.2555500   0.8316452   0.0052400  )
         9           O   tau(   9) = (   0.2397600   0.0169636   0.0016300  )
        10           O   tau(  10) = (   0.7602400   1.0411965   0.9983700  )
        11           O   tau(  11) = (   0.2602400   0.5121165   0.5016300  )
        12           O   tau(  12) = (   0.7397600   0.5460436   0.4983700  )
        13           O   tau(  13) = (   0.7602400   0.0169636   0.4983700  )
        14           O   tau(  14) = (   0.2397600   1.0411965   0.5016300  )
        15           O   tau(  15) = (   0.7397600   0.5121165   0.9983700  )
        16           O   tau(  16) = (   0.2602400   0.5460436   0.0016300  )
        17           O   tau(  17) = (   0.5015200   0.2534293   0.4706036  )
        18           O   tau(  18) = (   0.4984800   0.8047307   0.5293964  )
        19           O   tau(  19) = (   0.9984800   0.2756507   0.9706036  )
        20           O   tau(  20) = (   0.0015199   0.7825094   0.0293964  )
        21           O   tau(  21) = (   0.4984800   0.2534293   0.0293964  )
        22           O   tau(  22) = (   0.5015200   0.8047307   0.9706036  )
        23           O   tau(  23) = (   0.0015199   0.2756507   0.5293964  )
        24           O   tau(  24) = (   0.9984800   0.7825094   0.4706036  )
        25           O   tau(  25) = (   0.7206037   0.2621168   0.7477000  )
        26           O   tau(  26) = (   0.2793964   0.7960433   0.2523000  )
        27           O   tau(  27) = (   0.7793964   0.2669632   0.2477000  )
        28           O   tau(  28) = (   0.2206036   0.7911969   0.7523000  )
        29           O   tau(  29) = (   0.2793964   0.2621168   0.7523000  )
        30           O   tau(  30) = (   0.7206037   0.7960433   0.2477000  )
        31           O   tau(  31) = (   0.2206036   0.2669632   0.2523000  )
        32           O   tau(  32) = (   0.7793964   0.7911969   0.7477000  )

     number of k points=    64  gaussian smearing, width (Ry)=  0.0007
                       cart. coord. in units 2pi/alat
        k(    1) = (   0.0000000   0.0000000   0.0000000), wk =   0.0092593
        k(    2) = (   0.0000000   0.0000000   0.1666667), wk =   0.0185185
        k(    3) = (   0.0000000   0.0000000   0.3333333), wk =   0.0185185
        k(    4) = (   0.0000000   0.0000000  -0.5000000), wk =   0.0092593
        k(    5) = (   0.0000000   0.1575061   0.0000000), wk =   0.0185185
        k(    6) = (   0.0000000   0.1575061   0.1666667), wk =   0.0370370
        k(    7) = (   0.0000000   0.1575061   0.3333333), wk =   0.0370370
        k(    8) = (   0.0000000   0.1575061  -0.5000000), wk =   0.0185185
        k(    9) = (   0.0000000   0.3150122   0.0000000), wk =   0.0185185
        k(   10) = (   0.0000000   0.3150122   0.1666667), wk =   0.0370370
        k(   11) = (   0.0000000   0.3150122   0.3333333), wk =   0.0370370
        k(   12) = (   0.0000000   0.3150122  -0.5000000), wk =   0.0185185
        k(   13) = (   0.0000000  -0.4725183   0.0000000), wk =   0.0092593
        k(   14) = (   0.0000000  -0.4725183   0.1666667), wk =   0.0185185
        k(   15) = (   0.0000000  -0.4725183   0.3333333), wk =   0.0185185
        k(   16) = (   0.0000000  -0.4725183  -0.5000000), wk =   0.0092593
        k(   17) = (   0.1666667   0.0000000   0.1666667), wk =   0.0370370
        k(   18) = (   0.1666667   0.0000000   0.3333333), wk =   0.0370370
        k(   19) = (   0.1666667   0.0000000  -0.5000000), wk =   0.0185185
        k(   20) = (   0.1666667   0.1575061   0.1666667), wk =   0.0740741
        k(   21) = (   0.1666667   0.1575061   0.3333333), wk =   0.0740741
        k(   22) = (   0.1666667   0.1575061  -0.5000000), wk =   0.0370370
        k(   23) = (   0.1666667   0.3150122   0.1666667), wk =   0.0740741
        k(   24) = (   0.1666667   0.3150122   0.3333333), wk =   0.0740741
        k(   25) = (   0.1666667   0.3150122  -0.5000000), wk =   0.0370370
        k(   26) = (   0.1666667  -0.4725183   0.1666667), wk =   0.0370370
        k(   27) = (   0.1666667  -0.4725183   0.3333333), wk =   0.0370370
        k(   28) = (   0.1666667  -0.4725183  -0.5000000), wk =   0.0185185
        k(   29) = (   0.3333333   0.0000000   0.3333333), wk =   0.0370370
        k(   30) = (   0.3333333   0.0000000  -0.5000000), wk =   0.0185185
        k(   31) = (   0.3333333   0.1575061   0.3333333), wk =   0.0740741
        k(   32) = (   0.3333333   0.1575061  -0.5000000), wk =   0.0370370
        k(   33) = (   0.3333333   0.3150122   0.3333333), wk =   0.0740741
        k(   34) = (   0.3333333   0.3150122  -0.5000000), wk =   0.0370370
        k(   35) = (   0.3333333  -0.4725183   0.3333333), wk =   0.0370370
        k(   36) = (   0.3333333  -0.4725183  -0.5000000), wk =   0.0185185
        k(   37) = (  -0.5000000   0.0000000  -0.5000000), wk =   0.0092593
        k(   38) = (  -0.5000000   0.1575061  -0.5000000), wk =   0.0185185
        k(   39) = (  -0.5000000   0.3150122  -0.5000000), wk =   0.0185185
        k(   40) = (  -0.5000000  -0.4725183  -0.5000000), wk =   0.0092593
        k(   41) = (   0.1666667   0.0000000   0.0000000), wk =   0.0185185
        k(   42) = (   0.3333333   0.0000000   0.0000000), wk =   0.0185185
        k(   43) = (  -0.5000000   0.0000000   0.0000000), wk =   0.0092593
        k(   44) = (   0.1666667  -0.1575061   0.0000000), wk =   0.0370370
        k(   45) = (   0.3333333  -0.1575061   0.0000000), wk =   0.0370370
        k(   46) = (  -0.5000000  -0.1575061   0.0000000), wk =   0.0185185
        k(   47) = (   0.1666667  -0.3150122   0.0000000), wk =   0.0370370
        k(   48) = (   0.3333333  -0.3150122   0.0000000), wk =   0.0370370
        k(   49) = (  -0.5000000  -0.3150122   0.0000000), wk =   0.0185185
        k(   50) = (   0.1666667   0.4725183   0.0000000), wk =   0.0185185
        k(   51) = (   0.3333333   0.4725183   0.0000000), wk =   0.0185185
        k(   52) = (  -0.5000000   0.4725183   0.0000000), wk =   0.0092593
        k(   53) = (   0.3333333   0.0000000   0.1666667), wk =   0.0370370
        k(   54) = (  -0.5000000   0.0000000   0.1666667), wk =   0.0185185
        k(   55) = (   0.3333333  -0.1575061   0.1666667), wk =   0.0740741
        k(   56) = (  -0.5000000  -0.1575061   0.1666667), wk =   0.0370370
        k(   57) = (   0.3333333  -0.3150122   0.1666667), wk =   0.0740741
        k(   58) = (  -0.5000000  -0.3150122   0.1666667), wk =   0.0370370
        k(   59) = (   0.3333333   0.4725183   0.1666667), wk =   0.0370370
        k(   60) = (  -0.5000000   0.4725183   0.1666667), wk =   0.0185185
        k(   61) = (  -0.5000000   0.0000000   0.3333333), wk =   0.0185185
        k(   62) = (  -0.5000000  -0.1575061   0.3333333), wk =   0.0370370
        k(   63) = (  -0.5000000  -0.3150122   0.3333333), wk =   0.0370370
        k(   64) = (  -0.5000000   0.4725183   0.3333333), wk =   0.0185185

     Initial potential from superposition of free atoms

     starting charge  367.99656, renormalised to  368.00000
     Starting wfcs are  232 randomized atomic wfcs

     Self-consistent Calculation

     iteration #  1     ecut=   120.00 Ry     beta= 0.70
     Davidson diagonalization with overlap
     ethr =  1.00E-02,  avg # of iterations =  5.0

     total energy              =   -6253.99246053 Ry
     Harris-Foulkes estimate   =   -6264.56953283 Ry
[...]
End final coordinates

     Writing output data file Landau_12.save/

     Final scf calculation at the relaxed structure.
     The G-vectors are recalculated for the final unit cell
     Results may differ from those at the preceding step.

     bravais-lattice index     =            0
     lattice parameter (alat)  =      13.8397  a.u.
     unit-cell volume          =    2840.0001 (a.u.)^3
     number of atoms/cell      =           32
     number of atomic types    =            2
     number of electrons       =       368.00
     number of Kohn-Sham states=          221
     kinetic-energy cutoff     =     120.0000  Ry
     charge density cutoff     =     480.0000  Ry
     convergence threshold     =      1.0E-10
     mixing beta               =       0.7000
     number of iterations used =            8  plain     mixing
     Exchange-correlation      = SLA PW NOGX NOGC ( 1  4  0  0 0 0)

     celldm(1)=  13.839685  celldm(2)=   0.000000  celldm(3)=   0.000000
     celldm(4)=   0.000000  celldm(5)=   0.000000  celldm(6)=   0.000000

     crystal axes: (cart. coord. in units of alat)
               a(1) = (   1.010431   0.000000   0.000000 )
               a(2) = (   0.000000   1.049081   0.000000 )
               a(3) = (   0.000000   0.000000   1.010704 )

     reciprocal axes: (cart. coord. in units 2 pi/alat)
               b(1) = (  0.989676  0.000000  0.000000 )
               b(2) = (  0.000000  0.953215  0.000000 )
               b(3) = (  0.000000  0.000000  0.989410 )

     PseudoPot. # 1 for W  read from file:
     /cluster/scratch/mnoe/QE/pps/W_ONCV_LDA-4.0.upf
     MD5 check sum: ba0307d5d4cd419d6f1d13dc49d7c13a
     Pseudo is Norm-conserving + core correction, Zval = 28.0
     Generated using ONCVPSP code by D. R. Hamann
     Using radial grid of 1380 points,  8 beta functions with:
                l(1) =   0
                l(2) =   0
                l(3) =   1
                l(4) =   1
                l(5) =   2
                l(6) =   2
                l(7) =   3
                l(8) =   3

     PseudoPot. # 2 for O  read from file:
     /cluster/scratch/mnoe/QE/pps/O_ONCV_LDA-3.0.upf
     MD5 check sum: b55cdb4f45ae2203d24ad12cf8d61a31
     Pseudo is Norm-conserving + core correction, Zval =  6.0
     Generated using ONCVPSP code by D. R. Hamann
     Using radial grid of  926 points,  5 beta functions with:
                l(1) =   0
                l(2) =   0
                l(3) =   1
                l(4) =   1
                l(5) =   2

     atomic species   valence    mass     pseudopotential
        W             28.00   183.84000     W ( 1.00)
        O              6.00    15.99940     O ( 1.00)

      8 Sym. Ops., with inversion, found ( 6 have fractional translation)

   Cartesian axes

     site n.     atom                  positions (alat units)
         1           W   tau(   1) = (   0.2469999   0.2999692   0.0052961  )
         2           W   tau(   2) = (   0.7634314   0.7491118   1.0054076  )
         3           W   tau(   3) = (   0.2582157   0.2245713   0.5106480  )
         4           W   tau(   4) = (   0.7522156   0.8245097   0.5000558  )
         5           W   tau(   5) = (   0.7634314   0.2999692   0.5000558  )
         6           W   tau(   6) = (   0.2469999   0.7491118   0.5106480  )
         7           W   tau(   7) = (   0.7522156   0.2245713   1.0054076  )
         8           W   tau(   8) = (   0.2582157   0.8245097   0.0052961  )
         9           O   tau(   9) = (   0.2422610   0.0168180   0.0016474  )
        10           O   tau(  10) = (   0.7681703   1.0322630   1.0090563  )
        11           O   tau(  11) = (   0.2629547   0.5077225   0.5069993  )
        12           O   tau(  12) = (   0.7474766   0.5413585   0.5037044  )
        13           O   tau(  13) = (   0.7681703   0.0168180   0.5037044  )
        14           O   tau(  14) = (   0.2422610   1.0322630   0.5069993  )
        15           O   tau(  15) = (   0.7474766   0.5077225   1.0090563  )
        16           O   tau(  16) = (   0.2629547   0.5413585   0.0016474  )
        17           O   tau(  17) = (   0.5067515   0.2512549   0.4756408  )
        18           O   tau(  18) = (   0.5036798   0.7978261   0.5350629  )
        19           O   tau(  19) = (   1.0088955   0.2732856   0.9809927  )
        20           O   tau(  20) = (   0.0015358   0.7757954   0.0297111  )
        21           O   tau(  21) = (   0.5036798   0.2512549   0.0297111  )
        22           O   tau(  22) = (   0.5067515   0.7978261   0.9809927  )
        23           O   tau(  23) = (   0.0015358   0.2732856   0.5350629  )
        24           O   tau(  24) = (   1.0088955   0.7757954   0.4756408  )
        25           O   tau(  25) = (   0.7281205   0.2598679   0.7557032  )
        26           O   tau(  26) = (   0.2823109   0.7892132   0.2550006  )
        27           O   tau(  27) = (   0.7875265   0.2646727   0.2503513  )
        28           O   tau(  28) = (   0.2229048   0.7844084   0.7603524  )
        29           O   tau(  29) = (   0.2823109   0.2598679   0.7603524  )
        30           O   tau(  30) = (   0.7281205   0.7892132   0.2503513  )
        31           O   tau(  31) = (   0.2229048   0.2646727   0.2550006  )
        32           O   tau(  32) = (   0.7875265   0.7844084   0.7557032  )

     number of k points=    64  gaussian smearing, width (Ry)=  0.0007
                       cart. coord. in units 2pi/alat
        k(    1) = (   0.0000000   0.0000000   0.0000000), wk =   0.0092593
        k(    2) = (   0.0000000   0.0000000   0.1649016), wk =   0.0185185
        k(    3) = (   0.0000000   0.0000000   0.3298032), wk =   0.0185185
        k(    4) = (   0.0000000   0.0000000  -0.4947048), wk =   0.0092593
        k(    5) = (   0.0000000   0.1588692   0.0000000), wk =   0.0185185
        k(    6) = (   0.0000000   0.1588692   0.1649016), wk =   0.0370370
        k(    7) = (   0.0000000   0.1588692   0.3298032), wk =   0.0370370
        k(    8) = (   0.0000000   0.1588692  -0.4947048), wk =   0.0185185
        k(    9) = (   0.0000000   0.3177384   0.0000000), wk =   0.0185185
        k(   10) = (   0.0000000   0.3177384   0.1649016), wk =   0.0370370
        k(   11) = (   0.0000000   0.3177384   0.3298032), wk =   0.0370370
        k(   12) = (   0.0000000   0.3177384  -0.4947048), wk =   0.0185185
        k(   13) = (   0.0000000  -0.4766076   0.0000000), wk =   0.0092593
        k(   14) = (   0.0000000  -0.4766076   0.1649016), wk =   0.0185185
        k(   15) = (   0.0000000  -0.4766076   0.3298032), wk =   0.0185185
        k(   16) = (   0.0000000  -0.4766076  -0.4947048), wk =   0.0092593
        k(   17) = (   0.1649461   0.0000000   0.1649016), wk =   0.0370370
        k(   18) = (   0.1649461   0.0000000   0.3298032), wk =   0.0370370
        k(   19) = (   0.1649461   0.0000000  -0.4947048), wk =   0.0185185
        k(   20) = (   0.1649461   0.1588692   0.1649016), wk =   0.0740741
        k(   21) = (   0.1649461   0.1588692   0.3298032), wk =   0.0740741
        k(   22) = (   0.1649461   0.1588692  -0.4947048), wk =   0.0370370
        k(   23) = (   0.1649461   0.3177384   0.1649016), wk =   0.0740741
        k(   24) = (   0.1649461   0.3177384   0.3298032), wk =   0.0740741
        k(   25) = (   0.1649461   0.3177384  -0.4947048), wk =   0.0370370
        k(   26) = (   0.1649461  -0.4766076   0.1649016), wk =   0.0370370
        k(   27) = (   0.1649461  -0.4766076   0.3298032), wk =   0.0370370
        k(   28) = (   0.1649461  -0.4766076  -0.4947048), wk =   0.0185185
        k(   29) = (   0.3298921   0.0000000   0.3298032), wk =   0.0370370
        k(   30) = (   0.3298921   0.0000000  -0.4947048), wk =   0.0185185
        k(   31) = (   0.3298921   0.1588692   0.3298032), wk =   0.0740741
        k(   32) = (   0.3298921   0.1588692  -0.4947048), wk =   0.0370370
        k(   33) = (   0.3298921   0.3177384   0.3298032), wk =   0.0740741
        k(   34) = (   0.3298921   0.3177384  -0.4947048), wk =   0.0370370
        k(   35) = (   0.3298921  -0.4766076   0.3298032), wk =   0.0370370
        k(   36) = (   0.3298921  -0.4766076  -0.4947048), wk =   0.0185185
        k(   37) = (  -0.4948382   0.0000000  -0.4947048), wk =   0.0092593
        k(   38) = (  -0.4948382   0.1588692  -0.4947048), wk =   0.0185185
        k(   39) = (  -0.4948382   0.3177384  -0.4947048), wk =   0.0185185
        k(   40) = (  -0.4948382  -0.4766076  -0.4947048), wk =   0.0092593
        k(   41) = (   0.1649461   0.0000000   0.0000000), wk =   0.0185185
        k(   42) = (   0.3298921   0.0000000   0.0000000), wk =   0.0185185
        k(   43) = (  -0.4948382   0.0000000   0.0000000), wk =   0.0092593
        k(   44) = (   0.1649461  -0.1588692   0.0000000), wk =   0.0370370
        k(   45) = (   0.3298921  -0.1588692   0.0000000), wk =   0.0370370
        k(   46) = (  -0.4948382  -0.1588692   0.0000000), wk =   0.0185185
        k(   47) = (   0.1649461  -0.3177384   0.0000000), wk =   0.0370370
        k(   48) = (   0.3298921  -0.3177384   0.0000000), wk =   0.0370370
        k(   49) = (  -0.4948382  -0.3177384   0.0000000), wk =   0.0185185
        k(   50) = (   0.1649461   0.4766076   0.0000000), wk =   0.0185185
        k(   51) = (   0.3298921   0.4766076   0.0000000), wk =   0.0185185
        k(   52) = (  -0.4948382   0.4766076   0.0000000), wk =   0.0092593
        k(   53) = (   0.3298921   0.0000000   0.1649016), wk =   0.0370370
        k(   54) = (  -0.4948382   0.0000000   0.1649016), wk =   0.0185185
        k(   55) = (   0.3298921  -0.1588692   0.1649016), wk =   0.0740741
        k(   56) = (  -0.4948382  -0.1588692   0.1649016), wk =   0.0370370
        k(   57) = (   0.3298921  -0.3177384   0.1649016), wk =   0.0740741
        k(   58) = (  -0.4948382  -0.3177384   0.1649016), wk =   0.0370370
        k(   59) = (   0.3298921   0.4766076   0.1649016), wk =   0.0370370
        k(   60) = (  -0.4948382   0.4766076   0.1649016), wk =   0.0185185
        k(   61) = (  -0.4948382   0.0000000   0.3298032), wk =   0.0185185
        k(   62) = (  -0.4948382  -0.1588692   0.3298032), wk =   0.0370370
        k(   63) = (  -0.4948382  -0.3177384   0.3298032), wk =   0.0370370
        k(   64) = (  -0.4948382   0.4766076   0.3298032), wk =   0.0185185

     Initial potential from superposition of free atoms

     starting charge  367.99656, renormalised to  368.00000
     Starting wfcs are  232 randomized atomic wfcs

     Self-consistent Calculation

[...]

     total energy              =   -6261.09056245 Ry
     Harris-Foulkes estimate   =   -6261.09056245 Ry
     estimated scf accuracy    <          4.3E-10 Ry

     iteration # 15     ecut=   120.00 Ry     beta= 0.70
     Davidson diagonalization with overlap
     ethr =  1.18E-13,  avg # of iterations =  2.0

     End of self-consistent calculation

[...]

          k = 0.3299 0.4766 0.1649 ( 63034 PWs)   bands (ev):

[...]

          k =-0.4948 0.4766 0.3298 ( 63004 PWs)   bands (ev):

   -66.3789 -66.3789 -66.3789 -66.3789 -66.3785 -66.3785 -66.3785 -66.3785
   -30.7173 -30.7173 -30.7167 -30.7167 -30.7140 -30.7140 -30.7132 -30.7132
   -30.6968 -30.6968 -30.6965 -30.6965 -30.6760 -30.6760 -30.6752 -30.6752
   -30.6742 -30.6742 -30.6732 -30.6732 -30.6532 -30.6532 -30.6531 -30.6531
   -20.5434 -20.5434 -20.5434 -20.5434 -20.5432 -20.5432 -20.5432 -20.5432
   -20.5267 -20.5267 -20.5267 -20.5266 -20.5259 -20.5259 -20.5259 -20.5259
   -20.5240 -20.5240 -20.5240 -20.5240 -20.5229 -20.5229 -20.5229 -20.5229
   -20.5149 -20.5149 -20.5148 -20.5148 -20.5147 -20.5147 -20.5147 -20.5147
   -20.5115 -20.5115 -20.5115 -20.5115 -20.5107 -20.5107 -20.5107 -20.5107
   -20.5067 -20.5067 -20.5066 -20.5066 -20.5059 -20.5059 -20.5059 -20.5058
   -20.5036 -20.5036 -20.5036 -20.5036 -20.5026 -20.5026 -20.5026 -20.5026
    -9.3793  -9.3793  -9.3730  -9.3730  -9.0040  -9.0039  -8.9874  -8.9874
    -8.7264  -8.7264  -8.7128  -8.7128  -8.5545  -8.5545  -8.5398  -8.5397
    -8.5229  -8.5229  -8.5110  -8.5109  -8.2977  -8.2977  -8.2971  -8.2971
     2.0261   2.0261   2.0329   2.0329   2.7677   2.7677   2.8033   2.8033
     2.8568   2.8568   2.8643   2.8643   3.0153   3.0153   3.0483   3.0483
     3.1549   3.1549   3.2070   3.2070   3.3947   3.3947   3.4091   3.4091
     3.5660   3.5660   3.6365   3.6365   4.1394   4.1394   4.1491   4.1491
     4.1852   4.1852   4.2316   4.2316   4.3076   4.3076   4.3874   4.3874
     4.5151   4.5151   4.6271   4.6272   4.8339   4.8339   4.8454   4.8454
     6.8722   6.8722   6.9374   6.9374   6.9920   6.9920   7.0026   7.0026
     7.1105   7.1105   7.1609   7.1609   7.2116   7.2116   7.2353   7.2353
     7.3280   7.3280   7.3863   7.3863   7.4931   7.4931   7.5232   7.5232
    11.2058  11.2058  11.2328  11.2328  11.5329  11.5329  11.5964  11.5964
    12.0080  12.0080  12.0857  12.0857  12.1300  12.1300  12.1655  12.1655
    12.2880  12.2880  12.4081  12.4081  12.7667  12.7667  12.8336  12.8336
    16.1682  16.1682  16.2170  16.2171  16.7692  16.7692  16.8170  16.8170
    17.1359  17.1360  17.2558  17.2566  17.2787

     the Fermi energy is     8.7329 ev

!    total energy              =   -6261.09056245 Ry
     Harris-Foulkes estimate   =   -6261.09056245 Ry
     estimated scf accuracy    <          8.8E-12 Ry

     The total energy is the sum of the following terms:

     one-electron contribution =   -4772.85789907 Ry
     hartree contribution      =    2620.51338012 Ry
     xc contribution           =    -965.69548198 Ry
     ewald contribution        =   -3143.05056152 Ry
     smearing contrib. (-TS)   =      -0.00000000 Ry

     convergence has been achieved in  15 iterations

     Forces acting on atoms (cartesian axes, Ry/au):

     atom    1 type  1   force =    -0.00265921    0.00561006    0.00299342
     atom    2 type  1   force =     0.00265921   -0.00561006   -0.00299342
     atom    3 type  1   force =     0.00265921   -0.00561006    0.00299342
     atom    4 type  1   force =    -0.00265921    0.00561006   -0.00299342
     atom    5 type  1   force =     0.00265921    0.00561006   -0.00299342
     atom    6 type  1   force =    -0.00265921   -0.00561006    0.00299342
     atom    7 type  1   force =    -0.00265921   -0.00561006   -0.00299342
     atom    8 type  1   force =     0.00265921    0.00561006    0.00299342
     atom    9 type  2   force =     0.00074143   -0.03514074    0.00044832
     atom   10 type  2   force =    -0.00074143    0.03514074   -0.00044832
     atom   11 type  2   force =    -0.00074143    0.03514074    0.00044832
     atom   12 type  2   force =     0.00074143   -0.03514074   -0.00044832
     atom   13 type  2   force =    -0.00074143   -0.03514074   -0.00044832
     atom   14 type  2   force =     0.00074143    0.03514074    0.00044832
     atom   15 type  2   force =     0.00074143    0.03514074   -0.00044832
     atom   16 type  2   force =    -0.00074143   -0.03514074    0.00044832
     atom   17 type  2   force =    -0.00084007   -0.00161217   -0.00179526
     atom   18 type  2   force =     0.00084007    0.00161217    0.00179526
     atom   19 type  2   force =     0.00084007    0.00161217   -0.00179526
     atom   20 type  2   force =    -0.00084007   -0.00161217    0.00179526
     atom   21 type  2   force =     0.00084007   -0.00161217    0.00179526
     atom   22 type  2   force =    -0.00084007    0.00161217   -0.00179526
     atom   23 type  2   force =    -0.00084007    0.00161217    0.00179526
     atom   24 type  2   force =     0.00084007   -0.00161217   -0.00179526
     atom   25 type  2   force =    -0.00213151   -0.00046793    0.00242263
     atom   26 type  2   force =     0.00213151    0.00046793   -0.00242263
     atom   27 type  2   force =     0.00213151    0.00046793    0.00242263
     atom   28 type  2   force =    -0.00213151   -0.00046793   -0.00242263
     atom   29 type  2   force =     0.00213151   -0.00046793   -0.00242263
     atom   30 type  2   force =    -0.00213151    0.00046793    0.00242263
     atom   31 type  2   force =    -0.00213151    0.00046793   -0.00242263
     atom   32 type  2   force =     0.00213151   -0.00046793    0.00242263

     Total force =     0.000000     Total SCF correction =     0.000000

     Computing stress (Cartesian axis) and pressure

          total   stress  (Ry/bohr**3)                   (kbar)     P=    0.46
   0.00000460   0.00000000   0.00000000          0.68      0.00      0.00
   0.00000000   0.00000016   0.00000000          0.00      0.02      0.00
   0.00000000   0.00000000   0.00000470          0.00      0.00      0.69

     Writing output data file Landau_12.save/

     General routines

     Parallel routines

   This run was terminated on:   1: 4:38  21Nov2019

   JOB DONE.