     Program PWSCF v.6.2 (svn rev. 14038) starts on 29Apr2019 at 18: 0:22

     K-points division:     npool     =      64
     Reading input from rscf.in

     Current dimensions of program PWSCF are:
     Max number of different atomic species (ntypx) = 10
     Max number of k-points (npk) =  40000
     Max angular momentum in pseudopotentials (lmaxx) =  3

     Subspace diagonalization in iterative solution of the eigenvalue problem:
     a serial algorithm will be used

     bravais-lattice index     =            0
     lattice parameter (alat)  =      13.8397  a.u.
     unit-cell volume          =    2804.9816 (a.u.)^3
     number of atoms/cell      =           32
     number of atomic types    =            2
     number of electrons       =       368.00
     number of Kohn-Sham states=          221
     kinetic-energy cutoff     =     120.0000  Ry
     charge density cutoff     =     480.0000  Ry
     convergence threshold     =      1.0E-08
     mixing beta               =       0.7000
     number of iterations used =            8  plain     mixing
     Exchange-correlation      = SLA PW NOGX NOGC ( 1  4  0  0 0 0)
     nstep                     =           50

     celldm(1)=  13.839685  celldm(2)=   0.000000  celldm(3)=   0.000000
     celldm(4)=   0.000000  celldm(5)=   0.000000  celldm(6)=   0.000000

     crystal axes: (cart. coord. in units of alat)
               a(1) = (   1.000000   0.000000   0.000000 )
               a(2) = (   0.000000   1.058160   0.000000 )
               a(3) = (   0.000000   0.000000   1.000000 )

     reciprocal axes: (cart. coord. in units 2 pi/alat)
               b(1) = (  1.000000  0.000000  0.000000 )
               b(2) = (  0.000000  0.945037  0.000000 )
               b(3) = (  0.000000  0.000000  1.000000 )

     PseudoPot. # 1 for W  read from file:
     /cluster/scratch/mnoe/QE/pps/W_ONCV_LDA-4.0.upf
     MD5 check sum: ba0307d5d4cd419d6f1d13dc49d7c13a
     Pseudo is Norm-conserving + core correction, Zval = 28.0
     Generated using ONCVPSP code by D. R. Hamann
     Using radial grid of 1380 points,  8 beta functions with:
                l(1) =   0
                l(2) =   0
                l(3) =   1
                l(4) =   1
                l(5) =   2
                l(6) =   2
                l(7) =   3
                l(8) =   3

     PseudoPot. # 2 for O  read from file:
     /cluster/scratch/mnoe/QE/pps/O_ONCV_LDA-3.0.upf
     MD5 check sum: a1bd6164e7280c17a38c229939bfbd54
     Pseudo is Norm-conserving + core correction, Zval =  6.0
     Generated using ONCVPSP code by D. R. Hamann
     Using radial grid of  926 points,  5 beta functions with:
                l(1) =   0
                l(2) =   0
                l(3) =   1
                l(4) =   1
                l(5) =   2

     atomic species   valence    mass     pseudopotential
        W             28.00   183.84000     W ( 1.00)
        O              6.00    15.99940     O ( 1.00)

      8 Sym. Ops., with inversion, found ( 6 have fractional translation)

   Cartesian axes

     site n.     atom                  positions (alat units)
         1           W   tau(   1) = (   0.2393600   0.2982530   0.0100500  )
         2           W   tau(   2) = (   0.7606400   0.7599071   0.9899500  )
         3           W   tau(   3) = (   0.2606400   0.2308271   0.5100500  )
         4           W   tau(   4) = (   0.7393600   0.8273330   0.4899500  )
         5           W   tau(   5) = (   0.7606400   0.2982530   0.4899500  )
         6           W   tau(   6) = (   0.2393600   0.7599071   0.5100500  )
         7           W   tau(   7) = (   0.7393600   0.2308271   0.9899500  )
         8           W   tau(   8) = (   0.2606400   0.8273330   0.0100500  )
         9           O   tau(   9) = (   0.2303800   0.0088039   0.0031200  )
        10           O   tau(  10) = (   0.7696200   1.0493562   0.9968800  )
        11           O   tau(  11) = (   0.2696200   0.5202761   0.5031200  )
        12           O   tau(  12) = (   0.7303800   0.5378839   0.4968800  )
        13           O   tau(  13) = (   0.7696200   0.0088039   0.4968800  )
        14           O   tau(  14) = (   0.2303800   1.0493562   0.5031200  )
        15           O   tau(  15) = (   0.7303800   0.5202761   0.9968800  )
        16           O   tau(  16) = (   0.2696200   0.5378839   0.0031200  )
        17           O   tau(  17) = (   0.5029100   0.2432393   0.4495400  )
        18           O   tau(  18) = (   0.4970900   0.8149208   0.5504600  )
        19           O   tau(  19) = (   0.9970900   0.2858408   0.9495400  )
        20           O   tau(  20) = (   0.0029100   0.7723193   0.0504600  )
        21           O   tau(  21) = (   0.4970900   0.2432393   0.0504600  )
        22           O   tau(  22) = (   0.5029100   0.8149208   0.9495400  )
        23           O   tau(  23) = (   0.0029100   0.2858408   0.5504600  )
        24           O   tau(  24) = (   0.9970900   0.7723193   0.4495400  )
        25           O   tau(  25) = (   0.6995400   0.2598841   0.7455900  )
        26           O   tau(  26) = (   0.3004600   0.7982760   0.2544100  )
        27           O   tau(  27) = (   0.8004600   0.2691959   0.2455900  )
        28           O   tau(  28) = (   0.1995400   0.7889641   0.7544100  )
        29           O   tau(  29) = (   0.3004600   0.2598841   0.7544100  )
        30           O   tau(  30) = (   0.6995400   0.7982760   0.2455900  )
        31           O   tau(  31) = (   0.1995400   0.2691959   0.2544100  )
        32           O   tau(  32) = (   0.8004600   0.7889641   0.7455900  )

     number of k points=    64  gaussian smearing, width (Ry)=  0.0007
                       cart. coord. in units 2pi/alat
        k(    1) = (   0.0000000   0.0000000   0.0000000), wk =   0.0092593
        k(    2) = (   0.0000000   0.0000000   0.1666667), wk =   0.0185185
        k(    3) = (   0.0000000   0.0000000   0.3333333), wk =   0.0185185
        k(    4) = (   0.0000000   0.0000000  -0.5000000), wk =   0.0092593
        k(    5) = (   0.0000000   0.1575061   0.0000000), wk =   0.0185185
        k(    6) = (   0.0000000   0.1575061   0.1666667), wk =   0.0370370
        k(    7) = (   0.0000000   0.1575061   0.3333333), wk =   0.0370370
        k(    8) = (   0.0000000   0.1575061  -0.5000000), wk =   0.0185185
        k(    9) = (   0.0000000   0.3150122   0.0000000), wk =   0.0185185
        k(   10) = (   0.0000000   0.3150122   0.1666667), wk =   0.0370370
        k(   11) = (   0.0000000   0.3150122   0.3333333), wk =   0.0370370
        k(   12) = (   0.0000000   0.3150122  -0.5000000), wk =   0.0185185
        k(   13) = (   0.0000000  -0.4725183   0.0000000), wk =   0.0092593
        k(   14) = (   0.0000000  -0.4725183   0.1666667), wk =   0.0185185
        k(   15) = (   0.0000000  -0.4725183   0.3333333), wk =   0.0185185
        k(   16) = (   0.0000000  -0.4725183  -0.5000000), wk =   0.0092593
        k(   17) = (   0.1666667   0.0000000   0.1666667), wk =   0.0370370
        k(   18) = (   0.1666667   0.0000000   0.3333333), wk =   0.0370370
        k(   19) = (   0.1666667   0.0000000  -0.5000000), wk =   0.0185185
        k(   20) = (   0.1666667   0.1575061   0.1666667), wk =   0.0740741
        k(   21) = (   0.1666667   0.1575061   0.3333333), wk =   0.0740741
        k(   22) = (   0.1666667   0.1575061  -0.5000000), wk =   0.0370370
        k(   23) = (   0.1666667   0.3150122   0.1666667), wk =   0.0740741
        k(   24) = (   0.1666667   0.3150122   0.3333333), wk =   0.0740741
        k(   25) = (   0.1666667   0.3150122  -0.5000000), wk =   0.0370370
        k(   26) = (   0.1666667  -0.4725183   0.1666667), wk =   0.0370370
        k(   27) = (   0.1666667  -0.4725183   0.3333333), wk =   0.0370370
        k(   28) = (   0.1666667  -0.4725183  -0.5000000), wk =   0.0185185
        k(   29) = (   0.3333333   0.0000000   0.3333333), wk =   0.0370370
        k(   30) = (   0.3333333   0.0000000  -0.5000000), wk =   0.0185185
        k(   31) = (   0.3333333   0.1575061   0.3333333), wk =   0.0740741
        k(   32) = (   0.3333333   0.1575061  -0.5000000), wk =   0.0370370
        k(   33) = (   0.3333333   0.3150122   0.3333333), wk =   0.0740741
        k(   34) = (   0.3333333   0.3150122  -0.5000000), wk =   0.0370370
        k(   35) = (   0.3333333  -0.4725183   0.3333333), wk =   0.0370370
        k(   36) = (   0.3333333  -0.4725183  -0.5000000), wk =   0.0185185
        k(   37) = (  -0.5000000   0.0000000  -0.5000000), wk =   0.0092593
        k(   38) = (  -0.5000000   0.1575061  -0.5000000), wk =   0.0185185
        k(   39) = (  -0.5000000   0.3150122  -0.5000000), wk =   0.0185185
        k(   40) = (  -0.5000000  -0.4725183  -0.5000000), wk =   0.0092593
        k(   41) = (   0.1666667   0.0000000   0.0000000), wk =   0.0185185
        k(   42) = (   0.3333333   0.0000000   0.0000000), wk =   0.0185185
        k(   43) = (  -0.5000000   0.0000000   0.0000000), wk =   0.0092593
        k(   44) = (   0.1666667  -0.1575061   0.0000000), wk =   0.0370370
        k(   45) = (   0.3333333  -0.1575061   0.0000000), wk =   0.0370370
        k(   46) = (  -0.5000000  -0.1575061   0.0000000), wk =   0.0185185
        k(   47) = (   0.1666667  -0.3150122   0.0000000), wk =   0.0370370
        k(   48) = (   0.3333333  -0.3150122   0.0000000), wk =   0.0370370
        k(   49) = (  -0.5000000  -0.3150122   0.0000000), wk =   0.0185185
        k(   50) = (   0.1666667   0.4725183   0.0000000), wk =   0.0185185
        k(   51) = (   0.3333333   0.4725183   0.0000000), wk =   0.0185185
        k(   52) = (  -0.5000000   0.4725183   0.0000000), wk =   0.0092593
        k(   53) = (   0.3333333   0.0000000   0.1666667), wk =   0.0370370
        k(   54) = (  -0.5000000   0.0000000   0.1666667), wk =   0.0185185
        k(   55) = (   0.3333333  -0.1575061   0.1666667), wk =   0.0740741
        k(   56) = (  -0.5000000  -0.1575061   0.1666667), wk =   0.0370370
        k(   57) = (   0.3333333  -0.3150122   0.1666667), wk =   0.0740741
        k(   58) = (  -0.5000000  -0.3150122   0.1666667), wk =   0.0370370
        k(   59) = (   0.3333333   0.4725183   0.1666667), wk =   0.0370370
        k(   60) = (  -0.5000000   0.4725183   0.1666667), wk =   0.0185185
        k(   61) = (  -0.5000000   0.0000000   0.3333333), wk =   0.0185185
        k(   62) = (  -0.5000000  -0.1575061   0.3333333), wk =   0.0370370
        k(   63) = (  -0.5000000  -0.3150122   0.3333333), wk =   0.0370370
        k(   64) = (  -0.5000000   0.4725183   0.3333333), wk =   0.0185185

     Initial potential from superposition of free atoms

     starting charge  367.99656, renormalised to  368.00000
     Starting wfc are  232 randomized atomic wfcs

     Self-consistent Calculation

     iteration #  1     ecut=   120.00 Ry     beta= 0.70
     Davidson diagonalization with overlap
     ethr =  1.00E-02,  avg # of iterations =  5.1

     total energy              =   -6253.95788549 Ry
     Harris-Foulkes estimate   =   -6264.57198421 Ry
     estimated scf accuracy    <      13.43410158 Ry

[...]

     End of self-consistent calculation

[...]
End final coordinates

     A final scf calculation at the relaxed structure.
     The G-vectors are recalculated for the final unit cell
     Results may differ from those at the preceding step.

     bravais-lattice index     =            0
     lattice parameter (alat)  =      13.8397  a.u.
     unit-cell volume          =    2791.5227 (a.u.)^3
     number of atoms/cell      =           32
     number of atomic types    =            2
     number of electrons       =       368.00
     number of Kohn-Sham states=          221
     kinetic-energy cutoff     =     120.0000  Ry
     charge density cutoff     =     480.0000  Ry
     convergence threshold     =      1.0E-10
     mixing beta               =       0.7000
     number of iterations used =            8  plain     mixing
     Exchange-correlation      = SLA PW NOGX NOGC ( 1  4  0  0 0 0)

     celldm(1)=  13.839685  celldm(2)=   0.000000  celldm(3)=   0.000000
     celldm(4)=   0.000000  celldm(5)=   0.000000  celldm(6)=   0.000000

     crystal axes: (cart. coord. in units of alat)
               a(1) = (   0.999439   0.000000   0.000000 )
               a(2) = (   0.000000   1.051408   0.000000 )
               a(3) = (   0.000000   0.000000   1.002156 )

     reciprocal axes: (cart. coord. in units 2 pi/alat)
               b(1) = (  1.000561  0.000000  0.000000 )
               b(2) = (  0.000000  0.951106  0.000000 )
               b(3) = (  0.000000  0.000000  0.997849 )

     PseudoPot. # 1 for W  read from file:
     /cluster/scratch/mnoe/QE/pps/W_ONCV_LDA-4.0.upf
     MD5 check sum: ba0307d5d4cd419d6f1d13dc49d7c13a
     Pseudo is Norm-conserving + core correction, Zval = 28.0
     Generated using ONCVPSP code by D. R. Hamann
     Using radial grid of 1380 points,  8 beta functions with:
                l(1) =   0
                l(2) =   0
                l(3) =   1
                l(4) =   1
                l(5) =   2
                l(6) =   2
                l(7) =   3
                l(8) =   3

     PseudoPot. # 2 for O  read from file:
     /cluster/scratch/mnoe/QE/pps/O_ONCV_LDA-3.0.upf
     MD5 check sum: a1bd6164e7280c17a38c229939bfbd54
     Pseudo is Norm-conserving + core correction, Zval =  6.0
     Generated using ONCVPSP code by D. R. Hamann
     Using radial grid of  926 points,  5 beta functions with:
                l(1) =   0
                l(2) =   0
                l(3) =   1
                l(4) =   1
                l(5) =   2

     atomic species   valence    mass     pseudopotential
        W             28.00   183.84000     W ( 1.00)
        O              6.00    15.99940     O ( 1.00)

      8 Sym. Ops., with inversion, found ( 6 have fractional translation)

   Cartesian axes

     site n.     atom                  positions (alat units)
         1           W   tau(   1) = (   0.2392257   0.2963497   0.0100717  )
         2           W   tau(   2) = (   0.7602131   0.7550578   0.9920840  )
         3           W   tau(   3) = (   0.2604937   0.2293541   0.5111495  )
         4           W   tau(   4) = (   0.7389451   0.8220535   0.4910062  )
         5           W   tau(   5) = (   0.7602131   0.2963497   0.4910062  )
         6           W   tau(   6) = (   0.2392257   0.7550578   0.5111495  )
         7           W   tau(   7) = (   0.7389451   0.2293541   0.9920840  )
         8           W   tau(   8) = (   0.2604937   0.8220535   0.0100717  )
         9           O   tau(   9) = (   0.2302507   0.0087477   0.0031267  )
        10           O   tau(  10) = (   0.7691881   1.0426599   0.9990289  )
        11           O   tau(  11) = (   0.2694687   0.5169561   0.5042046  )
        12           O   tau(  12) = (   0.7299702   0.5344515   0.4979511  )
        13           O   tau(  13) = (   0.7691881   0.0087477   0.4979511  )
        14           O   tau(  14) = (   0.2302507   1.0426599   0.5042046  )
        15           O   tau(  15) = (   0.7299702   0.5169561   0.9990289  )
        16           O   tau(  16) = (   0.2694687   0.5344515   0.0031267  )
        17           O   tau(  17) = (   0.5026278   0.2416871   0.4505091  )
        18           O   tau(  18) = (   0.4968110   0.8097205   0.5516466  )
        19           O   tau(  19) = (   0.9965304   0.2840167   0.9515869  )
        20           O   tau(  20) = (   0.0029084   0.7673909   0.0505688  )
        21           O   tau(  21) = (   0.4968110   0.2416871   0.0505688  )
        22           O   tau(  22) = (   0.5026278   0.8097205   0.9515869  )
        23           O   tau(  23) = (   0.0029084   0.2840167   0.5516466  )
        24           O   tau(  24) = (   0.9965304   0.7673909   0.4505091  )
        25           O   tau(  25) = (   0.6991475   0.2582257   0.7471972  )
        26           O   tau(  26) = (   0.3002914   0.7931819   0.2549585  )
        27           O   tau(  27) = (   0.8000108   0.2674781   0.2461194  )
        28           O   tau(  28) = (   0.1994280   0.7839295   0.7560363  )
        29           O   tau(  29) = (   0.3002914   0.2582257   0.7560363  )
        30           O   tau(  30) = (   0.6991475   0.7931819   0.2461194  )
        31           O   tau(  31) = (   0.1994280   0.2674781   0.2549585  )
        32           O   tau(  32) = (   0.8000108   0.7839295   0.7471972  )

     number of k points=    64  gaussian smearing, width (Ry)=  0.0007
                       cart. coord. in units 2pi/alat
        k(    1) = (   0.0000000   0.0000000   0.0000000), wk =   0.0092593
        k(    2) = (   0.0000000   0.0000000   0.1663082), wk =   0.0185185
        k(    3) = (   0.0000000   0.0000000   0.3326163), wk =   0.0185185
        k(    4) = (   0.0000000   0.0000000  -0.4989245), wk =   0.0092593
        k(    5) = (   0.0000000   0.1585177   0.0000000), wk =   0.0185185
        k(    6) = (   0.0000000   0.1585177   0.1663082), wk =   0.0370370
        k(    7) = (   0.0000000   0.1585177   0.3326163), wk =   0.0370370
        k(    8) = (   0.0000000   0.1585177  -0.4989245), wk =   0.0185185
        k(    9) = (   0.0000000   0.3170353   0.0000000), wk =   0.0185185
        k(   10) = (   0.0000000   0.3170353   0.1663082), wk =   0.0370370
        k(   11) = (   0.0000000   0.3170353   0.3326163), wk =   0.0370370
        k(   12) = (   0.0000000   0.3170353  -0.4989245), wk =   0.0185185
        k(   13) = (   0.0000000  -0.4755530   0.0000000), wk =   0.0092593
        k(   14) = (   0.0000000  -0.4755530   0.1663082), wk =   0.0185185
        k(   15) = (   0.0000000  -0.4755530   0.3326163), wk =   0.0185185
        k(   16) = (   0.0000000  -0.4755530  -0.4989245), wk =   0.0092593
        k(   17) = (   0.1667602   0.0000000   0.1663082), wk =   0.0370370
        k(   18) = (   0.1667602   0.0000000   0.3326163), wk =   0.0370370
        k(   19) = (   0.1667602   0.0000000  -0.4989245), wk =   0.0185185
        k(   20) = (   0.1667602   0.1585177   0.1663082), wk =   0.0740741
        k(   21) = (   0.1667602   0.1585177   0.3326163), wk =   0.0740741
        k(   22) = (   0.1667602   0.1585177  -0.4989245), wk =   0.0370370
        k(   23) = (   0.1667602   0.3170353   0.1663082), wk =   0.0740741
        k(   24) = (   0.1667602   0.3170353   0.3326163), wk =   0.0740741
        k(   25) = (   0.1667602   0.3170353  -0.4989245), wk =   0.0370370
        k(   26) = (   0.1667602  -0.4755530   0.1663082), wk =   0.0370370
        k(   27) = (   0.1667602  -0.4755530   0.3326163), wk =   0.0370370
        k(   28) = (   0.1667602  -0.4755530  -0.4989245), wk =   0.0185185
        k(   29) = (   0.3335205   0.0000000   0.3326163), wk =   0.0370370
        k(   30) = (   0.3335205   0.0000000  -0.4989245), wk =   0.0185185
        k(   31) = (   0.3335205   0.1585177   0.3326163), wk =   0.0740741
        k(   32) = (   0.3335205   0.1585177  -0.4989245), wk =   0.0370370
        k(   33) = (   0.3335205   0.3170353   0.3326163), wk =   0.0740741
        k(   34) = (   0.3335205   0.3170353  -0.4989245), wk =   0.0370370
        k(   35) = (   0.3335205  -0.4755530   0.3326163), wk =   0.0370370
        k(   36) = (   0.3335205  -0.4755530  -0.4989245), wk =   0.0185185
        k(   37) = (  -0.5002807   0.0000000  -0.4989245), wk =   0.0092593
        k(   38) = (  -0.5002807   0.1585177  -0.4989245), wk =   0.0185185
        k(   39) = (  -0.5002807   0.3170353  -0.4989245), wk =   0.0185185
        k(   40) = (  -0.5002807  -0.4755530  -0.4989245), wk =   0.0092593
        k(   41) = (   0.1667602   0.0000000   0.0000000), wk =   0.0185185
        k(   42) = (   0.3335205   0.0000000   0.0000000), wk =   0.0185185
        k(   43) = (  -0.5002807   0.0000000   0.0000000), wk =   0.0092593
        k(   44) = (   0.1667602  -0.1585177   0.0000000), wk =   0.0370370
        k(   45) = (   0.3335205  -0.1585177   0.0000000), wk =   0.0370370
        k(   46) = (  -0.5002807  -0.1585177   0.0000000), wk =   0.0185185
        k(   47) = (   0.1667602  -0.3170353   0.0000000), wk =   0.0370370
        k(   48) = (   0.3335205  -0.3170353   0.0000000), wk =   0.0370370
        k(   49) = (  -0.5002807  -0.3170353   0.0000000), wk =   0.0185185
        k(   50) = (   0.1667602   0.4755530   0.0000000), wk =   0.0185185
        k(   51) = (   0.3335205   0.4755530   0.0000000), wk =   0.0185185
        k(   52) = (  -0.5002807   0.4755530   0.0000000), wk =   0.0092593
        k(   53) = (   0.3335205   0.0000000   0.1663082), wk =   0.0370370
        k(   54) = (  -0.5002807   0.0000000   0.1663082), wk =   0.0185185
        k(   55) = (   0.3335205  -0.1585177   0.1663082), wk =   0.0740741
        k(   56) = (  -0.5002807  -0.1585177   0.1663082), wk =   0.0370370
        k(   57) = (   0.3335205  -0.3170353   0.1663082), wk =   0.0740741
        k(   58) = (  -0.5002807  -0.3170353   0.1663082), wk =   0.0370370
        k(   59) = (   0.3335205   0.4755530   0.1663082), wk =   0.0370370
        k(   60) = (  -0.5002807   0.4755530   0.1663082), wk =   0.0185185
        k(   61) = (  -0.5002807   0.0000000   0.3326163), wk =   0.0185185
        k(   62) = (  -0.5002807  -0.1585177   0.3326163), wk =   0.0370370
        k(   63) = (  -0.5002807  -0.3170353   0.3326163), wk =   0.0370370
        k(   64) = (  -0.5002807   0.4755530   0.3326163), wk =   0.0185185

     Initial potential from superposition of free atoms

     starting charge  367.99656, renormalised to  368.00000
     Starting wfc are  232 randomized atomic wfcs

     Writing output data file Landau_23.save

     Self-consistent Calculation

[...]

     total energy              =   -6261.11197737 Ry
     Harris-Foulkes estimate   =   -6261.11197737 Ry
     estimated scf accuracy    <          1.1E-09 Ry

     iteration # 14     ecut=   120.00 Ry     beta= 0.70
     Davidson diagonalization with overlap
     ethr =  2.89E-13,  avg # of iterations =  2.3

     End of self-consistent calculation

[...]

          k = 0.3335 0.4756 0.1663 ( 61978 PWs)   bands (ev):

[...]

          k =-0.5003 0.4756 0.3326 ( 61888 PWs)   bands (ev):

   -66.0767 -66.0767 -66.0767 -66.0767 -66.0762 -66.0762 -66.0762 -66.0762
   -30.4432 -30.4432 -30.4425 -30.4425 -30.4390 -30.4390 -30.4381 -30.4381
   -30.4053 -30.4053 -30.4050 -30.4050 -30.3762 -30.3762 -30.3757 -30.3757
   -30.3716 -30.3716 -30.3704 -30.3704 -30.3536 -30.3536 -30.3532 -30.3532
   -20.2377 -20.2377 -20.2377 -20.2377 -20.2375 -20.2375 -20.2375 -20.2375
   -20.2172 -20.2172 -20.2172 -20.2172 -20.2168 -20.2168 -20.2168 -20.2168
   -20.2135 -20.2135 -20.2134 -20.2134 -20.2132 -20.2132 -20.2132 -20.2132
   -20.2108 -20.2108 -20.2107 -20.2107 -20.2106 -20.2106 -20.2105 -20.2105
   -20.2014 -20.2014 -20.2014 -20.2014 -20.2000 -20.1999 -20.1999 -20.1999
   -20.1999 -20.1998 -20.1998 -20.1998 -20.1979 -20.1979 -20.1979 -20.1979
   -20.1912 -20.1912 -20.1912 -20.1912 -20.1904 -20.1904 -20.1904 -20.1903
    -9.1137  -9.1137  -9.1033  -9.1033  -8.7173  -8.7173  -8.6917  -8.6917
    -8.4700  -8.4700  -8.4456  -8.4456  -8.3156  -8.3156  -8.2862  -8.2862
    -8.2499  -8.2499  -8.2278  -8.2277  -8.0416  -8.0416  -8.0409  -8.0409
     2.3401   2.3401   2.3546   2.3546   3.0191   3.0191   3.0773   3.0773
     3.1735   3.1735   3.1905   3.1905   3.2912   3.2912   3.3260   3.3260
     3.5139   3.5139   3.5677   3.5677   3.6766   3.6766   3.7293   3.7293
     3.8788   3.8788   4.0179   4.0179   4.3204   4.3204   4.3401   4.3401
     4.4050   4.4050   4.4756   4.4756   4.5726   4.5726   4.6854   4.6854
     4.7631   4.7631   4.9110   4.9110   5.1233   5.1233   5.1596   5.1596
     7.0407   7.0407   7.1419   7.1419   7.2282   7.2282   7.2538   7.2538
     7.3271   7.3271   7.3805   7.3805   7.4579   7.4579   7.4744   7.4744
     7.5496   7.5497   7.6263   7.6264   7.6640   7.6640   7.7032   7.7032
    11.5672  11.5672  11.5992  11.5992  11.8082  11.8082  11.8994  11.8994
    12.2774  12.2774  12.3170  12.3170  12.3896  12.3896  12.4918  12.4918
    12.6096  12.6096  12.7234  12.7234  13.0325  13.0325  13.1099  13.1099
    16.4944  16.4944  16.5436  16.5436  17.0987  17.0988  17.2074  17.2076
    17.3152  17.3153  17.4219  17.4226  17.4745

     the Fermi energy is     9.0382 ev

!    total energy              =   -6261.11197737 Ry
     Harris-Foulkes estimate   =   -6261.11197737 Ry
     estimated scf accuracy    <          7.2E-11 Ry

     The total energy is the sum of the following terms:

     one-electron contribution =   -4696.51335230 Ry
     hartree contribution      =    2586.13119361 Ry
     xc contribution           =    -965.66432687 Ry
     ewald contribution        =   -3185.06549181 Ry
     smearing contrib. (-TS)   =      -0.00000000 Ry

     convergence has been achieved in  14 iterations

     Forces acting on atoms (cartesian axes, Ry/au):

     atom    1 type  1   force =    -0.00047406   -0.00386970   -0.00035317
     atom    2 type  1   force =     0.00047406    0.00386970    0.00035317
     atom    3 type  1   force =     0.00047406    0.00386970   -0.00035317
     atom    4 type  1   force =    -0.00047406   -0.00386970    0.00035317
     atom    5 type  1   force =     0.00047406   -0.00386970    0.00035317
     atom    6 type  1   force =    -0.00047406    0.00386970   -0.00035317
     atom    7 type  1   force =    -0.00047406    0.00386970    0.00035317
     atom    8 type  1   force =     0.00047406   -0.00386970   -0.00035317
     atom    9 type  2   force =    -0.00046034    0.00216211    0.00046895
     atom   10 type  2   force =     0.00046034   -0.00216211   -0.00046895
     atom   11 type  2   force =     0.00046034   -0.00216211    0.00046895
     atom   12 type  2   force =    -0.00046034    0.00216211   -0.00046895
     atom   13 type  2   force =     0.00046034    0.00216211   -0.00046895
     atom   14 type  2   force =    -0.00046034   -0.00216211    0.00046895
     atom   15 type  2   force =    -0.00046034   -0.00216211   -0.00046895
     atom   16 type  2   force =     0.00046034    0.00216211    0.00046895
     atom   17 type  2   force =    -0.00031499    0.00039483    0.00163204
     atom   18 type  2   force =     0.00031499   -0.00039483   -0.00163204
     atom   19 type  2   force =     0.00031499   -0.00039483    0.00163204
     atom   20 type  2   force =    -0.00031499    0.00039483   -0.00163204
     atom   21 type  2   force =     0.00031499    0.00039483   -0.00163204
     atom   22 type  2   force =    -0.00031499   -0.00039483    0.00163204
     atom   23 type  2   force =    -0.00031499   -0.00039483   -0.00163204
     atom   24 type  2   force =     0.00031499    0.00039483    0.00163204
     atom   25 type  2   force =     0.00013817   -0.00137482   -0.00066498
     atom   26 type  2   force =    -0.00013817    0.00137482    0.00066498
     atom   27 type  2   force =    -0.00013817    0.00137482   -0.00066498
     atom   28 type  2   force =     0.00013817   -0.00137482    0.00066498
     atom   29 type  2   force =    -0.00013817   -0.00137482    0.00066498
     atom   30 type  2   force =     0.00013817    0.00137482   -0.00066498
     atom   31 type  2   force =     0.00013817    0.00137482    0.00066498
     atom   32 type  2   force =    -0.00013817   -0.00137482   -0.00066498

     Total force =     0.000000     Total SCF correction =     0.000000

     Computing stress (Cartesian axis) and pressure

          total   stress  (Ry/bohr**3)                   (kbar)     P=   -0.11
  -0.00000062   0.00000000   0.00000000         -0.09      0.00      0.00
   0.00000000  -0.00000143   0.00000000          0.00     -0.21      0.00
   0.00000000   0.00000000  -0.00000014          0.00      0.00     -0.02

     Writing output data file Landau_23.save

     General routines

     Parallel routines

   This run was terminated on:  20:17: 3  29Apr2019

   JOB DONE.