     Program PWSCF v.6.4.1 starts on 19Nov2019 at 18:23:36

     K-points division:     npool     =      40
     Reading input from rscf.in

     Current dimensions of program PWSCF are:
     Max number of different atomic species (ntypx) = 10
     Max number of k-points (npk) =  40000
     Max angular momentum in pseudopotentials (lmaxx) =  3

     Subspace diagonalization in iterative solution of the eigenvalue problem:
     a serial algorithm will be used

     Message from routine setup:
     using ibrav=0 with symmetry is DISCOURAGED, use correct ibrav instead

     bravais-lattice index     =            0
     lattice parameter (alat)  =       9.7849  a.u.
     unit-cell volume          =    1402.1515 (a.u.)^3
     number of atoms/cell      =           16
     number of atomic types    =            2
     number of electrons       =       184.00
     number of Kohn-Sham states=          110
     kinetic-energy cutoff     =     120.0000  Ry
     charge density cutoff     =     480.0000  Ry
     convergence threshold     =      1.0E-08
     mixing beta               =       0.7000
     number of iterations used =            8  plain     mixing
     Exchange-correlation      = SLA PW NOGX NOGC ( 1  4  0  0 0 0)
     nstep                     =           50

     celldm(1)=   9.784926  celldm(2)=   0.000000  celldm(3)=   0.000000
     celldm(4)=   0.000000  celldm(5)=   0.000000  celldm(6)=   0.000000

     crystal axes: (cart. coord. in units of alat)
               a(1) = (   1.000000   0.000000   0.000000 )
               a(2) = (   0.000000   1.000000   0.000000 )
               a(3) = (   0.000000   0.000000   1.496657 )

     reciprocal axes: (cart. coord. in units 2 pi/alat)
               b(1) = (  1.000000  0.000000  0.000000 )
               b(2) = (  0.000000  1.000000  0.000000 )
               b(3) = (  0.000000  0.000000  0.668156 )

     PseudoPot. # 1 for W  read from file:
     /cluster/scratch/mnoe/QE/pps/W_ONCV_LDA-4.0.upf
     MD5 check sum: ba0307d5d4cd419d6f1d13dc49d7c13a
     Pseudo is Norm-conserving + core correction, Zval = 28.0
     Generated using ONCVPSP code by D. R. Hamann
     Using radial grid of 1380 points,  8 beta functions with:
                l(1) =   0
                l(2) =   0
                l(3) =   1
                l(4) =   1
                l(5) =   2
                l(6) =   2
                l(7) =   3
                l(8) =   3

     PseudoPot. # 2 for O  read from file:
     /cluster/scratch/mnoe/QE/pps/O_ONCV_LDA-3.0.upf
     MD5 check sum: b55cdb4f45ae2203d24ad12cf8d61a31
     Pseudo is Norm-conserving + core correction, Zval =  6.0
     Generated using ONCVPSP code by D. R. Hamann
     Using radial grid of  926 points,  5 beta functions with:
                l(1) =   0
                l(2) =   0
                l(3) =   1
                l(4) =   1
                l(5) =   2

     atomic species   valence    mass     pseudopotential
        W             28.00   183.84000     W ( 1.00)
        O              6.00    15.99940     O ( 1.00)

     16 Sym. Ops., with inversion, found (14 have fractional translation)

   Cartesian axes

     site n.     atom                  positions (alat units)
         1           W   tau(   1) = (   0.2500000   0.2500000   0.3244184  )
         2           W   tau(   2) = (   0.7500000   0.7500000   1.1722387  )
         3           W   tau(   3) = (   0.7500000   0.7500000   0.4239101  )
         4           W   tau(   4) = (   0.2500000   0.2500000   1.0727469  )
         5           O   tau(   5) = (   0.2500000   0.2500000   0.7320152  )
         6           O   tau(   6) = (   0.7500000   0.7500000   0.7646418  )
         7           O   tau(   7) = (   0.7500000   0.7500000   0.0163133  )
         8           O   tau(   8) = (   0.2500000   0.2500000   1.4803437  )
         9           O   tau(   9) = (   0.4564316   0.5435683   0.3741643  )
        10           O   tau(  10) = (   0.5435684   0.4564317   1.1224928  )
        11           O   tau(  11) = (   0.0435684   0.9564317   0.3741643  )
        12           O   tau(  12) = (   0.9564316   0.0435684   1.1224928  )
        13           O   tau(  13) = (   0.9564317   0.4564316   0.3741643  )
        14           O   tau(  14) = (   0.0435684   0.5435684   1.1224928  )
        15           O   tau(  15) = (   0.5435683   0.0435684   0.3741643  )
        16           O   tau(  16) = (   0.4564317   0.9564316   1.1224928  )

     number of k points=    40  gaussian smearing, width (Ry)=  0.0007
                       cart. coord. in units 2pi/alat
        k(    1) = (   0.0000000   0.0000000   0.0000000), wk =   0.0092593
        k(    2) = (   0.0000000   0.0000000   0.1113593), wk =   0.0185185
        k(    3) = (   0.0000000   0.0000000   0.2227186), wk =   0.0185185
        k(    4) = (   0.0000000   0.0000000  -0.3340779), wk =   0.0092593
        k(    5) = (   0.0000000   0.1666667   0.0000000), wk =   0.0370370
        k(    6) = (   0.0000000   0.1666667   0.1113593), wk =   0.0740741
        k(    7) = (   0.0000000   0.1666667   0.2227186), wk =   0.0740741
        k(    8) = (   0.0000000   0.1666667  -0.3340779), wk =   0.0370370
        k(    9) = (   0.0000000   0.3333333   0.0000000), wk =   0.0370370
        k(   10) = (   0.0000000   0.3333333   0.1113593), wk =   0.0740741
        k(   11) = (   0.0000000   0.3333333   0.2227186), wk =   0.0740741
        k(   12) = (   0.0000000   0.3333333  -0.3340779), wk =   0.0370370
        k(   13) = (   0.0000000  -0.5000000   0.0000000), wk =   0.0185185
        k(   14) = (   0.0000000  -0.5000000   0.1113593), wk =   0.0370370
        k(   15) = (   0.0000000  -0.5000000   0.2227186), wk =   0.0370370
        k(   16) = (   0.0000000  -0.5000000  -0.3340779), wk =   0.0185185
        k(   17) = (   0.1666667   0.1666667   0.0000000), wk =   0.0370370
        k(   18) = (   0.1666667   0.1666667   0.1113593), wk =   0.0740741
        k(   19) = (   0.1666667   0.1666667   0.2227186), wk =   0.0740741
        k(   20) = (   0.1666667   0.1666667  -0.3340779), wk =   0.0370370
        k(   21) = (   0.1666667   0.3333333   0.0000000), wk =   0.0740741
        k(   22) = (   0.1666667   0.3333333   0.1113593), wk =   0.1481481
        k(   23) = (   0.1666667   0.3333333   0.2227186), wk =   0.1481481
        k(   24) = (   0.1666667   0.3333333  -0.3340779), wk =   0.0740741
        k(   25) = (   0.1666667  -0.5000000   0.0000000), wk =   0.0370370
        k(   26) = (   0.1666667  -0.5000000   0.1113593), wk =   0.0740741
        k(   27) = (   0.1666667  -0.5000000   0.2227186), wk =   0.0740741
        k(   28) = (   0.1666667  -0.5000000  -0.3340779), wk =   0.0370370
        k(   29) = (   0.3333333   0.3333333   0.0000000), wk =   0.0370370
        k(   30) = (   0.3333333   0.3333333   0.1113593), wk =   0.0740741
        k(   31) = (   0.3333333   0.3333333   0.2227186), wk =   0.0740741
        k(   32) = (   0.3333333   0.3333333  -0.3340779), wk =   0.0370370
        k(   33) = (   0.3333333  -0.5000000   0.0000000), wk =   0.0370370
        k(   34) = (   0.3333333  -0.5000000   0.1113593), wk =   0.0740741
        k(   35) = (   0.3333333  -0.5000000   0.2227186), wk =   0.0740741
        k(   36) = (   0.3333333  -0.5000000  -0.3340779), wk =   0.0370370
        k(   37) = (  -0.5000000  -0.5000000   0.0000000), wk =   0.0092593
        k(   38) = (  -0.5000000  -0.5000000   0.1113593), wk =   0.0185185
        k(   39) = (  -0.5000000  -0.5000000   0.2227186), wk =   0.0185185
        k(   40) = (  -0.5000000  -0.5000000  -0.3340779), wk =   0.0092593

     Initial potential from superposition of free atoms

     starting charge  183.99828, renormalised to  184.00000
     Starting wfcs are  116 randomized atomic wfcs

     Self-consistent Calculation

     iteration #  1     ecut=   120.00 Ry     beta= 0.70
     Davidson diagonalization with overlap
     ethr =  1.00E-02,  avg # of iterations =  4.1

     total energy              =   -3126.99805384 Ry
     Harris-Foulkes estimate   =   -3132.29330119 Ry
     estimated scf accuracy    <       6.70893258 Ry

[...]

     End of self-consistent calculation

          k = 0.0000 0.0000 0.0000 ( 31095 PWs)   bands (ev):

   -66.1597 -66.1593 -66.1578 -66.1574 -30.5349 -30.5286 -30.5195 -30.5195
   -30.5162 -30.5162 -30.4757 -30.4706 -30.4232 -30.4232 -30.4206 -30.4206
   -20.3156 -20.3156 -20.3155 -20.3154 -20.2957 -20.2953 -20.2933 -20.2933
   -20.2930 -20.2930 -20.2923 -20.2923 -20.2921 -20.2921 -20.2901 -20.2896
   -20.2844 -20.2844 -20.2834 -20.2834 -20.2829 -20.2828 -20.2822 -20.2821
   -20.2774 -20.2774 -20.2766 -20.2766  -9.9855  -9.7220  -9.0999  -9.0861
    -9.0306  -8.8418  -7.8059  -7.6918  -7.6580  -7.6580  -7.6371  -7.6371
     1.0771   1.0774   1.3419   1.5381   1.6611   1.7887   2.3420   2.4202
     2.6852   2.6852   4.1033   4.1033   5.0394   5.0394   5.0425   5.5600
     5.5600   5.5610   5.5610   5.8517   5.8517   5.9328   6.0107   6.8008
     6.8008   6.8586   7.0243   7.0582   7.3240   7.3240   7.3608   7.3608
     7.9285   7.9397   8.1213   8.1213   9.1677   9.1736   9.9688   9.9688
    12.3226  12.3226  13.0987  13.0991  13.4602  13.4602  13.7487  14.2150
    14.2150  14.8751  15.3408  15.3505  15.4780  16.8368

[...]

          k =-0.5000-0.5000 0.0000 ( 31144 PWs)   bands (ev):

[...]

     the Fermi energy is     9.0869 ev

!    total energy              =   -3130.55201689 Ry
     Harris-Foulkes estimate   =   -3130.55201689 Ry
     estimated scf accuracy    <          9.1E-10 Ry

     The total energy is the sum of the following terms:

     one-electron contribution =   -2367.93282708 Ry
     hartree contribution      =    1302.39026571 Ry
     xc contribution           =    -482.92583625 Ry
     ewald contribution        =   -1582.08361929 Ry
     smearing contrib. (-TS)   =      -0.00000000 Ry

     convergence has been achieved in  12 iterations

     Forces acting on atoms (cartesian axes, Ry/au):

     atom    1 type  1   force =     0.00000000    0.00000000   -0.01237235
     atom    2 type  1   force =     0.00000000    0.00000000    0.01237235
     atom    3 type  1   force =     0.00000000    0.00000000    0.01237235
     atom    4 type  1   force =     0.00000000    0.00000000   -0.01237235
     atom    5 type  2   force =     0.00000000    0.00000000    0.01625409
     atom    6 type  2   force =     0.00000000    0.00000000   -0.01625409
     atom    7 type  2   force =     0.00000000    0.00000000   -0.01625409
     atom    8 type  2   force =     0.00000000    0.00000000    0.01625409
     atom    9 type  2   force =    -0.00311230    0.00311230    0.00000000
     atom   10 type  2   force =     0.00311230   -0.00311230    0.00000000
     atom   11 type  2   force =     0.00311230   -0.00311230    0.00000000
     atom   12 type  2   force =    -0.00311230    0.00311230    0.00000000
     atom   13 type  2   force =    -0.00311230   -0.00311230    0.00000000
     atom   14 type  2   force =     0.00311230    0.00311230    0.00000000
     atom   15 type  2   force =     0.00311230    0.00311230    0.00000000
[...]

     new trust radius        =       0.0362693638 bohr
     new conv_thr            =       0.0000000100 Ry

     new unit-cell volume =   1413.06864 a.u.^3 (   209.39517 Ang^3 )
     density =      7.35406 g/cm^3

CELL_PARAMETERS (angstrom)
   5.203036664   0.000000000   0.000000000
   0.000000000   5.203036664   0.000000000
   0.000000000   0.000000000   7.734867518

ATOMIC_POSITIONS (crystal)
W        0.250000000   0.250000000   0.216762006    0   0   0
W        0.750000023   0.750000023   0.783238009    0   0   0
W        0.750000023   0.750000023   0.283238009    0   0   0
W        0.250000000   0.250000000   0.716761991    0   0   0
O        0.250000000   0.250000000   0.489100158    0   0   0
O        0.750000023   0.750000023   0.510899842    0   0   0
O        0.750000023   0.750000023   0.010899855    0   0   0
O        0.250000000   0.250000000   0.989100158    0   0   0
O        0.456431629   0.543568325   0.250000000    0   0   0
O        0.543568371   0.456431675   0.750000000    0   0   0
O        0.043568354   0.956431675   0.250000000    0   0   0
O        0.956431583   0.043568388   0.750000000    0   0   0
O        0.956431675   0.456431629   0.250000000    0   0   0
O        0.043568388   0.543568371   0.750000000    0   0   0
O        0.543568325   0.043568354   0.250000000    0   0   0
O        0.456431675   0.956431583   0.750000000    0   0   0

     Writing output data file Landau_4.save/
     NEW-OLD atomic charge density approx. for the potential
     extrapolated charge  185.42154, renormalised to  184.00000

[...]

     enthalpy old            =   -3130.5520168937 Ry
     enthalpy new            =   -3130.5531892389 Ry

     CASE: enthalpy_new < enthalpy_old

[...]

     Threshold (ethr) on eigenvalues was too large:
     Diagonalizing with lowered threshold

     Davidson diagonalization with overlap
     ethr =  8.04E-08,  avg # of iterations =  2.3

[...]

     number of scf cycles    =   4
     number of bfgs steps    =   3

     enthalpy old            =   -3130.5532442975 Ry
     enthalpy new            =   -3130.5532454391 Ry

     CASE: enthalpy_new < enthalpy_old

     small trust_radius: resetting bfgs history

     new trust radius        =       0.0000978402 bohr
     new conv_thr            =            1.0E-10 Ry

     new unit-cell volume =   1410.13351 a.u.^3 (   208.96023 Ang^3 )
     density =      7.36937 g/cm^3

[...]

ATOMIC_POSITIONS (crystal)
W        0.250000000   0.250000000   0.216762006    0   0   0
W        0.750000023   0.750000023   0.783238009    0   0   0
W        0.750000023   0.750000023   0.283238009    0   0   0
W        0.250000000   0.250000000   0.716761991    0   0   0
O        0.250000000   0.250000000   0.489100158    0   0   0
O        0.750000023   0.750000023   0.510899842    0   0   0
O        0.750000023   0.750000023   0.010899855    0   0   0
O        0.250000000   0.250000000   0.989100158    0   0   0
O        0.456431629   0.543568325   0.250000000    0   0   0
O        0.543568371   0.456431675   0.750000000    0   0   0
O        0.043568354   0.956431675   0.250000000    0   0   0
O        0.956431583   0.043568388   0.750000000    0   0   0
O        0.956431675   0.456431629   0.250000000    0   0   0
O        0.043568388   0.543568371   0.750000000    0   0   0
O        0.543568325   0.043568354   0.250000000    0   0   0
O        0.456431675   0.956431583   0.750000000    0   0   0

     Writing output data file Landau_4.save/
     NEW-OLD atomic charge density approx. for the potential
     extrapolated charge  184.00343, renormalised to  184.00000

[...]

     Threshold (ethr) on eigenvalues was too large:
     Diagonalizing with lowered threshold

     Davidson diagonalization with overlap
     ethr =  6.73E-10,  avg # of iterations =  2.9

[...]

     bfgs converged in   5 scf cycles and   4 bfgs steps
     (criteria: energy <  1.0E-07 Ry, force <  1.0E-07Ry/Bohr, cell <  5.0E-01kbar)

     End of BFGS Geometry Optimization

     Final enthalpy =   -3130.5532454464 Ry
Begin final coordinates
     new unit-cell volume =   1410.13351 a.u.^3 (   208.96023 Ang^3 )
     density =      7.36937 g/cm^3

CELL_PARAMETERS (angstrom)
   5.199033792   0.000000000   0.000000000
   0.000000000   5.199033792   0.000000000
   0.000000000   0.000000000   7.730691579

ATOMIC_POSITIONS (crystal)
W        0.250000000   0.250000000   0.216762006    0   0   0
W        0.750000023   0.750000023   0.783238009    0   0   0
W        0.750000023   0.750000023   0.283238009    0   0   0
W        0.250000000   0.250000000   0.716761991    0   0   0
O        0.250000000   0.250000000   0.489100158    0   0   0
O        0.750000023   0.750000023   0.510899842    0   0   0
O        0.750000023   0.750000023   0.010899855    0   0   0
O        0.250000000   0.250000000   0.989100158    0   0   0
O        0.456431629   0.543568325   0.250000000    0   0   0
O        0.543568371   0.456431675   0.750000000    0   0   0
O        0.043568354   0.956431675   0.250000000    0   0   0
O        0.956431583   0.043568388   0.750000000    0   0   0
O        0.956431675   0.456431629   0.250000000    0   0   0
O        0.043568388   0.543568371   0.750000000    0   0   0
O        0.543568325   0.043568354   0.250000000    0   0   0
O        0.456431675   0.956431583   0.750000000    0   0   0
End final coordinates

     Writing output data file Landau_4.save/

     Final scf calculation at the relaxed structure.
     The G-vectors are recalculated for the final unit cell
     Results may differ from those at the preceding step.

     bravais-lattice index     =            0
     lattice parameter (alat)  =       9.7849  a.u.
     unit-cell volume          =    1410.1335 (a.u.)^3
     number of atoms/cell      =           16
     number of atomic types    =            2
     number of electrons       =       184.00
     number of Kohn-Sham states=          110
     kinetic-energy cutoff     =     120.0000  Ry
     charge density cutoff     =     480.0000  Ry
     convergence threshold     =      1.0E-10
     mixing beta               =       0.7000
     number of iterations used =            8  plain     mixing
     Exchange-correlation      = SLA PW NOGX NOGC ( 1  4  0  0 0 0)

     celldm(1)=   9.784926  celldm(2)=   0.000000  celldm(3)=   0.000000
     celldm(4)=   0.000000  celldm(5)=   0.000000  celldm(6)=   0.000000

     crystal axes: (cart. coord. in units of alat)
               a(1) = (   1.004070   0.000000   0.000000 )
               a(2) = (   0.000000   1.004070   0.000000 )
               a(3) = (   0.000000   0.000000   1.493000 )

     reciprocal axes: (cart. coord. in units 2 pi/alat)
               b(1) = (  0.995947  0.000000  0.000000 )
               b(2) = (  0.000000  0.995947  0.000000 )
               b(3) = (  0.000000  0.000000  0.669793 )

     PseudoPot. # 1 for W  read from file:
     /cluster/scratch/mnoe/QE/pps/W_ONCV_LDA-4.0.upf
     MD5 check sum: ba0307d5d4cd419d6f1d13dc49d7c13a
     Pseudo is Norm-conserving + core correction, Zval = 28.0
     Generated using ONCVPSP code by D. R. Hamann
     Using radial grid of 1380 points,  8 beta functions with:
                l(1) =   0
                l(2) =   0
                l(3) =   1
                l(4) =   1
                l(5) =   2
                l(6) =   2
                l(7) =   3
                l(8) =   3

     PseudoPot. # 2 for O  read from file:
     /cluster/scratch/mnoe/QE/pps/O_ONCV_LDA-3.0.upf
     MD5 check sum: b55cdb4f45ae2203d24ad12cf8d61a31
     Pseudo is Norm-conserving + core correction, Zval =  6.0
     Generated using ONCVPSP code by D. R. Hamann
     Using radial grid of  926 points,  5 beta functions with:
                l(1) =   0
                l(2) =   0
                l(3) =   1
                l(4) =   1
                l(5) =   2

     atomic species   valence    mass     pseudopotential
        W             28.00   183.84000     W ( 1.00)
        O              6.00    15.99940     O ( 1.00)

     16 Sym. Ops., with inversion, found (14 have fractional translation)

   Cartesian axes

     site n.     atom                  positions (alat units)
         1           W   tau(   1) = (   0.2510175   0.2510175   0.3236256  )
         2           W   tau(   2) = (   0.7530525   0.7530525   1.1693740  )
         3           W   tau(   3) = (   0.7530525   0.7530525   0.4228742  )
         4           W   tau(   4) = (   0.2510175   0.2510175   1.0701253  )
         5           O   tau(   5) = (   0.2510175   0.2510175   0.7302263  )
         6           O   tau(   6) = (   0.7530525   0.7530525   0.7627732  )
         7           O   tau(   7) = (   0.7530525   0.7530525   0.0162735  )
         8           O   tau(   8) = (   0.2510175   0.2510175   1.4767260  )
         9           O   tau(   9) = (   0.4582893   0.5457806   0.3732499  )
        10           O   tau(  10) = (   0.5457806   0.4582893   1.1197496  )
        11           O   tau(  11) = (   0.0437457   0.9603243   0.3732499  )
        12           O   tau(  12) = (   0.9603242   0.0437457   1.1197496  )
        13           O   tau(  13) = (   0.9603243   0.4582893   0.3732499  )
        14           O   tau(  14) = (   0.0437457   0.5457806   1.1197496  )
        15           O   tau(  15) = (   0.5457806   0.0437457   0.3732499  )
        16           O   tau(  16) = (   0.4582893   0.9603242   1.1197496  )

     number of k points=    40  gaussian smearing, width (Ry)=  0.0007
                       cart. coord. in units 2pi/alat
        k(    1) = (   0.0000000   0.0000000   0.0000000), wk =   0.0092593
        k(    2) = (   0.0000000   0.0000000   0.1116321), wk =   0.0185185
        k(    3) = (   0.0000000   0.0000000   0.2232642), wk =   0.0185185
        k(    4) = (   0.0000000   0.0000000  -0.3348963), wk =   0.0092593
        k(    5) = (   0.0000000   0.1659911   0.0000000), wk =   0.0370370
        k(    6) = (   0.0000000   0.1659911   0.1116321), wk =   0.0740741
        k(    7) = (   0.0000000   0.1659911   0.2232642), wk =   0.0740741
        k(    8) = (   0.0000000   0.1659911  -0.3348963), wk =   0.0370370
        k(    9) = (   0.0000000   0.3319822   0.0000000), wk =   0.0370370
        k(   10) = (   0.0000000   0.3319822   0.1116321), wk =   0.0740741
        k(   11) = (   0.0000000   0.3319822   0.2232642), wk =   0.0740741
        k(   12) = (   0.0000000   0.3319822  -0.3348963), wk =   0.0370370
        k(   13) = (   0.0000000  -0.4979733   0.0000000), wk =   0.0185185
        k(   14) = (   0.0000000  -0.4979733   0.1116321), wk =   0.0370370
        k(   15) = (   0.0000000  -0.4979733   0.2232642), wk =   0.0370370
        k(   16) = (   0.0000000  -0.4979733  -0.3348963), wk =   0.0185185
        k(   17) = (   0.1659911   0.1659911   0.0000000), wk =   0.0370370
        k(   18) = (   0.1659911   0.1659911   0.1116321), wk =   0.0740741
        k(   19) = (   0.1659911   0.1659911   0.2232642), wk =   0.0740741
        k(   20) = (   0.1659911   0.1659911  -0.3348963), wk =   0.0370370
        k(   21) = (   0.1659911   0.3319822   0.0000000), wk =   0.0740741
        k(   22) = (   0.1659911   0.3319822   0.1116321), wk =   0.1481481
        k(   23) = (   0.1659911   0.3319822   0.2232642), wk =   0.1481481
        k(   24) = (   0.1659911   0.3319822  -0.3348963), wk =   0.0740741
        k(   25) = (   0.1659911  -0.4979733   0.0000000), wk =   0.0370370
        k(   26) = (   0.1659911  -0.4979733   0.1116321), wk =   0.0740741
        k(   27) = (   0.1659911  -0.4979733   0.2232642), wk =   0.0740741
        k(   28) = (   0.1659911  -0.4979733  -0.3348963), wk =   0.0370370
        k(   29) = (   0.3319822   0.3319822   0.0000000), wk =   0.0370370
        k(   30) = (   0.3319822   0.3319822   0.1116321), wk =   0.0740741
        k(   31) = (   0.3319822   0.3319822   0.2232642), wk =   0.0740741
        k(   32) = (   0.3319822   0.3319822  -0.3348963), wk =   0.0370370
        k(   33) = (   0.3319822  -0.4979733   0.0000000), wk =   0.0370370
        k(   34) = (   0.3319822  -0.4979733   0.1116321), wk =   0.0740741
        k(   35) = (   0.3319822  -0.4979733   0.2232642), wk =   0.0740741
        k(   36) = (   0.3319822  -0.4979733  -0.3348963), wk =   0.0370370
        k(   37) = (  -0.4979733  -0.4979733   0.0000000), wk =   0.0092593
        k(   38) = (  -0.4979733  -0.4979733   0.1116321), wk =   0.0185185
        k(   39) = (  -0.4979733  -0.4979733   0.2232642), wk =   0.0185185
        k(   40) = (  -0.4979733  -0.4979733  -0.3348963), wk =   0.0092593

     Initial potential from superposition of free atoms

     starting charge  183.99828, renormalised to  184.00000
     Starting wfcs are  116 randomized atomic wfcs

     Self-consistent Calculation

[...]

     total energy              =   -3130.55328576 Ry
     Harris-Foulkes estimate   =   -3130.55328576 Ry
     estimated scf accuracy    <          1.9E-10 Ry

     iteration # 14     ecut=   120.00 Ry     beta= 0.70
     Davidson diagonalization with overlap
     ethr =  1.06E-13,  avg # of iterations =  2.0

     End of self-consistent calculation

[...]

          k = 0.3320-0.4980-0.3349 ( 31328 PWs)   bands (ev):

[...]

          k =-0.4980-0.4980-0.3349 ( 31360 PWs)   bands (ev):

   -66.2681 -66.2680 -66.2680 -66.2680 -30.6201 -30.6201 -30.6200 -30.6200
   -30.6114 -30.6114 -30.6114 -30.6114 -30.5110 -30.5110 -30.5110 -30.5110
   -20.4303 -20.4303 -20.4303 -20.4303 -20.4096 -20.4096 -20.4095 -20.4095
   -20.4075 -20.4075 -20.4075 -20.4074 -20.4064 -20.4064 -20.4064 -20.4064
   -20.3980 -20.3980 -20.3980 -20.3980 -20.3974 -20.3974 -20.3974 -20.3974
   -20.3912 -20.3912 -20.3912 -20.3912  -9.4161  -9.4161  -9.4161  -9.4161
    -8.5259  -8.5258  -8.5258  -8.5258  -7.8401  -7.8401  -7.8401  -7.8401
     1.1884   1.1884   1.1884   1.1884   3.1051   3.1051   3.1051   3.1051
     3.3602   3.3602   3.3602   3.3602   4.7256   4.7256   4.7256   4.7256
     5.2438   5.2438   5.2439   5.2439   5.9423   5.9423   5.9423   5.9423
     6.0945   6.0945   6.0946   6.0946   6.6616   6.6616   6.6616   6.6616
     7.3980   7.3980   7.3980   7.3980  11.2202  11.2202  11.2202  11.2202
    12.2502  12.2502  12.2502  12.2502  13.5082  13.5082  13.5082  13.5082
    15.4500  15.4500  15.4500  15.4500  18.1973  18.4283

     the Fermi energy is     8.5182 ev

!    total energy              =   -3130.55328576 Ry
     Harris-Foulkes estimate   =   -3130.55328576 Ry
     estimated scf accuracy    <          1.4E-12 Ry

     The total energy is the sum of the following terms:

     one-electron contribution =   -2372.06822166 Ry
     hartree contribution      =    1303.78625062 Ry
     xc contribution           =    -482.83896955 Ry
     ewald contribution        =   -1579.43234518 Ry
     smearing contrib. (-TS)   =      -0.00000000 Ry

     convergence has been achieved in  14 iterations

     Forces acting on atoms (cartesian axes, Ry/au):

     atom    1 type  1   force =     0.00000000    0.00000000   -0.00203586
     atom    2 type  1   force =     0.00000000    0.00000000    0.00203586
     atom    3 type  1   force =     0.00000000    0.00000000    0.00203586
     atom    4 type  1   force =     0.00000000    0.00000000   -0.00203586
     atom    5 type  2   force =     0.00000000    0.00000000    0.01159242
     atom    6 type  2   force =     0.00000000    0.00000000   -0.01159242
     atom    7 type  2   force =     0.00000000    0.00000000   -0.01159242
     atom    8 type  2   force =     0.00000000    0.00000000    0.01159242
     atom    9 type  2   force =    -0.00091034    0.00091034    0.00000000
     atom   10 type  2   force =     0.00091034   -0.00091034    0.00000000
     atom   11 type  2   force =     0.00091034   -0.00091034    0.00000000
     atom   12 type  2   force =    -0.00091034    0.00091034    0.00000000
     atom   13 type  2   force =    -0.00091034   -0.00091034    0.00000000
     atom   14 type  2   force =     0.00091034    0.00091034    0.00000000
     atom   15 type  2   force =     0.00091034    0.00091034    0.00000000
     atom   16 type  2   force =    -0.00091034   -0.00091034    0.00000000

     Total force =     0.000000     Total SCF correction =     0.000000

     Computing stress (Cartesian axis) and pressure

          total   stress  (Ry/bohr**3)                   (kbar)     P=    0.11
   0.00000121   0.00000000   0.00000000          0.18      0.00      0.00
   0.00000000   0.00000121   0.00000000          0.00      0.18      0.00
   0.00000000   0.00000000  -0.00000010          0.00      0.00     -0.02

     Writing output data file Landau_4.save/

     General routines

     Parallel routines

   This run was terminated on:  18:45:52  19Nov2019

   JOB DONE.