     Program PWSCF v.6.2 (svn rev. 14038) starts on 19Mar2020 at 19:24: 3

     K-points division:     npool     =      40
     Reading input from rscf.in

     Current dimensions of program PWSCF are:
     Max number of different atomic species (ntypx) = 10
     Max number of k-points (npk) =  40000
     Max angular momentum in pseudopotentials (lmaxx) =  3

     Subspace diagonalization in iterative solution of the eigenvalue problem:
     a serial algorithm will be used

     bravais-lattice index     =            0
     lattice parameter (alat)  =      13.8397  a.u.
     unit-cell volume          =    2804.9816 (a.u.)^3
     number of atoms/cell      =           32
     number of atomic types    =            2
     number of electrons       =       368.00
     number of Kohn-Sham states=          221
     kinetic-energy cutoff     =     120.0000  Ry
     charge density cutoff     =     480.0000  Ry
     convergence threshold     =      1.0E-08
     mixing beta               =       0.7000
     number of iterations used =            8  plain     mixing
     Exchange-correlation      = SLA PW NOGX NOGC ( 1  4  0  0 0 0)
     nstep                     =           50

     celldm(1)=  13.839685  celldm(2)=   0.000000  celldm(3)=   0.000000
     celldm(4)=   0.000000  celldm(5)=   0.000000  celldm(6)=   0.000000

     crystal axes: (cart. coord. in units of alat)
               a(1) = (   1.000000   0.000000   0.000000 )
               a(2) = (   0.000000   1.058160   0.000000 )
               a(3) = (   0.000000   0.000000   1.000000 )

     reciprocal axes: (cart. coord. in units 2 pi/alat)
               b(1) = (  1.000000  0.000000  0.000000 )
               b(2) = (  0.000000  0.945037  0.000000 )
               b(3) = (  0.000000  0.000000  1.000000 )

     PseudoPot. # 1 for W  read from file:
     /cluster/scratch/mnoe/QE/pps/W_ONCV_LDA-4.0.upf
     MD5 check sum: ba0307d5d4cd419d6f1d13dc49d7c13a
     Pseudo is Norm-conserving + core correction, Zval = 28.0
     Generated using ONCVPSP code by D. R. Hamann
     Using radial grid of 1380 points,  8 beta functions with:
                l(1) =   0
                l(2) =   0
                l(3) =   1
                l(4) =   1
                l(5) =   2
                l(6) =   2
                l(7) =   3
                l(8) =   3

     PseudoPot. # 2 for O  read from file:
     /cluster/scratch/mnoe/QE/pps/O_ONCV_LDA-3.0.upf
     MD5 check sum: a1bd6164e7280c17a38c229939bfbd54
     Pseudo is Norm-conserving + core correction, Zval =  6.0
     Generated using ONCVPSP code by D. R. Hamann
     Using radial grid of  926 points,  5 beta functions with:
                l(1) =   0
                l(2) =   0
                l(3) =   1
                l(4) =   1
                l(5) =   2

     atomic species   valence    mass     pseudopotential
        W             28.00   183.84000     W ( 1.00)
        O              6.00    15.99940     O ( 1.00)

      8 Sym. Ops., with inversion, found ( 6 have fractional translation)

   Cartesian axes

     site n.     atom                  positions (alat units)
         1           W   tau(   1) = (   0.2497690   0.2974219   0.0002181  )
         2           W   tau(   2) = (   0.7502310   0.7607382  -0.0002181  )
         3           W   tau(   3) = (   0.2502310   0.2316581   0.5002181  )
         4           W   tau(   4) = (   0.7497690   0.8265019   0.4997819  )
         5           W   tau(   5) = (   0.7502310   0.2974219   0.4997819  )
         6           W   tau(   6) = (   0.2497690   0.7607382   0.5002181  )
         7           W   tau(   7) = (   0.7497690   0.2316581  -0.0002181  )
         8           W   tau(   8) = (   0.2502310   0.8265019   0.0002181  )
         9           O   tau(   9) = (   0.2495739   0.0085775   0.0000678  )
        10           O   tau(  10) = (   0.7504261  -0.0085775  -0.0000678  )
        11           O   tau(  11) = (   0.2504261   0.5205026   0.5000678  )
        12           O   tau(  12) = (   0.7495739   0.5376575   0.4999322  )
        13           O   tau(  13) = (   0.7504261   0.0085775   0.4999322  )
        14           O   tau(  14) = (   0.2495739  -0.0085775   0.5000678  )
        15           O   tau(  15) = (   0.7495739   0.5205026  -0.0000678  )
        16           O   tau(  16) = (   0.2504261   0.5376575   0.0000678  )
        17           O   tau(  17) = (   0.5000632   0.2640775   0.4514605  )
        18           O   tau(  18) = (   0.4999368   0.7940826   0.5485395  )
        19           O   tau(  19) = (  -0.0000632   0.2650026   0.9514605  )
        20           O   tau(  20) = (   0.0000632   0.7931575   0.0485395  )
        21           O   tau(  21) = (   0.4999368   0.2640775   0.0485395  )
        22           O   tau(  22) = (   0.5000632   0.7940826   0.9514605  )
        23           O   tau(  23) = (   0.0000632   0.2650026   0.5485395  )
        24           O   tau(  24) = (  -0.0000632   0.7931575   0.4514605  )
        25           O   tau(  25) = (   0.7014605   0.2644391   0.7499042  )
        26           O   tau(  26) = (   0.2985395   0.7937210   0.2500958  )
        27           O   tau(  27) = (   0.7985395   0.2646410   0.2499042  )
        28           O   tau(  28) = (   0.2014605   0.7935191   0.7500958  )
        29           O   tau(  29) = (   0.2985395   0.2644391   0.7500958  )
        30           O   tau(  30) = (   0.7014605   0.7937210   0.2499042  )
        31           O   tau(  31) = (   0.2014605   0.2646410   0.2500958  )
        32           O   tau(  32) = (   0.7985395   0.7935191   0.7499042  )

     number of k points=    64  gaussian smearing, width (Ry)=  0.0007
                       cart. coord. in units 2pi/alat
        k(    1) = (   0.0000000   0.0000000   0.0000000), wk =   0.0092593
        k(    2) = (   0.0000000   0.0000000   0.1666667), wk =   0.0185185
        k(    3) = (   0.0000000   0.0000000   0.3333333), wk =   0.0185185
        k(    4) = (   0.0000000   0.0000000  -0.5000000), wk =   0.0092593
        k(    5) = (   0.0000000   0.1575061   0.0000000), wk =   0.0185185
        k(    6) = (   0.0000000   0.1575061   0.1666667), wk =   0.0370370
        k(    7) = (   0.0000000   0.1575061   0.3333333), wk =   0.0370370
        k(    8) = (   0.0000000   0.1575061  -0.5000000), wk =   0.0185185
        k(    9) = (   0.0000000   0.3150122   0.0000000), wk =   0.0185185
        k(   10) = (   0.0000000   0.3150122   0.1666667), wk =   0.0370370
        k(   11) = (   0.0000000   0.3150122   0.3333333), wk =   0.0370370
        k(   12) = (   0.0000000   0.3150122  -0.5000000), wk =   0.0185185
        k(   13) = (   0.0000000  -0.4725183   0.0000000), wk =   0.0092593
        k(   14) = (   0.0000000  -0.4725183   0.1666667), wk =   0.0185185
        k(   15) = (   0.0000000  -0.4725183   0.3333333), wk =   0.0185185
        k(   16) = (   0.0000000  -0.4725183  -0.5000000), wk =   0.0092593
        k(   17) = (   0.1666667   0.0000000   0.1666667), wk =   0.0370370
        k(   18) = (   0.1666667   0.0000000   0.3333333), wk =   0.0370370
        k(   19) = (   0.1666667   0.0000000  -0.5000000), wk =   0.0185185
        k(   20) = (   0.1666667   0.1575061   0.1666667), wk =   0.0740741
        k(   21) = (   0.1666667   0.1575061   0.3333333), wk =   0.0740741
        k(   22) = (   0.1666667   0.1575061  -0.5000000), wk =   0.0370370
        k(   23) = (   0.1666667   0.3150122   0.1666667), wk =   0.0740741
        k(   24) = (   0.1666667   0.3150122   0.3333333), wk =   0.0740741
        k(   25) = (   0.1666667   0.3150122  -0.5000000), wk =   0.0370370
        k(   26) = (   0.1666667  -0.4725183   0.1666667), wk =   0.0370370
        k(   27) = (   0.1666667  -0.4725183   0.3333333), wk =   0.0370370
        k(   28) = (   0.1666667  -0.4725183  -0.5000000), wk =   0.0185185
        k(   29) = (   0.3333333   0.0000000   0.3333333), wk =   0.0370370
        k(   30) = (   0.3333333   0.0000000  -0.5000000), wk =   0.0185185
        k(   31) = (   0.3333333   0.1575061   0.3333333), wk =   0.0740741
        k(   32) = (   0.3333333   0.1575061  -0.5000000), wk =   0.0370370
        k(   33) = (   0.3333333   0.3150122   0.3333333), wk =   0.0740741
        k(   34) = (   0.3333333   0.3150122  -0.5000000), wk =   0.0370370
        k(   35) = (   0.3333333  -0.4725183   0.3333333), wk =   0.0370370
        k(   36) = (   0.3333333  -0.4725183  -0.5000000), wk =   0.0185185
        k(   37) = (  -0.5000000   0.0000000  -0.5000000), wk =   0.0092593
        k(   38) = (  -0.5000000   0.1575061  -0.5000000), wk =   0.0185185
        k(   39) = (  -0.5000000   0.3150122  -0.5000000), wk =   0.0185185
        k(   40) = (  -0.5000000  -0.4725183  -0.5000000), wk =   0.0092593
        k(   41) = (   0.1666667   0.0000000   0.0000000), wk =   0.0185185
        k(   42) = (   0.3333333   0.0000000   0.0000000), wk =   0.0185185
        k(   43) = (  -0.5000000   0.0000000   0.0000000), wk =   0.0092593
        k(   44) = (   0.1666667  -0.1575061   0.0000000), wk =   0.0370370
        k(   45) = (   0.3333333  -0.1575061   0.0000000), wk =   0.0370370
        k(   46) = (  -0.5000000  -0.1575061   0.0000000), wk =   0.0185185
        k(   47) = (   0.1666667  -0.3150122   0.0000000), wk =   0.0370370
        k(   48) = (   0.3333333  -0.3150122   0.0000000), wk =   0.0370370
        k(   49) = (  -0.5000000  -0.3150122   0.0000000), wk =   0.0185185
        k(   50) = (   0.1666667   0.4725183   0.0000000), wk =   0.0185185
        k(   51) = (   0.3333333   0.4725183   0.0000000), wk =   0.0185185
        k(   52) = (  -0.5000000   0.4725183   0.0000000), wk =   0.0092593
        k(   53) = (   0.3333333   0.0000000   0.1666667), wk =   0.0370370
        k(   54) = (  -0.5000000   0.0000000   0.1666667), wk =   0.0185185
        k(   55) = (   0.3333333  -0.1575061   0.1666667), wk =   0.0740741
        k(   56) = (  -0.5000000  -0.1575061   0.1666667), wk =   0.0370370
        k(   57) = (   0.3333333  -0.3150122   0.1666667), wk =   0.0740741
        k(   58) = (  -0.5000000  -0.3150122   0.1666667), wk =   0.0370370
        k(   59) = (   0.3333333   0.4725183   0.1666667), wk =   0.0370370
        k(   60) = (  -0.5000000   0.4725183   0.1666667), wk =   0.0185185
        k(   61) = (  -0.5000000   0.0000000   0.3333333), wk =   0.0185185
        k(   62) = (  -0.5000000  -0.1575061   0.3333333), wk =   0.0370370
        k(   63) = (  -0.5000000  -0.3150122   0.3333333), wk =   0.0370370
        k(   64) = (  -0.5000000   0.4725183   0.3333333), wk =   0.0185185

     Initial potential from superposition of free atoms

     starting charge  367.99656, renormalised to  368.00000
     Starting wfc are  232 randomized atomic wfcs

     Self-consistent Calculation

     iteration #  1     ecut=   120.00 Ry     beta= 0.70
     Davidson diagonalization with overlap
     ethr =  1.00E-02,  avg # of iterations =  5.1

     total energy              =   -6253.99500012 Ry
     Harris-Foulkes estimate   =   -6264.58839256 Ry
     estimated scf accuracy    <      13.41686468 Ry

[...]

     End of self-consistent calculation

[...]
End final coordinates

     A final scf calculation at the relaxed structure.
     The G-vectors are recalculated for the final unit cell
     Results may differ from those at the preceding step.

     bravais-lattice index     =            0
     lattice parameter (alat)  =      13.8397  a.u.
     unit-cell volume          =    2811.5883 (a.u.)^3
     number of atoms/cell      =           32
     number of atomic types    =            2
     number of electrons       =       368.00
     number of Kohn-Sham states=          221
     kinetic-energy cutoff     =     120.0000  Ry
     charge density cutoff     =     480.0000  Ry
     convergence threshold     =      1.0E-10
     mixing beta               =       0.7000
     number of iterations used =            8  plain     mixing
     Exchange-correlation      = SLA PW NOGX NOGC ( 1  4  0  0 0 0)

     celldm(1)=  13.839685  celldm(2)=   0.000000  celldm(3)=   0.000000
     celldm(4)=   0.000000  celldm(5)=   0.000000  celldm(6)=   0.000000

     crystal axes: (cart. coord. in units of alat)
               a(1) = (   1.001833   0.000000   0.000000 )
               a(2) = (   0.000000   1.056774   0.000000 )
               a(3) = (   0.000000   0.000000   1.001834 )

     reciprocal axes: (cart. coord. in units 2 pi/alat)
               b(1) = (  0.998171  0.000000  0.000000 )
               b(2) = (  0.000000  0.946276  0.000000 )
               b(3) = (  0.000000  0.000000  0.998170 )

     PseudoPot. # 1 for W  read from file:
     /cluster/scratch/mnoe/QE/pps/W_ONCV_LDA-4.0.upf
     MD5 check sum: ba0307d5d4cd419d6f1d13dc49d7c13a
     Pseudo is Norm-conserving + core correction, Zval = 28.0
     Generated using ONCVPSP code by D. R. Hamann
     Using radial grid of 1380 points,  8 beta functions with:
                l(1) =   0
                l(2) =   0
                l(3) =   1
                l(4) =   1
                l(5) =   2
                l(6) =   2
                l(7) =   3
                l(8) =   3

     PseudoPot. # 2 for O  read from file:
     /cluster/scratch/mnoe/QE/pps/O_ONCV_LDA-3.0.upf
     MD5 check sum: a1bd6164e7280c17a38c229939bfbd54
     Pseudo is Norm-conserving + core correction, Zval =  6.0
     Generated using ONCVPSP code by D. R. Hamann
     Using radial grid of  926 points,  5 beta functions with:
                l(1) =   0
                l(2) =   0
                l(3) =   1
                l(4) =   1
                l(5) =   2

     atomic species   valence    mass     pseudopotential
        W             28.00   183.84000     W ( 1.00)
        O              6.00    15.99940     O ( 1.00)

      8 Sym. Ops., with inversion, found ( 6 have fractional translation)

   Cartesian axes

     site n.     atom                  positions (alat units)
         1           W   tau(   1) = (   0.2502268   0.2970324   0.0002185  )
         2           W   tau(   2) = (   0.7516059   0.7597418  -0.0002185  )
         3           W   tau(   3) = (   0.2506896   0.2313547   0.5011354  )
         4           W   tau(   4) = (   0.7511431   0.8254195   0.5006984  )
         5           W   tau(   5) = (   0.7516059   0.2970324   0.5006984  )
         6           W   tau(   6) = (   0.2502268   0.7597418   0.5011354  )
         7           W   tau(   7) = (   0.7511431   0.2313547  -0.0002185  )
         8           W   tau(   8) = (   0.2506896   0.8254195   0.0002185  )
         9           O   tau(   9) = (   0.2500312   0.0085662   0.0000679  )
        10           O   tau(  10) = (   0.7518014  -0.0085662  -0.0000679  )
        11           O   tau(  11) = (   0.2508851   0.5198209   0.5009848  )
        12           O   tau(  12) = (   0.7509476   0.5369533   0.5008490  )
        13           O   tau(  13) = (   0.7518014   0.0085662   0.5008490  )
        14           O   tau(  14) = (   0.2500312  -0.0085662   0.5009848  )
        15           O   tau(  15) = (   0.7509476   0.5198209  -0.0000679  )
        16           O   tau(  16) = (   0.2508851   0.5369533   0.0000679  )
        17           O   tau(  17) = (   0.5009796   0.2637316   0.4522884  )
        18           O   tau(  18) = (   0.5008530   0.7930426   0.5495454  )
        19           O   tau(  19) = (  -0.0000633   0.2646555   0.9532053  )
        20           O   tau(  20) = (   0.0000633   0.7921187   0.0486285  )
        21           O   tau(  21) = (   0.5008530   0.2637316   0.0486285  )
        22           O   tau(  22) = (   0.5009796   0.7930426   0.9532053  )
        23           O   tau(  23) = (   0.0000633   0.2646555   0.5495454  )
        24           O   tau(  24) = (  -0.0000633   0.7921187   0.4522884  )
        25           O   tau(  25) = (   0.7027461   0.2640927   0.7512794  )
        26           O   tau(  26) = (   0.2990866   0.7926815   0.2505544  )
        27           O   tau(  27) = (   0.8000029   0.2642944   0.2503625  )
        28           O   tau(  28) = (   0.2018297   0.7924798   0.7514713  )
        29           O   tau(  29) = (   0.2990866   0.2640927   0.7514713  )
        30           O   tau(  30) = (   0.7027461   0.7926815   0.2503625  )
        31           O   tau(  31) = (   0.2018297   0.2642944   0.2505544  )
        32           O   tau(  32) = (   0.8000029   0.7924798   0.7512794  )

     number of k points=    64  gaussian smearing, width (Ry)=  0.0007
                       cart. coord. in units 2pi/alat
        k(    1) = (   0.0000000   0.0000000   0.0000000), wk =   0.0092593
        k(    2) = (   0.0000000   0.0000000   0.1663616), wk =   0.0185185
        k(    3) = (   0.0000000   0.0000000   0.3327232), wk =   0.0185185
        k(    4) = (   0.0000000   0.0000000  -0.4990848), wk =   0.0092593
        k(    5) = (   0.0000000   0.1577127   0.0000000), wk =   0.0185185
        k(    6) = (   0.0000000   0.1577127   0.1663616), wk =   0.0370370
        k(    7) = (   0.0000000   0.1577127   0.3327232), wk =   0.0370370
        k(    8) = (   0.0000000   0.1577127  -0.4990848), wk =   0.0185185
        k(    9) = (   0.0000000   0.3154253   0.0000000), wk =   0.0185185
        k(   10) = (   0.0000000   0.3154253   0.1663616), wk =   0.0370370
        k(   11) = (   0.0000000   0.3154253   0.3327232), wk =   0.0370370
        k(   12) = (   0.0000000   0.3154253  -0.4990848), wk =   0.0185185
        k(   13) = (   0.0000000  -0.4731380   0.0000000), wk =   0.0092593
        k(   14) = (   0.0000000  -0.4731380   0.1663616), wk =   0.0185185
        k(   15) = (   0.0000000  -0.4731380   0.3327232), wk =   0.0185185
        k(   16) = (   0.0000000  -0.4731380  -0.4990848), wk =   0.0092593
        k(   17) = (   0.1663618   0.0000000   0.1663616), wk =   0.0370370
        k(   18) = (   0.1663618   0.0000000   0.3327232), wk =   0.0370370
        k(   19) = (   0.1663618   0.0000000  -0.4990848), wk =   0.0185185
        k(   20) = (   0.1663618   0.1577127   0.1663616), wk =   0.0740741
        k(   21) = (   0.1663618   0.1577127   0.3327232), wk =   0.0740741
        k(   22) = (   0.1663618   0.1577127  -0.4990848), wk =   0.0370370
        k(   23) = (   0.1663618   0.3154253   0.1663616), wk =   0.0740741
        k(   24) = (   0.1663618   0.3154253   0.3327232), wk =   0.0740741
        k(   25) = (   0.1663618   0.3154253  -0.4990848), wk =   0.0370370
        k(   26) = (   0.1663618  -0.4731380   0.1663616), wk =   0.0370370
        k(   27) = (   0.1663618  -0.4731380   0.3327232), wk =   0.0370370
        k(   28) = (   0.1663618  -0.4731380  -0.4990848), wk =   0.0185185
        k(   29) = (   0.3327236   0.0000000   0.3327232), wk =   0.0370370
        k(   30) = (   0.3327236   0.0000000  -0.4990848), wk =   0.0185185
        k(   31) = (   0.3327236   0.1577127   0.3327232), wk =   0.0740741
        k(   32) = (   0.3327236   0.1577127  -0.4990848), wk =   0.0370370
        k(   33) = (   0.3327236   0.3154253   0.3327232), wk =   0.0740741
        k(   34) = (   0.3327236   0.3154253  -0.4990848), wk =   0.0370370
        k(   35) = (   0.3327236  -0.4731380   0.3327232), wk =   0.0370370
        k(   36) = (   0.3327236  -0.4731380  -0.4990848), wk =   0.0185185
        k(   37) = (  -0.4990853   0.0000000  -0.4990848), wk =   0.0092593
        k(   38) = (  -0.4990853   0.1577127  -0.4990848), wk =   0.0185185
        k(   39) = (  -0.4990853   0.3154253  -0.4990848), wk =   0.0185185
        k(   40) = (  -0.4990853  -0.4731380  -0.4990848), wk =   0.0092593
        k(   41) = (   0.1663618   0.0000000   0.0000000), wk =   0.0185185
        k(   42) = (   0.3327236   0.0000000   0.0000000), wk =   0.0185185
        k(   43) = (  -0.4990853   0.0000000   0.0000000), wk =   0.0092593
        k(   44) = (   0.1663618  -0.1577127   0.0000000), wk =   0.0370370
        k(   45) = (   0.3327236  -0.1577127   0.0000000), wk =   0.0370370
        k(   46) = (  -0.4990853  -0.1577127   0.0000000), wk =   0.0185185
        k(   47) = (   0.1663618  -0.3154253   0.0000000), wk =   0.0370370
        k(   48) = (   0.3327236  -0.3154253   0.0000000), wk =   0.0370370
        k(   49) = (  -0.4990853  -0.3154253   0.0000000), wk =   0.0185185
        k(   50) = (   0.1663618   0.4731380   0.0000000), wk =   0.0185185
        k(   51) = (   0.3327236   0.4731380   0.0000000), wk =   0.0185185
        k(   52) = (  -0.4990853   0.4731380   0.0000000), wk =   0.0092593
        k(   53) = (   0.3327236   0.0000000   0.1663616), wk =   0.0370370
        k(   54) = (  -0.4990853   0.0000000   0.1663616), wk =   0.0185185
        k(   55) = (   0.3327236  -0.1577127   0.1663616), wk =   0.0740741
        k(   56) = (  -0.4990853  -0.1577127   0.1663616), wk =   0.0370370
        k(   57) = (   0.3327236  -0.3154253   0.1663616), wk =   0.0740741
        k(   58) = (  -0.4990853  -0.3154253   0.1663616), wk =   0.0370370
        k(   59) = (   0.3327236   0.4731380   0.1663616), wk =   0.0370370
        k(   60) = (  -0.4990853   0.4731380   0.1663616), wk =   0.0185185
        k(   61) = (  -0.4990853   0.0000000   0.3327232), wk =   0.0185185
        k(   62) = (  -0.4990853  -0.1577127   0.3327232), wk =   0.0370370
        k(   63) = (  -0.4990853  -0.3154253   0.3327232), wk =   0.0370370
        k(   64) = (  -0.4990853   0.4731380   0.3327232), wk =   0.0185185

     Initial potential from superposition of free atoms

     starting charge  367.99656, renormalised to  368.00000
     Starting wfc are  232 randomized atomic wfcs

     Writing output data file Landau_2.save

     Self-consistent Calculation

[...]

     total energy              =   -6261.10923005 Ry
     Harris-Foulkes estimate   =   -6261.10923005 Ry
     estimated scf accuracy    <          7.6E-10 Ry

     iteration # 14     ecut=   120.00 Ry     beta= 0.70
     Davidson diagonalization with overlap
     ethr =  2.05E-13,  avg # of iterations =  2.4

     End of self-consistent calculation

[...]

          k = 0.3327 0.4731 0.1664 ( 62384 PWs)   bands (ev):

[...]

          k =-0.4991 0.4731 0.3327 ( 62372 PWs)   bands (ev):

   -66.2183 -66.2183 -66.2182 -66.2182 -66.2178 -66.2178 -66.2178 -66.2178
   -30.5795 -30.5795 -30.5795 -30.5795 -30.5776 -30.5776 -30.5776 -30.5776
   -30.5334 -30.5334 -30.5333 -30.5333 -30.5100 -30.5100 -30.5100 -30.5100
   -30.5076 -30.5076 -30.5076 -30.5076 -30.4843 -30.4843 -30.4843 -30.4843
   -20.3802 -20.3802 -20.3802 -20.3802 -20.3802 -20.3802 -20.3802 -20.3802
   -20.3592 -20.3592 -20.3592 -20.3592 -20.3590 -20.3590 -20.3590 -20.3590
   -20.3561 -20.3561 -20.3561 -20.3561 -20.3558 -20.3558 -20.3558 -20.3558
   -20.3556 -20.3556 -20.3556 -20.3556 -20.3554 -20.3554 -20.3554 -20.3554
   -20.3477 -20.3477 -20.3477 -20.3477 -20.3472 -20.3472 -20.3472 -20.3472
   -20.3452 -20.3452 -20.3451 -20.3451 -20.3433 -20.3433 -20.3433 -20.3433
   -20.3430 -20.3430 -20.3430 -20.3430 -20.3414 -20.3414 -20.3413 -20.3413
    -9.2200  -9.2200  -9.2197  -9.2196  -8.8202  -8.8202  -8.8190  -8.8190
    -8.5880  -8.5880  -8.5846  -8.5846  -8.4268  -8.4268  -8.4213  -8.4213
    -8.3814  -8.3813  -8.3767  -8.3767  -8.1450  -8.1450  -8.1438  -8.1438
     2.2196   2.2196   2.2221   2.2221   2.9651   2.9651   2.9715   2.9715
     3.0852   3.0852   3.0942   3.0942   3.2312   3.2312   3.2593   3.2593
     3.3302   3.3302   3.3574   3.3574   3.6100   3.6100   3.6129   3.6129
     3.7337   3.7337   3.7700   3.7700   4.2120   4.2120   4.2411   4.2411
     4.2916   4.2916   4.3484   4.3484   4.4145   4.4145   4.5188   4.5188
     4.6128   4.6128   4.7631   4.7631   5.0237   5.0237   5.0373   5.0373
     7.0040   7.0040   7.0253   7.0253   7.1521   7.1521   7.1545   7.1545
     7.2423   7.2423   7.2861   7.2861   7.2954   7.2954   7.3692   7.3692
     7.4474   7.4474   7.5077   7.5077   7.5772   7.5772   7.5969   7.5969
    11.3666  11.3666  11.3978  11.3978  11.6940  11.6940  11.7609  11.7609
    12.1328  12.1328  12.1786  12.1786  12.2754  12.2754  12.2784  12.2784
    12.4380  12.4380  12.5388  12.5388  12.9187  12.9187  12.9947  12.9947
    16.4432  16.4432  16.4878  16.4878  17.0503  17.0503  17.0534  17.0534
    17.3026  17.3027  17.3495  17.3495  17.3727

     the Fermi energy is     8.5258 ev

!    total energy              =   -6261.10923005 Ry
     Harris-Foulkes estimate   =   -6261.10923005 Ry
     estimated scf accuracy    <          5.5E-11 Ry

     The total energy is the sum of the following terms:

     one-electron contribution =   -4731.75917117 Ry
     hartree contribution      =    2602.02660640 Ry
     xc contribution           =    -965.66924392 Ry
     ewald contribution        =   -3165.70742137 Ry
     smearing contrib. (-TS)   =      -0.00000000 Ry

     convergence has been achieved in  14 iterations

     Forces acting on atoms (cartesian axes, Ry/au):

     atom    1 type  1   force =    -0.00011502    0.00207975    0.00008110
     atom    2 type  1   force =     0.00011502   -0.00207975   -0.00008110
     atom    3 type  1   force =     0.00011502   -0.00207975    0.00008110
     atom    4 type  1   force =    -0.00011502    0.00207975   -0.00008110
     atom    5 type  1   force =     0.00011502    0.00207975   -0.00008110
     atom    6 type  1   force =    -0.00011502   -0.00207975    0.00008110
     atom    7 type  1   force =    -0.00011502   -0.00207975   -0.00008110
     atom    8 type  1   force =     0.00011502    0.00207975    0.00008110
     atom    9 type  2   force =    -0.00001544   -0.00102348    0.00000778
     atom   10 type  2   force =     0.00001544    0.00102348   -0.00000778
     atom   11 type  2   force =     0.00001544    0.00102348    0.00000778
     atom   12 type  2   force =    -0.00001544   -0.00102348   -0.00000778
     atom   13 type  2   force =     0.00001544   -0.00102348   -0.00000778
     atom   14 type  2   force =    -0.00001544    0.00102348    0.00000778
     atom   15 type  2   force =    -0.00001544    0.00102348   -0.00000778
     atom   16 type  2   force =     0.00001544   -0.00102348    0.00000778
     atom   17 type  2   force =    -0.00005680    0.00000048   -0.00040183
     atom   18 type  2   force =     0.00005680   -0.00000048    0.00040183
     atom   19 type  2   force =     0.00005680   -0.00000048   -0.00040183
     atom   20 type  2   force =    -0.00005680    0.00000048    0.00040183
     atom   21 type  2   force =     0.00005680    0.00000048    0.00040183
     atom   22 type  2   force =    -0.00005680   -0.00000048   -0.00040183
     atom   23 type  2   force =    -0.00005680   -0.00000048    0.00040183
     atom   24 type  2   force =     0.00005680    0.00000048   -0.00040183
     atom   25 type  2   force =    -0.00040269   -0.00003740    0.00004817
     atom   26 type  2   force =     0.00040269    0.00003740   -0.00004817
     atom   27 type  2   force =     0.00040269    0.00003740    0.00004817
     atom   28 type  2   force =    -0.00040269   -0.00003740   -0.00004817
     atom   29 type  2   force =     0.00040269   -0.00003740   -0.00004817
     atom   30 type  2   force =    -0.00040269    0.00003740    0.00004817
     atom   31 type  2   force =    -0.00040269    0.00003740   -0.00004817
     atom   32 type  2   force =     0.00040269   -0.00003740    0.00004817

     Total force =     0.000000     Total SCF correction =     0.000000

     Computing stress (Cartesian axis) and pressure

          total   stress  (Ry/bohr**3)                   (kbar)     P=    0.04
   0.00000045   0.00000000   0.00000000          0.07      0.00      0.00
   0.00000000  -0.00000014   0.00000000          0.00     -0.02      0.00
   0.00000000   0.00000000   0.00000046          0.00      0.00      0.07

     Writing output data file Landau_2.save

     General routines

     Parallel routines

   This run was terminated on:  23: 5: 3  19Mar2020

   JOB DONE.