     Program PWSCF v.6.2 (svn rev. 14038) starts on 10Sep2019 at 17:43:30

     K-points division:     npool     =      40
     Reading input from scf.in

     Current dimensions of program PWSCF are:
     Max number of different atomic species (ntypx) = 10
     Max number of k-points (npk) =  40000
     Max angular momentum in pseudopotentials (lmaxx) =  3

     Subspace diagonalization in iterative solution of the eigenvalue problem:
     a serial algorithm will be used

     bravais-lattice index     =            0
     lattice parameter (alat)  =      13.8396  a.u.
     unit-cell volume          =    2804.5887 (a.u.)^3
     number of atoms/cell      =           32
     number of atomic types    =            2
     number of electrons       =       368.10
     number of Kohn-Sham states=          221
     kinetic-energy cutoff     =     120.0000  Ry
     charge density cutoff     =     480.0000  Ry
     convergence threshold     =      1.0E-08
     mixing beta               =       0.7000
     number of iterations used =            8  plain     mixing
     Exchange-correlation      = SLA PW NOGX NOGC ( 1  4  0  0 0 0)

     celldm(1)=  13.839581  celldm(2)=   0.000000  celldm(3)=   0.000000
     celldm(4)=   0.000000  celldm(5)=   0.000000  celldm(6)=   0.000000

     crystal axes: (cart. coord. in units of alat)
               a(1) = (   1.000000   0.000000   0.000000 )
               a(2) = (   0.000000   1.058036   0.000000 )
               a(3) = (   0.000000   0.000000   1.000000 )

     reciprocal axes: (cart. coord. in units 2 pi/alat)
               b(1) = (  1.000000  0.000000  0.000000 )
               b(2) = (  0.000000  0.945148  0.000000 )
               b(3) = (  0.000000  0.000000  1.000000 )

     PseudoPot. # 1 for W  read from file:
     /cluster/scratch/mnoe/QE/pps/W_ONCV_LDA-4.0.upf
     MD5 check sum: ba0307d5d4cd419d6f1d13dc49d7c13a
     Pseudo is Norm-conserving + core correction, Zval = 28.0
     Generated using ONCVPSP code by D. R. Hamann
     Using radial grid of 1380 points,  8 beta functions with:
                l(1) =   0
                l(2) =   0
                l(3) =   1
                l(4) =   1
                l(5) =   2
                l(6) =   2
                l(7) =   3
                l(8) =   3

     PseudoPot. # 2 for O  read from file:
     /cluster/scratch/mnoe/QE/pps/O_ONCV_LDA-3.0.upf
     MD5 check sum: ca1549d10c4e927e51167f6fca52ae32
     Pseudo is Norm-conserving + core correction, Zval =  6.0
     Generated using ONCVPSP code by D. R. Hamann
     Using radial grid of  926 points,  5 beta functions with:
                l(1) =   0
                l(2) =   0
                l(3) =   1
                l(4) =   1
                l(5) =   2

     atomic species   valence    mass     pseudopotential
        W             28.00   183.84000     W ( 1.00)
        O              6.00    15.99940     O ( 1.00)

      8 Sym. Ops. (no inversion) found ( 4 have fractional translation)

   Cartesian axes

     site n.     atom                  positions (alat units)
         1           W   tau(   1) = (   0.2517900   0.2982179   0.2500500  )
         2           W   tau(   2) = (  -0.2500500   0.7598178  -0.7482101  )
         3           W   tau(   3) = (   0.2482100   0.2307999   0.7500500  )
         4           W   tau(   4) = (   0.7500500   0.8272358   0.7517900  )
         5           W   tau(   5) = (   0.7482100   0.2982179   0.7499500  )
         6           W   tau(   6) = (   0.2500500   0.7598178   0.7482100  )
         7           W   tau(   7) = (  -0.2482101   0.2307999  -0.7500500  )
         8           W   tau(   8) = (   0.2499500   0.8272358   0.2482100  )
         9           O   tau(   9) = (   0.2519800   0.0088029   0.2514400  )
        10           O   tau(  10) = (  -0.2514399   1.0492329  -0.7480200  )
        11           O   tau(  11) = (   0.2480200   0.5202150   0.7514400  )
        12           O   tau(  12) = (   0.7514400   0.5378207   0.7519800  )
        13           O   tau(  13) = (   0.7480200   0.0088029   0.7485600  )
        14           O   tau(  14) = (   0.2514400   1.0492329   0.7480200  )
        15           O   tau(  15) = (  -0.2480200   0.5202150  -0.7514400  )
        16           O   tau(  16) = (   0.2485600   0.5378207   0.2480200  )
        17           O   tau(  17) = (   0.4993700   0.2667625   0.6995400  )
        18           O   tau(  18) = (   0.4998700   0.7920772   0.8004600  )
        19           O   tau(  19) = (  -0.9993700   0.2622553   1.1995400  )
        20           O   tau(  20) = (   0.0001301   0.7949762   0.3004600  )
        21           O   tau(  21) = (   0.5006300   0.2667625   0.3004600  )
        22           O   tau(  22) = (   0.5001300   0.7920772   1.1995400  )
        23           O   tau(  23) = (  -0.0006300   0.2622553   0.8004600  )
        24           O   tau(  24) = (  -1.0001300   0.7949762   0.6995400  )
        25           O   tau(  25) = (   0.6995400   0.2630594   2.0001300  )
        26           O   tau(  26) = (   0.3004600   0.7912731   0.4993700  )
        27           O   tau(  27) = (   0.8004600   0.2659585   0.5001300  )
        28           O   tau(  28) = (   0.1995400   0.7957803   1.9993700  )
        29           O   tau(  29) = (   0.3004600   0.2630594   0.9998700  )
        30           O   tau(  30) = (   0.6995400   0.7912731   0.5006300  )
        31           O   tau(  31) = (   0.1995400   0.2659585   0.4998700  )
        32           O   tau(  32) = (   0.8004600   0.7957803   1.0006300  )

     number of k points=    40  gaussian smearing, width (Ry)=  0.0007
                       cart. coord. in units 2pi/alat
        k(    1) = (   0.0000000   0.0000000   0.0000000), wk =   0.0092593
        k(    2) = (   0.0000000   0.0000000   0.1666667), wk =   0.0370370
        k(    3) = (   0.0000000   0.0000000   0.3333333), wk =   0.0370370
        k(    4) = (   0.0000000   0.0000000  -0.5000000), wk =   0.0185185
        k(    5) = (   0.0000000   0.1575246   0.0000000), wk =   0.0185185
        k(    6) = (   0.0000000   0.1575246   0.1666667), wk =   0.0740741
        k(    7) = (   0.0000000   0.1575246   0.3333333), wk =   0.0740741
        k(    8) = (   0.0000000   0.1575246  -0.5000000), wk =   0.0370370
        k(    9) = (   0.0000000   0.3150492   0.0000000), wk =   0.0185185
        k(   10) = (   0.0000000   0.3150492   0.1666667), wk =   0.0740741
        k(   11) = (   0.0000000   0.3150492   0.3333333), wk =   0.0740741
        k(   12) = (   0.0000000   0.3150492  -0.5000000), wk =   0.0370370
        k(   13) = (   0.0000000  -0.4725738   0.0000000), wk =   0.0092593
        k(   14) = (   0.0000000  -0.4725738   0.1666667), wk =   0.0370370
        k(   15) = (   0.0000000  -0.4725738   0.3333333), wk =   0.0370370
        k(   16) = (   0.0000000  -0.4725738  -0.5000000), wk =   0.0185185
        k(   17) = (   0.1666667   0.0000000   0.1666667), wk =   0.0370370
        k(   18) = (   0.1666667   0.0000000   0.3333333), wk =   0.0740741
        k(   19) = (   0.1666667   0.0000000  -0.5000000), wk =   0.0370370
        k(   20) = (   0.1666667   0.1575246   0.1666667), wk =   0.0740741
        k(   21) = (   0.1666667   0.1575246   0.3333333), wk =   0.1481481
        k(   22) = (   0.1666667   0.1575246  -0.5000000), wk =   0.0740741
        k(   23) = (   0.1666667   0.3150492   0.1666667), wk =   0.0740741
        k(   24) = (   0.1666667   0.3150492   0.3333333), wk =   0.1481481
        k(   25) = (   0.1666667   0.3150492  -0.5000000), wk =   0.0740741
        k(   26) = (   0.1666667  -0.4725738   0.1666667), wk =   0.0370370
        k(   27) = (   0.1666667  -0.4725738   0.3333333), wk =   0.0740741
        k(   28) = (   0.1666667  -0.4725738  -0.5000000), wk =   0.0370370
        k(   29) = (   0.3333333   0.0000000   0.3333333), wk =   0.0370370
        k(   30) = (   0.3333333   0.0000000  -0.5000000), wk =   0.0370370
        k(   31) = (   0.3333333   0.1575246   0.3333333), wk =   0.0740741
        k(   32) = (   0.3333333   0.1575246  -0.5000000), wk =   0.0740741
        k(   33) = (   0.3333333   0.3150492   0.3333333), wk =   0.0740741
        k(   34) = (   0.3333333   0.3150492  -0.5000000), wk =   0.0740741
        k(   35) = (   0.3333333  -0.4725738   0.3333333), wk =   0.0370370
        k(   36) = (   0.3333333  -0.4725738  -0.5000000), wk =   0.0370370
        k(   37) = (  -0.5000000   0.0000000  -0.5000000), wk =   0.0092593
        k(   38) = (  -0.5000000   0.1575246  -0.5000000), wk =   0.0185185
        k(   39) = (  -0.5000000   0.3150492  -0.5000000), wk =   0.0185185
        k(   40) = (  -0.5000000  -0.4725738  -0.5000000), wk =   0.0092593

     Initial potential from superposition of free atoms

     starting charge  367.99656, renormalised to  368.10000
     Starting wfc are  232 randomized atomic wfcs

     Self-consistent Calculation

     iteration #  1     ecut=   120.00 Ry     beta= 0.70
     Davidson diagonalization with overlap
     ethr =  1.00E-02,  avg # of iterations =  5.0

     total energy              =   -6253.89470530 Ry
     Harris-Foulkes estimate   =   -6264.53408026 Ry
     estimated scf accuracy    <      13.46011647 Ry

[...]

     total energy              =   -6261.04152209 Ry
     Harris-Foulkes estimate   =   -6261.04152211 Ry
     estimated scf accuracy    <       0.00000004 Ry

     iteration # 13     ecut=   120.00 Ry     beta= 0.70
     Davidson diagonalization with overlap
     ethr =  1.08E-11,  avg # of iterations =  2.9

     End of self-consistent calculation

          k = 0.0000 0.0000 0.0000 ( 62239 PWs)   bands (ev):

   -66.1481 -66.1477 -66.1470 -66.1470 -66.1466 -66.1466 -66.1460 -66.1456
   -30.5511 -30.5478 -30.5478 -30.5446 -30.4942 -30.4920 -30.4908 -30.4900
   -30.4900 -30.4883 -30.4872 -30.4865 -30.4861 -30.4861 -30.4828 -30.4828
   -30.3910 -30.3910 -30.3882 -30.3882 -30.3868 -30.3864 -30.3840 -30.3837
   -20.3060 -20.3059 -20.3059 -20.3059 -20.3059 -20.3058 -20.3058 -20.3058
   -20.2923 -20.2921 -20.2921 -20.2919 -20.2869 -20.2866 -20.2866 -20.2863
   -20.2836 -20.2835 -20.2833 -20.2833 -20.2829 -20.2829 -20.2826 -20.2825
   -20.2822 -20.2821 -20.2819 -20.2819 -20.2813 -20.2813 -20.2812 -20.2811
   -20.2747 -20.2745 -20.2742 -20.2742 -20.2741 -20.2740 -20.2737 -20.2736
   -20.2728 -20.2727 -20.2724 -20.2723 -20.2717 -20.2717 -20.2716 -20.2716
   -20.2648 -20.2648 -20.2644 -20.2644 -20.2639 -20.2638 -20.2636 -20.2635
    -9.9441  -9.6665  -9.5024  -9.5024  -9.2337  -9.2337  -9.0704  -9.0450
    -9.0330  -8.8719  -8.8448  -8.8448  -7.8520  -7.7925  -7.7925  -7.7730
    -7.7727  -7.7476  -7.7468  -7.7408  -7.6173  -7.6173  -7.5963  -7.5963
     1.1990   1.1995   1.2798   1.2798   1.2982   1.2982   1.3756   1.6350
     1.6350   1.6408   1.6494   1.8649   2.3964   2.4697   2.5833   2.5842
     2.7324   2.7324   4.1402   4.1402   4.3613   4.3614   4.8393   4.8417
     4.8552   4.8552   4.8820   4.8820   5.0396   5.0396   5.0720   5.4433
     5.4433   5.5231   5.5231   5.5334   5.5334   5.5861   5.5861   5.8146
     5.8146   5.8856   5.8857   5.9447   5.9649   6.0416   6.0423   6.1169
     6.1169   6.2518   6.2518   6.5806   6.5806   6.8077   6.8077   6.8362
     6.8363   6.8878   7.0251   7.0252   7.0937   7.0937   7.3997   7.3997
     7.4443   7.4443   7.7872   7.8009   8.0797   8.0797   8.1482   8.1495
     9.2499   9.2570   9.9997  10.0000  10.0388  10.0388  12.2427  12.2427
    12.2936  12.2936  12.3144  12.3144  12.5054  12.5070  12.8664  12.8727
    13.2396  13.2435  13.4150  13.4150  13.7804  14.1607  14.1607  14.1613
    14.1656  14.3551  14.3551  14.9092  15.4251  15.4363  15.4700  16.0578
    16.0578  16.8192  17.0599  17.0599  17.4825

[...]

          k = 0.3333-0.4726-0.5000 ( 62196 PWs)   bands (ev):

[...]

          k =-0.5000 0.0000-0.5000 ( 62308 PWs)   bands (ev):

[...]

          k =-0.5000-0.4726-0.5000 ( 62272 PWs)   bands (ev):

   -66.1469 -66.1468 -66.1468 -66.1468 -66.1468 -66.1468 -66.1468 -66.1468
   -30.5200 -30.5200 -30.5199 -30.5199 -30.5199 -30.5199 -30.5198 -30.5198
   -30.4380 -30.4380 -30.4380 -30.4380 -30.4380 -30.4380 -30.4379 -30.4379
   -30.4364 -30.4364 -30.4363 -30.4363 -30.4363 -30.4363 -30.4363 -30.4363
   -20.3059 -20.3059 -20.3059 -20.3059 -20.3059 -20.3059 -20.3059 -20.3059
   -20.2895 -20.2895 -20.2895 -20.2895 -20.2895 -20.2895 -20.2895 -20.2895
   -20.2824 -20.2824 -20.2824 -20.2824 -20.2824 -20.2824 -20.2824 -20.2824
   -20.2822 -20.2821 -20.2821 -20.2821 -20.2821 -20.2821 -20.2821 -20.2821
   -20.2746 -20.2746 -20.2746 -20.2746 -20.2746 -20.2746 -20.2746 -20.2746
   -20.2683 -20.2683 -20.2683 -20.2683 -20.2683 -20.2683 -20.2683 -20.2683
   -20.2677 -20.2677 -20.2677 -20.2677 -20.2677 -20.2677 -20.2677 -20.2677
    -8.9295  -8.9294  -8.9275  -8.9275  -8.9275  -8.9274  -8.9261  -8.9261
    -8.4118  -8.4118  -8.4092  -8.4092  -8.4092  -8.4092  -8.4075  -8.4075
    -8.3337  -8.3337  -8.3325  -8.3325  -8.3325  -8.3325  -8.3297  -8.3297
     3.0031   3.0031   3.0059   3.0059   3.0059   3.0059   3.0092   3.0092
     3.1443   3.1443   3.1485   3.1485   3.1486   3.1486   3.1533   3.1533
     3.4399   3.4400   3.4556   3.4556   3.4557   3.4557   3.4696   3.4696
     4.1577   4.1577   4.1607   4.1607   4.1607   4.1607   4.1630   4.1630
     4.3852   4.3852   4.3852   4.3852   4.3863   4.3863   4.3863   4.3864
     4.4670   4.4670   4.4718   4.4718   4.4718   4.4719   4.4749   4.4749
     7.1926   7.1927   7.2107   7.2107   7.2107   7.2107   7.2298   7.2299
     7.3384   7.3384   7.3404   7.3404   7.3404   7.3404   7.3419   7.3420
     7.6074   7.6074   7.6119   7.6119   7.6120   7.6120   7.6170   7.6170
    11.8106  11.8106  11.8116  11.8116  11.8116  11.8116  11.8130  11.8130
    12.2801  12.2801  12.2961  12.2961  12.2961  12.2961  12.3134  12.3134
    12.5389  12.5389  12.5464  12.5464  12.5464  12.5464  12.5529  12.5529
    17.1634  17.1634  17.1705  17.1705  17.1705  17.1707  17.1771  17.1772
    17.3746  17.3746  17.3748  17.3753  17.3755

     the Fermi energy is     9.2629 ev

!    total energy              =   -6261.04152210 Ry
     Harris-Foulkes estimate   =   -6261.04152210 Ry
     estimated scf accuracy    <          3.6E-10 Ry

     The total energy is the sum of the following terms:

     one-electron contribution =   -4721.47686035 Ry
     hartree contribution      =    2597.77814343 Ry
     xc contribution           =    -965.77914125 Ry
     ewald contribution        =   -3171.56365438 Ry
     smearing contrib. (-TS)   =      -0.00000953 Ry

     convergence has been achieved in  13 iterations

     Writing output data file Landau_2.save

     General routines

     Parallel routines

   This run was terminated on:  18: 0:42  10Sep2019

   JOB DONE.