     Program PWSCF v.6.2 (svn rev. 14038) starts on  4Mar2020 at 20:26: 6

     K-points division:     npool     =      64
     Reading input from rscf.in

     Current dimensions of program PWSCF are:
     Max number of different atomic species (ntypx) = 10
     Max number of k-points (npk) =  40000
     Max angular momentum in pseudopotentials (lmaxx) =  3

     Subspace diagonalization in iterative solution of the eigenvalue problem:
     a serial algorithm will be used

     bravais-lattice index     =            0
     lattice parameter (alat)  =      13.8397  a.u.
     unit-cell volume          =    2804.9816 (a.u.)^3
     number of atoms/cell      =           32
     number of atomic types    =            2
     number of electrons       =       368.00
     number of Kohn-Sham states=          221
     kinetic-energy cutoff     =     120.0000  Ry
     charge density cutoff     =     480.0000  Ry
     convergence threshold     =      1.0E-08
     mixing beta               =       0.7000
     number of iterations used =            8  plain     mixing
     Exchange-correlation      = SLA PW NOGX NOGC ( 1  4  0  0 0 0)
     nstep                     =           50

     celldm(1)=  13.839685  celldm(2)=   0.000000  celldm(3)=   0.000000
     celldm(4)=   0.000000  celldm(5)=   0.000000  celldm(6)=   0.000000

     crystal axes: (cart. coord. in units of alat)
               a(1) = (   1.000000   0.000000   0.000000 )
               a(2) = (   0.000000   1.058160   0.000000 )
               a(3) = (   0.000000   0.000000   1.000000 )

     reciprocal axes: (cart. coord. in units 2 pi/alat)
               b(1) = (  1.000000  0.000000  0.000000 )
               b(2) = (  0.000000  0.945037  0.000000 )
               b(3) = (  0.000000  0.000000  1.000000 )

     PseudoPot. # 1 for W  read from file:
     /cluster/scratch/mnoe/QE/pps/W_ONCV_LDA-4.0.upf
     MD5 check sum: ba0307d5d4cd419d6f1d13dc49d7c13a
     Pseudo is Norm-conserving + core correction, Zval = 28.0
     Generated using ONCVPSP code by D. R. Hamann
     Using radial grid of 1380 points,  8 beta functions with:
                l(1) =   0
                l(2) =   0
                l(3) =   1
                l(4) =   1
                l(5) =   2
                l(6) =   2
                l(7) =   3
                l(8) =   3

     PseudoPot. # 2 for O  read from file:
     /cluster/scratch/mnoe/QE/pps/O_ONCV_LDA-3.0.upf
     MD5 check sum: a1bd6164e7280c17a38c229939bfbd54
     Pseudo is Norm-conserving + core correction, Zval =  6.0
     Generated using ONCVPSP code by D. R. Hamann
     Using radial grid of  926 points,  5 beta functions with:
                l(1) =   0
                l(2) =   0
                l(3) =   1
                l(4) =   1
                l(5) =   2

     atomic species   valence    mass     pseudopotential
        W             28.00   183.84000     W ( 1.00)
        O              6.00    15.99940     O ( 1.00)

      8 Sym. Ops., with inversion, found ( 6 have fractional translation)

   Cartesian axes

     site n.     atom                  positions (alat units)
         1           W   tau(   1) = (   0.2342800   0.2946762   0.0148500  )
         2           W   tau(   2) = (   0.7657200   0.7634839   0.9851500  )
         3           W   tau(   3) = (   0.2657200   0.2344039   0.5148500  )
         4           W   tau(   4) = (   0.7342800   0.8237562   0.4851500  )
         5           W   tau(   5) = (   0.7657200   0.2946762   0.4851500  )
         6           W   tau(   6) = (   0.2342800   0.7634839   0.5148500  )
         7           W   tau(   7) = (   0.7342800   0.2344039   0.9851500  )
         8           W   tau(   8) = (   0.2657200   0.8237562   0.0148500  )
         9           O   tau(   9) = (   0.2209900   0.0078295   0.0046200  )
        10           O   tau(  10) = (   0.7790100   1.0503306   0.9953800  )
        11           O   tau(  11) = (   0.2790100   0.5212506   0.5046200  )
        12           O   tau(  12) = (   0.7209900   0.5369095   0.4953800  )
        13           O   tau(  13) = (   0.7790100   0.0078295   0.4953800  )
        14           O   tau(  14) = (   0.2209900   1.0503306   0.5046200  )
        15           O   tau(  15) = (   0.7209900   0.5212506   0.9953800  )
        16           O   tau(  16) = (   0.2790100   0.5369095   0.0046200  )
        17           O   tau(  17) = (   0.5043000   0.2330492   0.4578053  )
        18           O   tau(  18) = (   0.4957000   0.8251109   0.5421947  )
        19           O   tau(  19) = (   0.9957000   0.2960309   0.9578054  )
        20           O   tau(  20) = (   0.0043000   0.7621292   0.0421947  )
        21           O   tau(  21) = (   0.4957000   0.2330492   0.0421947  )
        22           O   tau(  22) = (   0.5043000   0.8251109   0.9578054  )
        23           O   tau(  23) = (   0.0043000   0.2960309   0.5421947  )
        24           O   tau(  24) = (   0.9957000   0.7621292   0.4578053  )
        25           O   tau(  25) = (   0.7078053   0.2576620   0.7434800  )
        26           O   tau(  26) = (   0.2921947   0.8004981   0.2565200  )
        27           O   tau(  27) = (   0.7921947   0.2714181   0.2434800  )
        28           O   tau(  28) = (   0.2078053   0.7867421   0.7565200  )
        29           O   tau(  29) = (   0.2921947   0.2576620   0.7565200  )
        30           O   tau(  30) = (   0.7078053   0.8004981   0.2434800  )
        31           O   tau(  31) = (   0.2078053   0.2714181   0.2565200  )
        32           O   tau(  32) = (   0.7921947   0.7867421   0.7434800  )

     number of k points=    64  gaussian smearing, width (Ry)=  0.0007
                       cart. coord. in units 2pi/alat
        k(    1) = (   0.0000000   0.0000000   0.0000000), wk =   0.0092593
        k(    2) = (   0.0000000   0.0000000   0.1666667), wk =   0.0185185
        k(    3) = (   0.0000000   0.0000000   0.3333333), wk =   0.0185185
        k(    4) = (   0.0000000   0.0000000  -0.5000000), wk =   0.0092593
        k(    5) = (   0.0000000   0.1575061   0.0000000), wk =   0.0185185
        k(    6) = (   0.0000000   0.1575061   0.1666667), wk =   0.0370370
        k(    7) = (   0.0000000   0.1575061   0.3333333), wk =   0.0370370
        k(    8) = (   0.0000000   0.1575061  -0.5000000), wk =   0.0185185
        k(    9) = (   0.0000000   0.3150122   0.0000000), wk =   0.0185185
        k(   10) = (   0.0000000   0.3150122   0.1666667), wk =   0.0370370
        k(   11) = (   0.0000000   0.3150122   0.3333333), wk =   0.0370370
        k(   12) = (   0.0000000   0.3150122  -0.5000000), wk =   0.0185185
        k(   13) = (   0.0000000  -0.4725183   0.0000000), wk =   0.0092593
        k(   14) = (   0.0000000  -0.4725183   0.1666667), wk =   0.0185185
        k(   15) = (   0.0000000  -0.4725183   0.3333333), wk =   0.0185185
        k(   16) = (   0.0000000  -0.4725183  -0.5000000), wk =   0.0092593
        k(   17) = (   0.1666667   0.0000000   0.1666667), wk =   0.0370370
        k(   18) = (   0.1666667   0.0000000   0.3333333), wk =   0.0370370
        k(   19) = (   0.1666667   0.0000000  -0.5000000), wk =   0.0185185
        k(   20) = (   0.1666667   0.1575061   0.1666667), wk =   0.0740741
        k(   21) = (   0.1666667   0.1575061   0.3333333), wk =   0.0740741
        k(   22) = (   0.1666667   0.1575061  -0.5000000), wk =   0.0370370
        k(   23) = (   0.1666667   0.3150122   0.1666667), wk =   0.0740741
        k(   24) = (   0.1666667   0.3150122   0.3333333), wk =   0.0740741
        k(   25) = (   0.1666667   0.3150122  -0.5000000), wk =   0.0370370
        k(   26) = (   0.1666667  -0.4725183   0.1666667), wk =   0.0370370
        k(   27) = (   0.1666667  -0.4725183   0.3333333), wk =   0.0370370
        k(   28) = (   0.1666667  -0.4725183  -0.5000000), wk =   0.0185185
        k(   29) = (   0.3333333   0.0000000   0.3333333), wk =   0.0370370
        k(   30) = (   0.3333333   0.0000000  -0.5000000), wk =   0.0185185
        k(   31) = (   0.3333333   0.1575061   0.3333333), wk =   0.0740741
        k(   32) = (   0.3333333   0.1575061  -0.5000000), wk =   0.0370370
        k(   33) = (   0.3333333   0.3150122   0.3333333), wk =   0.0740741
        k(   34) = (   0.3333333   0.3150122  -0.5000000), wk =   0.0370370
        k(   35) = (   0.3333333  -0.4725183   0.3333333), wk =   0.0370370
        k(   36) = (   0.3333333  -0.4725183  -0.5000000), wk =   0.0185185
        k(   37) = (  -0.5000000   0.0000000  -0.5000000), wk =   0.0092593
        k(   38) = (  -0.5000000   0.1575061  -0.5000000), wk =   0.0185185
        k(   39) = (  -0.5000000   0.3150122  -0.5000000), wk =   0.0185185
        k(   40) = (  -0.5000000  -0.4725183  -0.5000000), wk =   0.0092593
        k(   41) = (   0.1666667   0.0000000   0.0000000), wk =   0.0185185
        k(   42) = (   0.3333333   0.0000000   0.0000000), wk =   0.0185185
        k(   43) = (  -0.5000000   0.0000000   0.0000000), wk =   0.0092593
        k(   44) = (   0.1666667  -0.1575061   0.0000000), wk =   0.0370370
        k(   45) = (   0.3333333  -0.1575061   0.0000000), wk =   0.0370370
        k(   46) = (  -0.5000000  -0.1575061   0.0000000), wk =   0.0185185
        k(   47) = (   0.1666667  -0.3150122   0.0000000), wk =   0.0370370
        k(   48) = (   0.3333333  -0.3150122   0.0000000), wk =   0.0370370
        k(   49) = (  -0.5000000  -0.3150122   0.0000000), wk =   0.0185185
        k(   50) = (   0.1666667   0.4725183   0.0000000), wk =   0.0185185
        k(   51) = (   0.3333333   0.4725183   0.0000000), wk =   0.0185185
        k(   52) = (  -0.5000000   0.4725183   0.0000000), wk =   0.0092593
        k(   53) = (   0.3333333   0.0000000   0.1666667), wk =   0.0370370
        k(   54) = (  -0.5000000   0.0000000   0.1666667), wk =   0.0185185
        k(   55) = (   0.3333333  -0.1575061   0.1666667), wk =   0.0740741
        k(   56) = (  -0.5000000  -0.1575061   0.1666667), wk =   0.0370370
        k(   57) = (   0.3333333  -0.3150122   0.1666667), wk =   0.0740741
        k(   58) = (  -0.5000000  -0.3150122   0.1666667), wk =   0.0370370
        k(   59) = (   0.3333333   0.4725183   0.1666667), wk =   0.0370370
        k(   60) = (  -0.5000000   0.4725183   0.1666667), wk =   0.0185185
        k(   61) = (  -0.5000000   0.0000000   0.3333333), wk =   0.0185185
        k(   62) = (  -0.5000000  -0.1575061   0.3333333), wk =   0.0370370
        k(   63) = (  -0.5000000  -0.3150122   0.3333333), wk =   0.0370370
        k(   64) = (  -0.5000000   0.4725183   0.3333333), wk =   0.0185185

     Initial potential from superposition of free atoms

     starting charge  367.99656, renormalised to  368.00000
     Starting wfc are  232 randomized atomic wfcs

     Self-consistent Calculation

     iteration #  1     ecut=   120.00 Ry     beta= 0.70
     Davidson diagonalization with overlap
     ethr =  1.00E-02,  avg # of iterations =  5.0

     total energy              =   -6253.97504329 Ry
     Harris-Foulkes estimate   =   -6264.54127445 Ry
     estimated scf accuracy    <      13.38203657 Ry

[...]

     End of self-consistent calculation

[...]
End final coordinates

     A final scf calculation at the relaxed structure.
     The G-vectors are recalculated for the final unit cell
     Results may differ from those at the preceding step.

     bravais-lattice index     =            0
     lattice parameter (alat)  =      13.8397  a.u.
     unit-cell volume          =    2802.0964 (a.u.)^3
     number of atoms/cell      =           32
     number of atomic types    =            2
     number of electrons       =       368.00
     number of Kohn-Sham states=          221
     kinetic-energy cutoff     =     120.0000  Ry
     charge density cutoff     =     480.0000  Ry
     convergence threshold     =      1.0E-10
     mixing beta               =       0.7000
     number of iterations used =            8  plain     mixing
     Exchange-correlation      = SLA PW NOGX NOGC ( 1  4  0  0 0 0)

     celldm(1)=  13.839685  celldm(2)=   0.000000  celldm(3)=   0.000000
     celldm(4)=   0.000000  celldm(5)=   0.000000  celldm(6)=   0.000000

     crystal axes: (cart. coord. in units of alat)
               a(1) = (   1.006264   0.000000   0.000000 )
               a(2) = (   0.000000   1.038331   0.000000 )
               a(3) = (   0.000000   0.000000   1.011711 )

     reciprocal axes: (cart. coord. in units 2 pi/alat)
               b(1) = (  0.993775  0.000000  0.000000 )
               b(2) = (  0.000000  0.963084  0.000000 )
               b(3) = (  0.000000  0.000000  0.988424 )

     PseudoPot. # 1 for W  read from file:
     /cluster/scratch/mnoe/QE/pps/W_ONCV_LDA-4.0.upf
     MD5 check sum: ba0307d5d4cd419d6f1d13dc49d7c13a
     Pseudo is Norm-conserving + core correction, Zval = 28.0
     Generated using ONCVPSP code by D. R. Hamann
     Using radial grid of 1380 points,  8 beta functions with:
                l(1) =   0
                l(2) =   0
                l(3) =   1
                l(4) =   1
                l(5) =   2
                l(6) =   2
                l(7) =   3
                l(8) =   3

     PseudoPot. # 2 for O  read from file:
     /cluster/scratch/mnoe/QE/pps/O_ONCV_LDA-3.0.upf
     MD5 check sum: a1bd6164e7280c17a38c229939bfbd54
     Pseudo is Norm-conserving + core correction, Zval =  6.0
     Generated using ONCVPSP code by D. R. Hamann
     Using radial grid of  926 points,  5 beta functions with:
                l(1) =   0
                l(2) =   0
                l(3) =   1
                l(4) =   1
                l(5) =   2

     atomic species   valence    mass     pseudopotential
        W             28.00   183.84000     W ( 1.00)
        O              6.00    15.99940     O ( 1.00)

      8 Sym. Ops., with inversion, found ( 6 have fractional translation)

   Cartesian axes

     site n.     atom                  positions (alat units)
         1           W   tau(   1) = (   0.2357476   0.2891541   0.0150239  )
         2           W   tau(   2) = (   0.7705166   0.7491767   0.9966875  )
         3           W   tau(   3) = (   0.2673845   0.2300113   0.5208796  )
         4           W   tau(   4) = (   0.7388796   0.8083195   0.4908318  )
         5           W   tau(   5) = (   0.7705166   0.2891541   0.4908318  )
         6           W   tau(   6) = (   0.2357476   0.7491767   0.5208796  )
         7           W   tau(   7) = (   0.7388796   0.2300113   0.9966875  )
         8           W   tau(   8) = (   0.2673845   0.8083195   0.0150239  )
         9           O   tau(   9) = (   0.2223743   0.0076827   0.0046741  )
        10           O   tau(  10) = (   0.7838899   1.0306481   1.0070373  )
        11           O   tau(  11) = (   0.2807578   0.5114827   0.5105298  )
        12           O   tau(  12) = (   0.7255064   0.5268482   0.5011816  )
        13           O   tau(  13) = (   0.7838899   0.0076827   0.5011816  )
        14           O   tau(  14) = (   0.2223743   1.0306481   0.5105298  )
        15           O   tau(  15) = (   0.7255064   0.5114827   1.0070373  )
        16           O   tau(  16) = (   0.2807578   0.5268482   0.0046741  )
        17           O   tau(  17) = (   0.5074590   0.2286820   0.4631669  )
        18           O   tau(  18) = (   0.4988052   0.8096489   0.5485446  )
        19           O   tau(  19) = (   1.0019373   0.2904834   0.9690226  )
        20           O   tau(  20) = (   0.0043269   0.7478474   0.0426888  )
        21           O   tau(  21) = (   0.4988052   0.2286820   0.0426888  )
        22           O   tau(  22) = (   0.5074590   0.8096489   0.9690226  )
        23           O   tau(  23) = (   0.0043269   0.2904834   0.5485446  )
        24           O   tau(  24) = (   1.0019373   0.7478474   0.4631669  )
        25           O   tau(  25) = (   0.7122392   0.2528336   0.7521872  )
        26           O   tau(  26) = (   0.2940250   0.7854973   0.2595242  )
        27           O   tau(  27) = (   0.7971571   0.2663319   0.2463315  )
        28           O   tau(  28) = (   0.2091071   0.7719990   0.7653799  )
        29           O   tau(  29) = (   0.2940250   0.2528336   0.7653799  )
        30           O   tau(  30) = (   0.7122392   0.7854973   0.2463315  )
        31           O   tau(  31) = (   0.2091071   0.2663319   0.2595242  )
        32           O   tau(  32) = (   0.7971571   0.7719990   0.7521872  )

     number of k points=    64  gaussian smearing, width (Ry)=  0.0007
                       cart. coord. in units 2pi/alat
        k(    1) = (   0.0000000   0.0000000   0.0000000), wk =   0.0092593
        k(    2) = (   0.0000000   0.0000000   0.1647374), wk =   0.0185185
        k(    3) = (   0.0000000   0.0000000   0.3294747), wk =   0.0185185
        k(    4) = (   0.0000000   0.0000000  -0.4942121), wk =   0.0092593
        k(    5) = (   0.0000000   0.1605140   0.0000000), wk =   0.0185185
        k(    6) = (   0.0000000   0.1605140   0.1647374), wk =   0.0370370
        k(    7) = (   0.0000000   0.1605140   0.3294747), wk =   0.0370370
        k(    8) = (   0.0000000   0.1605140  -0.4942121), wk =   0.0185185
        k(    9) = (   0.0000000   0.3210281   0.0000000), wk =   0.0185185
        k(   10) = (   0.0000000   0.3210281   0.1647374), wk =   0.0370370
        k(   11) = (   0.0000000   0.3210281   0.3294747), wk =   0.0370370
        k(   12) = (   0.0000000   0.3210281  -0.4942121), wk =   0.0185185
        k(   13) = (   0.0000000  -0.4815421   0.0000000), wk =   0.0092593
        k(   14) = (   0.0000000  -0.4815421   0.1647374), wk =   0.0185185
        k(   15) = (   0.0000000  -0.4815421   0.3294747), wk =   0.0185185
        k(   16) = (   0.0000000  -0.4815421  -0.4942121), wk =   0.0092593
        k(   17) = (   0.1656291   0.0000000   0.1647374), wk =   0.0370370
        k(   18) = (   0.1656291   0.0000000   0.3294747), wk =   0.0370370
        k(   19) = (   0.1656291   0.0000000  -0.4942121), wk =   0.0185185
        k(   20) = (   0.1656291   0.1605140   0.1647374), wk =   0.0740741
        k(   21) = (   0.1656291   0.1605140   0.3294747), wk =   0.0740741
        k(   22) = (   0.1656291   0.1605140  -0.4942121), wk =   0.0370370
        k(   23) = (   0.1656291   0.3210281   0.1647374), wk =   0.0740741
        k(   24) = (   0.1656291   0.3210281   0.3294747), wk =   0.0740741
        k(   25) = (   0.1656291   0.3210281  -0.4942121), wk =   0.0370370
        k(   26) = (   0.1656291  -0.4815421   0.1647374), wk =   0.0370370
        k(   27) = (   0.1656291  -0.4815421   0.3294747), wk =   0.0370370
        k(   28) = (   0.1656291  -0.4815421  -0.4942121), wk =   0.0185185
        k(   29) = (   0.3312583   0.0000000   0.3294747), wk =   0.0370370
        k(   30) = (   0.3312583   0.0000000  -0.4942121), wk =   0.0185185
        k(   31) = (   0.3312583   0.1605140   0.3294747), wk =   0.0740741
        k(   32) = (   0.3312583   0.1605140  -0.4942121), wk =   0.0370370
        k(   33) = (   0.3312583   0.3210281   0.3294747), wk =   0.0740741
        k(   34) = (   0.3312583   0.3210281  -0.4942121), wk =   0.0370370
        k(   35) = (   0.3312583  -0.4815421   0.3294747), wk =   0.0370370
        k(   36) = (   0.3312583  -0.4815421  -0.4942121), wk =   0.0185185
        k(   37) = (  -0.4968874   0.0000000  -0.4942121), wk =   0.0092593
        k(   38) = (  -0.4968874   0.1605140  -0.4942121), wk =   0.0185185
        k(   39) = (  -0.4968874   0.3210281  -0.4942121), wk =   0.0185185
        k(   40) = (  -0.4968874  -0.4815421  -0.4942121), wk =   0.0092593
        k(   41) = (   0.1656291   0.0000000   0.0000000), wk =   0.0185185
        k(   42) = (   0.3312583   0.0000000   0.0000000), wk =   0.0185185
        k(   43) = (  -0.4968874   0.0000000   0.0000000), wk =   0.0092593
        k(   44) = (   0.1656291  -0.1605140   0.0000000), wk =   0.0370370
        k(   45) = (   0.3312583  -0.1605140   0.0000000), wk =   0.0370370
        k(   46) = (  -0.4968874  -0.1605140   0.0000000), wk =   0.0185185
        k(   47) = (   0.1656291  -0.3210281   0.0000000), wk =   0.0370370
        k(   48) = (   0.3312583  -0.3210281   0.0000000), wk =   0.0370370
        k(   49) = (  -0.4968874  -0.3210281   0.0000000), wk =   0.0185185
        k(   50) = (   0.1656291   0.4815421   0.0000000), wk =   0.0185185
        k(   51) = (   0.3312583   0.4815421   0.0000000), wk =   0.0185185
        k(   52) = (  -0.4968874   0.4815421   0.0000000), wk =   0.0092593
        k(   53) = (   0.3312583   0.0000000   0.1647374), wk =   0.0370370
        k(   54) = (  -0.4968874   0.0000000   0.1647374), wk =   0.0185185
        k(   55) = (   0.3312583  -0.1605140   0.1647374), wk =   0.0740741
        k(   56) = (  -0.4968874  -0.1605140   0.1647374), wk =   0.0370370
        k(   57) = (   0.3312583  -0.3210281   0.1647374), wk =   0.0740741
        k(   58) = (  -0.4968874  -0.3210281   0.1647374), wk =   0.0370370
        k(   59) = (   0.3312583   0.4815421   0.1647374), wk =   0.0370370
        k(   60) = (  -0.4968874   0.4815421   0.1647374), wk =   0.0185185
        k(   61) = (  -0.4968874   0.0000000   0.3294747), wk =   0.0185185
        k(   62) = (  -0.4968874  -0.1605140   0.3294747), wk =   0.0370370
        k(   63) = (  -0.4968874  -0.3210281   0.3294747), wk =   0.0370370
        k(   64) = (  -0.4968874   0.4815421   0.3294747), wk =   0.0185185

     Initial potential from superposition of free atoms

     starting charge  367.99656, renormalised to  368.00000
     Starting wfc are  232 randomized atomic wfcs

     Writing output data file Landau_34.save

     Self-consistent Calculation

[...]

     total energy              =   -6261.11322152 Ry
     Harris-Foulkes estimate   =   -6261.11322152 Ry
     estimated scf accuracy    <          1.6E-10 Ry

     iteration # 15     ecut=   120.00 Ry     beta= 0.70
     Davidson diagonalization with overlap
     ethr =  1.00E-13,  avg # of iterations =  2.0

     End of self-consistent calculation

[...]

          k = 0.3313 0.4815 0.1647 ( 62232 PWs)   bands (ev):

[...]

          k =-0.4969 0.4815 0.3295 ( 62172 PWs)   bands (ev):

   -66.1383 -66.1383 -66.1383 -66.1383 -66.1379 -66.1379 -66.1379 -66.1379
   -30.4959 -30.4959 -30.4955 -30.4955 -30.4861 -30.4861 -30.4846 -30.4846
   -30.4764 -30.4764 -30.4752 -30.4752 -30.4528 -30.4528 -30.4523 -30.4523
   -30.4338 -30.4338 -30.4319 -30.4319 -30.4193 -30.4193 -30.4184 -30.4184
   -20.3023 -20.3023 -20.3023 -20.3023 -20.3019 -20.3019 -20.3019 -20.3019
   -20.2817 -20.2817 -20.2817 -20.2817 -20.2814 -20.2814 -20.2814 -20.2814
   -20.2754 -20.2754 -20.2754 -20.2754 -20.2751 -20.2751 -20.2751 -20.2751
   -20.2676 -20.2676 -20.2673 -20.2673 -20.2671 -20.2671 -20.2667 -20.2667
   -20.2640 -20.2640 -20.2637 -20.2637 -20.2635 -20.2635 -20.2633 -20.2633
   -20.2628 -20.2628 -20.2625 -20.2625 -20.2602 -20.2602 -20.2602 -20.2602
   -20.2483 -20.2483 -20.2483 -20.2483 -20.2476 -20.2476 -20.2476 -20.2476
    -9.1659  -9.1659  -9.1527  -9.1527  -8.7834  -8.7834  -8.7512  -8.7512
    -8.5238  -8.5237  -8.4930  -8.4930  -8.3788  -8.3788  -8.3486  -8.3486
    -8.3114  -8.3114  -8.2903  -8.2903  -8.1094  -8.1094  -8.1083  -8.1083
     2.2708   2.2708   2.2883   2.2883   2.9599   2.9599   3.0074   3.0074
     3.0797   3.0797   3.1427   3.1427   3.1802   3.1802   3.2512   3.2512
     3.4694   3.4694   3.5267   3.5267   3.6321   3.6321   3.6930   3.6930
     3.8642   3.8642   4.0314   4.0315   4.2439   4.2439   4.2540   4.2540
     4.3189   4.3189   4.3780   4.3780   4.5055   4.5055   4.6049   4.6049
     4.7253   4.7253   4.8429   4.8429   5.0432   5.0432   5.0740   5.0740
     6.9733   6.9733   7.0876   7.0876   7.1261   7.1262   7.1668   7.1668
     7.2446   7.2447   7.3347   7.3347   7.3975   7.3975   7.4495   7.4495
     7.5076   7.5076   7.5763   7.5764   7.6121   7.6122   7.6574   7.6574
    11.5652  11.5653  11.6334  11.6334  11.6718  11.6718  11.8076  11.8076
    12.2202  12.2202  12.2641  12.2641  12.2932  12.2932  12.4365  12.4365
    12.5286  12.5286  12.6780  12.6780  12.8720  12.8720  12.9588  12.9588
    16.4332  16.4332  16.4825  16.4825  17.0016  17.0016  17.1532  17.1532
    17.3063  17.3063  17.4391  17.4392  17.4862

     the Fermi energy is     9.0387 ev

!    total energy              =   -6261.11322152 Ry
     Harris-Foulkes estimate   =   -6261.11322152 Ry
     estimated scf accuracy    <          4.7E-12 Ry

     The total energy is the sum of the following terms:

     one-electron contribution =   -4708.66867652 Ry
     hartree contribution      =    2591.36819993 Ry
     xc contribution           =    -965.66197155 Ry
     ewald contribution        =   -3178.15077337 Ry
     smearing contrib. (-TS)   =      -0.00000000 Ry

     convergence has been achieved in  15 iterations

     Forces acting on atoms (cartesian axes, Ry/au):

     atom    1 type  1   force =     0.00153396   -0.00041271   -0.00127105
     atom    2 type  1   force =    -0.00153396    0.00041271    0.00127105
     atom    3 type  1   force =    -0.00153396    0.00041271   -0.00127105
     atom    4 type  1   force =     0.00153396   -0.00041271    0.00127105
     atom    5 type  1   force =    -0.00153396   -0.00041271    0.00127105
     atom    6 type  1   force =     0.00153396    0.00041271   -0.00127105
     atom    7 type  1   force =     0.00153396    0.00041271    0.00127105
     atom    8 type  1   force =    -0.00153396   -0.00041271   -0.00127105
     atom    9 type  2   force =     0.00023610   -0.00002551   -0.00007270
     atom   10 type  2   force =    -0.00023610    0.00002551    0.00007270
     atom   11 type  2   force =    -0.00023610    0.00002551   -0.00007270
     atom   12 type  2   force =     0.00023610   -0.00002551    0.00007270
     atom   13 type  2   force =    -0.00023610   -0.00002551    0.00007270
     atom   14 type  2   force =     0.00023610    0.00002551   -0.00007270
     atom   15 type  2   force =     0.00023610    0.00002551    0.00007270
     atom   16 type  2   force =    -0.00023610   -0.00002551   -0.00007270
     atom   17 type  2   force =     0.00055328    0.00002067    0.00158374
     atom   18 type  2   force =    -0.00055328   -0.00002067   -0.00158374
     atom   19 type  2   force =    -0.00055328   -0.00002067    0.00158374
     atom   20 type  2   force =     0.00055328    0.00002067   -0.00158374
     atom   21 type  2   force =    -0.00055328    0.00002067   -0.00158374
     atom   22 type  2   force =     0.00055328   -0.00002067    0.00158374
     atom   23 type  2   force =     0.00055328   -0.00002067   -0.00158374
     atom   24 type  2   force =    -0.00055328    0.00002067    0.00158374
     atom   25 type  2   force =    -0.00169194    0.00038271   -0.00067256
     atom   26 type  2   force =     0.00169194   -0.00038271    0.00067256
     atom   27 type  2   force =     0.00169194   -0.00038271   -0.00067256
     atom   28 type  2   force =    -0.00169194    0.00038271    0.00067256
     atom   29 type  2   force =     0.00169194    0.00038271    0.00067256
     atom   30 type  2   force =    -0.00169194   -0.00038271   -0.00067256
     atom   31 type  2   force =    -0.00169194   -0.00038271    0.00067256
     atom   32 type  2   force =     0.00169194    0.00038271   -0.00067256

     Total force =     0.000000     Total SCF correction =     0.000000

     Computing stress (Cartesian axis) and pressure

          total   stress  (Ry/bohr**3)                   (kbar)     P=    0.19
   0.00000191   0.00000000   0.00000000          0.28      0.00      0.00
   0.00000000  -0.00000166   0.00000000          0.00     -0.24      0.00
   0.00000000   0.00000000   0.00000356          0.00      0.00      0.52

     Writing output data file Landau_34.save

     General routines

     Parallel routines

   This run was terminated on:  22: 3:42   4Mar2020

   JOB DONE.