     Program PWSCF v.6.2 (svn rev. 14038) starts on 10Sep2019 at 18:44: 8

     K-points division:     npool     =      40
     Reading input from scf.in

     Current dimensions of program PWSCF are:
     Max number of different atomic species (ntypx) = 10
     Max number of k-points (npk) =  40000
     Max angular momentum in pseudopotentials (lmaxx) =  3

     Subspace diagonalization in iterative solution of the eigenvalue problem:
     a serial algorithm will be used

     bravais-lattice index     =            0
     lattice parameter (alat)  =      13.8492  a.u.
     unit-cell volume          =    2793.5572 (a.u.)^3
     number of atoms/cell      =           32
     number of atomic types    =            2
     number of electrons       =       368.15
     number of Kohn-Sham states=          221
     kinetic-energy cutoff     =     120.0000  Ry
     charge density cutoff     =     480.0000  Ry
     convergence threshold     =      1.0E-08
     mixing beta               =       0.7000
     number of iterations used =            8  plain     mixing
     Exchange-correlation      = SLA PW NOGX NOGC ( 1  4  0  0 0 0)

     celldm(1)=  13.849183  celldm(2)=   0.000000  celldm(3)=   0.000000
     celldm(4)=   0.000000  celldm(5)=   0.000000  celldm(6)=   0.000000

     crystal axes: (cart. coord. in units of alat)
               a(1) = (   1.000000   0.000000   0.000000 )
               a(2) = (   0.000000   1.051684   0.000000 )
               a(3) = (   0.000000   0.000000   1.000000 )

     reciprocal axes: (cart. coord. in units 2 pi/alat)
               b(1) = (  1.000000  0.000000  0.000000 )
               b(2) = (  0.000000  0.950856  0.000000 )
               b(3) = (  0.000000  0.000000  1.000000 )

     PseudoPot. # 1 for W  read from file:
     /cluster/scratch/mnoe/QE/pps/W_ONCV_LDA-4.0.upf
     MD5 check sum: ba0307d5d4cd419d6f1d13dc49d7c13a
     Pseudo is Norm-conserving + core correction, Zval = 28.0
     Generated using ONCVPSP code by D. R. Hamann
     Using radial grid of 1380 points,  8 beta functions with:
                l(1) =   0
                l(2) =   0
                l(3) =   1
                l(4) =   1
                l(5) =   2
                l(6) =   2
                l(7) =   3
                l(8) =   3

     PseudoPot. # 2 for O  read from file:
     /cluster/scratch/mnoe/QE/pps/O_ONCV_LDA-3.0.upf
     MD5 check sum: ca1549d10c4e927e51167f6fca52ae32
     Pseudo is Norm-conserving + core correction, Zval =  6.0
     Generated using ONCVPSP code by D. R. Hamann
     Using radial grid of  926 points,  5 beta functions with:
                l(1) =   0
                l(2) =   0
                l(3) =   1
                l(4) =   1
                l(5) =   2

     atomic species   valence    mass     pseudopotential
        W             28.00   183.84000     W ( 1.00)
        O              6.00    15.99940     O ( 1.00)

      8 Sym. Ops. (no inversion) found ( 4 have fractional translation)

   Cartesian axes

     site n.     atom                  positions (alat units)
         1           W   tau(   1) = (   0.2634900   0.2964276   0.2503900  )
         2           W   tau(   2) = (  -0.2503900   0.7552561  -0.7365100  )
         3           W   tau(   3) = (   0.2365100   0.2294143   0.7503900  )
         4           W   tau(   4) = (   0.7503900   0.8222694   0.7634900  )
         5           W   tau(   5) = (   0.7365100   0.2964276   0.7496100  )
         6           W   tau(   6) = (   0.2503900   0.7552561   0.7365100  )
         7           W   tau(   7) = (  -0.2365100   0.2294143  -0.7503900  )
         8           W   tau(   8) = (   0.2496100   0.8222694   0.2365100  )
         9           O   tau(   9) = (   0.2648400   0.0087500   0.2607600  )
        10           O   tau(  10) = (  -0.2607599   1.0429337  -0.7351600  )
        11           O   tau(  11) = (   0.2351600   0.5170918   0.7607600  )
        12           O   tau(  12) = (   0.7607600   0.5345918   0.7648400  )
        13           O   tau(  13) = (   0.7351600   0.0087500   0.7392400  )
        14           O   tau(  14) = (   0.2607600   1.0429337   0.7351600  )
        15           O   tau(  15) = (  -0.2351600   0.5170918  -0.7607599  )
        16           O   tau(  16) = (   0.2392400   0.5345918   0.2351600  )
        17           O   tau(  17) = (   0.4952200   0.2797478   0.6995400  )
        18           O   tau(  18) = (   0.4990201   0.7779724   0.8004600  )
        19           O   tau(  19) = (  -0.9952200   0.2460940   1.1995400  )
        20           O   tau(  20) = (   0.0009800   0.7995530   0.3004600  )
        21           O   tau(  21) = (   0.5047800   0.2797478   0.3004600  )
        22           O   tau(  22) = (   0.5009799   0.7779724   1.1995400  )
        23           O   tau(  23) = (  -0.0047799   0.2460940   0.8004600  )
        24           O   tau(  24) = (  -1.0009800   0.7995530   0.6995400  )
        25           O   tau(  25) = (   0.6995400   0.2521306   2.0009799  )
        26           O   tau(  26) = (   0.3004600   0.7719358   0.4952200  )
        27           O   tau(  27) = (   0.8004600   0.2737112   0.5009800  )
        28           O   tau(  28) = (   0.1995400   0.8055896   1.9952200  )
        29           O   tau(  29) = (   0.3004600   0.2521306   0.9990200  )
        30           O   tau(  30) = (   0.6995400   0.7719358   0.5047800  )
        31           O   tau(  31) = (   0.1995400   0.2737112   0.4990200  )
        32           O   tau(  32) = (   0.8004600   0.8055896   1.0047799  )

     number of k points=    40  gaussian smearing, width (Ry)=  0.0007
                       cart. coord. in units 2pi/alat
        k(    1) = (   0.0000000   0.0000000   0.0000000), wk =   0.0092593
        k(    2) = (   0.0000000   0.0000000   0.1666667), wk =   0.0370370
        k(    3) = (   0.0000000   0.0000000   0.3333333), wk =   0.0370370
        k(    4) = (   0.0000000   0.0000000  -0.5000000), wk =   0.0185185
        k(    5) = (   0.0000000   0.1584760   0.0000000), wk =   0.0185185
        k(    6) = (   0.0000000   0.1584760   0.1666667), wk =   0.0740741
        k(    7) = (   0.0000000   0.1584760   0.3333333), wk =   0.0740741
        k(    8) = (   0.0000000   0.1584760  -0.5000000), wk =   0.0370370
        k(    9) = (   0.0000000   0.3169521   0.0000000), wk =   0.0185185
        k(   10) = (   0.0000000   0.3169521   0.1666667), wk =   0.0740741
        k(   11) = (   0.0000000   0.3169521   0.3333333), wk =   0.0740741
        k(   12) = (   0.0000000   0.3169521  -0.5000000), wk =   0.0370370
        k(   13) = (   0.0000000  -0.4754281   0.0000000), wk =   0.0092593
        k(   14) = (   0.0000000  -0.4754281   0.1666667), wk =   0.0370370
        k(   15) = (   0.0000000  -0.4754281   0.3333333), wk =   0.0370370
        k(   16) = (   0.0000000  -0.4754281  -0.5000000), wk =   0.0185185
        k(   17) = (   0.1666667   0.0000000   0.1666667), wk =   0.0370370
        k(   18) = (   0.1666667   0.0000000   0.3333333), wk =   0.0740741
        k(   19) = (   0.1666667   0.0000000  -0.5000000), wk =   0.0370370
        k(   20) = (   0.1666667   0.1584760   0.1666667), wk =   0.0740741
        k(   21) = (   0.1666667   0.1584760   0.3333333), wk =   0.1481481
        k(   22) = (   0.1666667   0.1584760  -0.5000000), wk =   0.0740741
        k(   23) = (   0.1666667   0.3169521   0.1666667), wk =   0.0740741
        k(   24) = (   0.1666667   0.3169521   0.3333333), wk =   0.1481481
        k(   25) = (   0.1666667   0.3169521  -0.5000000), wk =   0.0740741
        k(   26) = (   0.1666667  -0.4754281   0.1666667), wk =   0.0370370
        k(   27) = (   0.1666667  -0.4754281   0.3333333), wk =   0.0740741
        k(   28) = (   0.1666667  -0.4754281  -0.5000000), wk =   0.0370370
        k(   29) = (   0.3333333   0.0000000   0.3333333), wk =   0.0370370
        k(   30) = (   0.3333333   0.0000000  -0.5000000), wk =   0.0370370
        k(   31) = (   0.3333333   0.1584760   0.3333333), wk =   0.0740741
        k(   32) = (   0.3333333   0.1584760  -0.5000000), wk =   0.0740741
        k(   33) = (   0.3333333   0.3169521   0.3333333), wk =   0.0740741
        k(   34) = (   0.3333333   0.3169521  -0.5000000), wk =   0.0740741
        k(   35) = (   0.3333333  -0.4754281   0.3333333), wk =   0.0370370
        k(   36) = (   0.3333333  -0.4754281  -0.5000000), wk =   0.0370370
        k(   37) = (  -0.5000000   0.0000000  -0.5000000), wk =   0.0092593
        k(   38) = (  -0.5000000   0.1584760  -0.5000000), wk =   0.0185185
        k(   39) = (  -0.5000000   0.3169521  -0.5000000), wk =   0.0185185
        k(   40) = (  -0.5000000  -0.4754281  -0.5000000), wk =   0.0092593

     Initial potential from superposition of free atoms

     starting charge  367.99656, renormalised to  368.15000
     Starting wfc are  232 randomized atomic wfcs

     Self-consistent Calculation

     iteration #  1     ecut=   120.00 Ry     beta= 0.70
     Davidson diagonalization with overlap
     ethr =  1.00E-02,  avg # of iterations =  5.0

     total energy              =   -6253.87145311 Ry
     Harris-Foulkes estimate   =   -6264.49001779 Ry
     estimated scf accuracy    <      13.42990756 Ry

[...]

     total energy              =   -6261.00471300 Ry
     Harris-Foulkes estimate   =   -6261.00471301 Ry
     estimated scf accuracy    <       0.00000002 Ry

     iteration # 13     ecut=   120.00 Ry     beta= 0.70
     Davidson diagonalization with overlap
     ethr =  6.07E-12,  avg # of iterations =  3.0

     End of self-consistent calculation

          k = 0.0000 0.0000 0.0000 ( 62007 PWs)   bands (ev):

   -66.0577 -66.0573 -66.0567 -66.0567 -66.0563 -66.0563 -66.0557 -66.0553
   -30.4710 -30.4637 -30.4637 -30.4561 -30.4420 -30.4276 -30.4276 -30.4206
   -30.3979 -30.3918 -30.3918 -30.3879 -30.3859 -30.3853 -30.3812 -30.3812
   -30.3257 -30.3254 -30.3254 -30.3215 -30.2897 -30.2897 -30.2853 -30.2840
   -20.2137 -20.2136 -20.2135 -20.2135 -20.2133 -20.2133 -20.2132 -20.2131
   -20.1990 -20.1986 -20.1986 -20.1982 -20.1958 -20.1954 -20.1954 -20.1949
   -20.1945 -20.1943 -20.1943 -20.1940 -20.1932 -20.1927 -20.1927 -20.1923
   -20.1905 -20.1898 -20.1897 -20.1891 -20.1885 -20.1881 -20.1881 -20.1876
   -20.1830 -20.1823 -20.1816 -20.1816 -20.1798 -20.1798 -20.1779 -20.1775
   -20.1770 -20.1770 -20.1739 -20.1739 -20.1729 -20.1729 -20.1729 -20.1727
   -20.1713 -20.1712 -20.1701 -20.1701 -20.1678 -20.1678 -20.1670 -20.1669
    -9.8783  -9.5886  -9.4360  -9.4360  -9.1439  -9.1439  -9.0011  -8.9481
    -8.9386  -8.7975  -8.7654  -8.7654  -7.8205  -7.7517  -7.7223  -7.7220
    -7.7220  -7.6753  -7.6623  -7.6580  -7.5965  -7.5965  -7.5189  -7.5189
     1.3089   1.3144   1.3713   1.3713   1.4337   1.4337   1.4685   1.7047
     1.7159   1.7159   1.7452   1.9584   2.4587   2.5417   2.6199   2.6661
     2.7945   2.7945   4.2128   4.2128   4.4587   4.4623   4.8060   4.8795
     4.8795   4.9059   4.9148   4.9148   5.1310   5.1310   5.2232   5.5055
     5.5076   5.5712   5.5712   5.6305   5.6305   5.7276   5.7276   5.8974
     5.8974   5.9250   5.9355   5.9403   6.0254   6.0338   6.0517   6.1756
     6.1848   6.3313   6.3482   6.6089   6.6089   6.8534   6.8930   6.8930
     6.9202   6.9258   7.0328   7.0889   7.1228   7.1228   7.3525   7.3525
     7.4973   7.4973   7.8214   7.8380   8.1173   8.1173   8.1474   8.2146
     9.4973   9.5064  10.1236  10.1376  10.1602  10.1602  12.3199  12.3199
    12.3639  12.3639  12.5158  12.5158  12.6079  12.6948  12.7424  12.8731
    13.2571  13.3960  13.4326  13.4326  13.7871  14.0652  14.0652  14.1890
    14.3887  14.6089  14.6089  14.9811  15.5046  15.5102  15.5898  16.0978
    16.0978  16.8489  17.0881  17.0881  17.5785

[...]

          k = 0.3333-0.4754-0.5000 ( 61928 PWs)   bands (ev):

[...]

          k =-0.5000 0.0000-0.5000 ( 62100 PWs)   bands (ev):

[...]

          k =-0.5000-0.4754-0.5000 ( 62016 PWs)   bands (ev):

   -66.0565 -66.0565 -66.0565 -66.0565 -66.0565 -66.0565 -66.0565 -66.0565
   -30.4355 -30.4355 -30.4346 -30.4346 -30.4346 -30.4346 -30.4343 -30.4343
   -30.3719 -30.3719 -30.3718 -30.3718 -30.3718 -30.3718 -30.3708 -30.3708
   -30.3349 -30.3349 -30.3347 -30.3347 -30.3346 -30.3346 -30.3346 -30.3346
   -20.2134 -20.2134 -20.2134 -20.2134 -20.2134 -20.2134 -20.2134 -20.2134
   -20.1966 -20.1966 -20.1965 -20.1965 -20.1965 -20.1965 -20.1965 -20.1965
   -20.1941 -20.1941 -20.1941 -20.1941 -20.1941 -20.1941 -20.1941 -20.1941
   -20.1889 -20.1889 -20.1889 -20.1889 -20.1889 -20.1889 -20.1888 -20.1888
   -20.1801 -20.1801 -20.1801 -20.1801 -20.1800 -20.1800 -20.1800 -20.1800
   -20.1735 -20.1735 -20.1735 -20.1735 -20.1734 -20.1734 -20.1734 -20.1734
   -20.1703 -20.1703 -20.1703 -20.1703 -20.1702 -20.1702 -20.1702 -20.1702
    -8.8888  -8.8888  -8.8617  -8.8616  -8.8585  -8.8585  -8.8585  -8.8585
    -8.3712  -8.3711  -8.3295  -8.3295  -8.3295  -8.3295  -8.3260  -8.3259
    -8.2698  -8.2697  -8.2697  -8.2697  -8.2430  -8.2429  -8.2229  -8.2228
     3.0141   3.0141   3.0151   3.0151   3.0151   3.0151   3.0355   3.0355
     3.2630   3.2630   3.2630   3.2630   3.2640   3.2640   3.2867   3.2867
     3.3933   3.3933   3.5351   3.5351   3.5351   3.5351   3.5984   3.5985
     4.1995   4.1995   4.2199   4.2199   4.2336   4.2336   4.2336   4.2336
     4.4365   4.4365   4.4365   4.4365   4.4575   4.4575   4.4878   4.4878
     4.5616   4.5616   4.5732   4.5733   4.5917   4.5917   4.5918   4.5918
     7.1337   7.1338   7.2395   7.2395   7.2395   7.2395   7.3677   7.3677
     7.4209   7.4209   7.4209   7.4209   7.4239   7.4240   7.4364   7.4365
     7.6272   7.6272   7.6531   7.6531   7.6531   7.6531   7.7011   7.7011
    11.9261  11.9261  11.9261  11.9261  11.9274  11.9274  11.9366  11.9366
    12.2691  12.2691  12.3448  12.3448  12.3448  12.3448  12.4881  12.4881
    12.5804  12.5804  12.6519  12.6519  12.6519  12.6519  12.6787  12.6787
    17.1619  17.1620  17.1919  17.1919  17.1919  17.1919  17.2279  17.2279
    17.4177  17.4177  17.4177  17.4177  17.4858

     the Fermi energy is     9.8104 ev

!    total energy              =   -6261.00471300 Ry
     Harris-Foulkes estimate   =   -6261.00471300 Ry
     estimated scf accuracy    <          5.8E-10 Ry

     The total energy is the sum of the following terms:

     one-electron contribution =   -4700.56631793 Ry
     hartree contribution      =    2588.42837350 Ry
     xc contribution           =    -965.82958298 Ry
     ewald contribution        =   -3183.03716528 Ry
     smearing contrib. (-TS)   =      -0.00002031 Ry

     convergence has been achieved in  13 iterations

     Writing output data file Landau_15.save

     General routines

     Parallel routines

   This run was terminated on:  19: 1:41  10Sep2019

   JOB DONE.