     Program PWSCF v.6.2 (svn rev. 14038) starts on 17Sep2019 at 14:27:14

     K-points division:     npool     =      40
     Reading input from scf.in

     Current dimensions of program PWSCF are:
     Max number of different atomic species (ntypx) = 10
     Max number of k-points (npk) =  40000
     Max angular momentum in pseudopotentials (lmaxx) =  3

     Subspace diagonalization in iterative solution of the eigenvalue problem:
     a serial algorithm will be used

     Found symmetry operation: I + ( -0.5000  0.0000 -0.5000)
     This is a supercell, fractional translations are disabled

     bravais-lattice index     =            0
     lattice parameter (alat)  =      13.8397  a.u.
     unit-cell volume          =    2804.9817 (a.u.)^3
     number of atoms/cell      =           32
     number of atomic types    =            2
     number of electrons       =       369.00
     number of Kohn-Sham states=          222
     kinetic-energy cutoff     =     120.0000  Ry
     charge density cutoff     =     480.0000  Ry
     convergence threshold     =      1.0E-08
     mixing beta               =       0.7000
     number of iterations used =            8  plain     mixing
     Exchange-correlation      = SLA PW NOGX NOGC ( 1  4  0  0 0 0)

     celldm(1)=  13.839685  celldm(2)=   0.000000  celldm(3)=   0.000000
     celldm(4)=   0.000000  celldm(5)=   0.000000  celldm(6)=   0.000000

     crystal axes: (cart. coord. in units of alat)
               a(1) = (   1.000000   0.000000   0.000000 )
               a(2) = (   0.000000   1.058160   0.000000 )
               a(3) = (   0.000000   0.000000   1.000000 )

     reciprocal axes: (cart. coord. in units 2 pi/alat)
               b(1) = (  1.000000  0.000000  0.000000 )
               b(2) = (  0.000000  0.945037  0.000000 )
               b(3) = (  0.000000  0.000000  1.000000 )

     PseudoPot. # 1 for W  read from file:
     /cluster/scratch/mnoe/QE/pps/W_ONCV_LDA-4.0.upf
     MD5 check sum: ba0307d5d4cd419d6f1d13dc49d7c13a
     Pseudo is Norm-conserving + core correction, Zval = 28.0
     Generated using ONCVPSP code by D. R. Hamann
     Using radial grid of 1380 points,  8 beta functions with:
                l(1) =   0
                l(2) =   0
                l(3) =   1
                l(4) =   1
                l(5) =   2
                l(6) =   2
                l(7) =   3
                l(8) =   3

     PseudoPot. # 2 for O  read from file:
     /cluster/scratch/mnoe/QE/pps/O_ONCV_LDA-3.0.upf
     MD5 check sum: ca1549d10c4e927e51167f6fca52ae32
     Pseudo is Norm-conserving + core correction, Zval =  6.0
     Generated using ONCVPSP code by D. R. Hamann
     Using radial grid of  926 points,  5 beta functions with:
                l(1) =   0
                l(2) =   0
                l(3) =   1
                l(4) =   1
                l(5) =   2

     atomic species   valence    mass     pseudopotential
        W             28.00   183.84000     W ( 1.00)
        O              6.00    15.99940     O ( 1.00)

      4 Sym. Ops. (no inversion) found

   Cartesian axes

     site n.     atom                  positions (alat units)
         1           W   tau(   1) = (   0.2500000   0.2982530   0.2500000  )
         2           W   tau(   2) = (   0.7500000   0.7599071   0.2500000  )
         3           W   tau(   3) = (   0.2500000   0.2308271   0.7500000  )
         4           W   tau(   4) = (   0.7500000   0.8273330   0.7500000  )
         5           W   tau(   5) = (   0.7500000   0.2982530   0.7500000  )
         6           W   tau(   6) = (   0.2500000   0.7599071   0.7500000  )
         7           W   tau(   7) = (   0.7500000   0.2308271   0.2500000  )
         8           W   tau(   8) = (   0.2500000   0.8273330   0.2500000  )
         9           O   tau(   9) = (   0.2500000   0.0088039   0.2500000  )
        10           O   tau(  10) = (   0.7500000   1.0493562   0.2500000  )
        11           O   tau(  11) = (   0.2500000   0.5202761   0.7500000  )
        12           O   tau(  12) = (   0.7500000   0.5378839   0.7500000  )
        13           O   tau(  13) = (   0.7500000   0.0088039   0.7500000  )
        14           O   tau(  14) = (   0.2500000   1.0493562   0.7500000  )
        15           O   tau(  15) = (   0.7500000   0.5202761   0.2500000  )
        16           O   tau(  16) = (   0.2500000   0.5378839   0.2500000  )
        17           O   tau(  17) = (   0.5000000   0.2645400   0.6995400  )
        18           O   tau(  18) = (   0.5000000   0.7936200   0.8004600  )
        19           O   tau(  19) = (   0.0000000   0.2645400   1.1995400  )
        20           O   tau(  20) = (   0.0000000   0.7936200   0.3004600  )
        21           O   tau(  21) = (   0.5000000   0.2645400   0.3004600  )
        22           O   tau(  22) = (   0.5000000   0.7936200   1.1995400  )
        23           O   tau(  23) = (   0.0000000   0.2645400   0.8004600  )
        24           O   tau(  24) = (   0.0000000   0.7936200   0.6995400  )
        25           O   tau(  25) = (   0.6995400   0.2645400   1.0000000  )
        26           O   tau(  26) = (   0.3004600   0.7936200   0.5000000  )
        27           O   tau(  27) = (   0.8004600   0.2645400   0.5000000  )
        28           O   tau(  28) = (   0.1995400   0.7936200   1.0000000  )
        29           O   tau(  29) = (   0.3004600   0.2645400   1.0000000  )
        30           O   tau(  30) = (   0.6995400   0.7936200   0.5000000  )
        31           O   tau(  31) = (   0.1995400   0.2645400   0.5000000  )
        32           O   tau(  32) = (   0.8004600   0.7936200   1.0000000  )

     number of k points=    44  gaussian smearing, width (Ry)=  0.0007
                       cart. coord. in units 2pi/alat
        k(    1) = (   0.0000000   0.0000000   0.0000000), wk =   0.0092593
        k(    2) = (   0.0000000   0.0000000   0.1666667), wk =   0.0370370
        k(    3) = (   0.0000000   0.0000000   0.3333333), wk =   0.0370370
        k(    4) = (   0.0000000   0.0000000  -0.5000000), wk =   0.0185185
        k(    5) = (   0.0000000   0.1575061   0.0000000), wk =   0.0185185
        k(    6) = (   0.0000000   0.1575061   0.1666667), wk =   0.0740741
        k(    7) = (   0.0000000   0.1575061   0.3333333), wk =   0.0740741
        k(    8) = (   0.0000000   0.1575061  -0.5000000), wk =   0.0370370
        k(    9) = (   0.0000000   0.3150122   0.0000000), wk =   0.0185185
        k(   10) = (   0.0000000   0.3150122   0.1666667), wk =   0.0740741
        k(   11) = (   0.0000000   0.3150122   0.3333333), wk =   0.0740741
        k(   12) = (   0.0000000   0.3150122  -0.5000000), wk =   0.0370370
        k(   13) = (   0.0000000  -0.4725183   0.0000000), wk =   0.0092593
        k(   14) = (   0.0000000  -0.4725183   0.1666667), wk =   0.0370370
        k(   15) = (   0.0000000  -0.4725183   0.3333333), wk =   0.0370370
        k(   16) = (   0.0000000  -0.4725183  -0.5000000), wk =   0.0185185
        k(   17) = (   0.1666667   0.0000000   0.1666667), wk =   0.0370370
        k(   18) = (   0.1666667   0.0000000   0.3333333), wk =   0.0370370
        k(   19) = (   0.1666667   0.0000000  -0.5000000), wk =   0.0370370
        k(   20) = (   0.1666667   0.1575061   0.1666667), wk =   0.0740741
        k(   21) = (   0.1666667   0.1575061   0.3333333), wk =   0.0740741
        k(   22) = (   0.1666667   0.1575061  -0.5000000), wk =   0.0740741
        k(   23) = (   0.1666667   0.3150122   0.1666667), wk =   0.0740741
        k(   24) = (   0.1666667   0.3150122   0.3333333), wk =   0.0740741
        k(   25) = (   0.1666667   0.3150122  -0.5000000), wk =   0.0740741
        k(   26) = (   0.1666667  -0.4725183   0.1666667), wk =   0.0370370
        k(   27) = (   0.1666667  -0.4725183   0.3333333), wk =   0.0370370
        k(   28) = (   0.1666667  -0.4725183  -0.5000000), wk =   0.0370370
        k(   29) = (   0.3333333   0.0000000   0.3333333), wk =   0.0370370
        k(   30) = (   0.3333333   0.0000000  -0.5000000), wk =   0.0370370
        k(   31) = (   0.3333333   0.1575061   0.3333333), wk =   0.0740741
        k(   32) = (   0.3333333   0.1575061  -0.5000000), wk =   0.0740741
        k(   33) = (   0.3333333   0.3150122   0.3333333), wk =   0.0740741
        k(   34) = (   0.3333333   0.3150122  -0.5000000), wk =   0.0740741
        k(   35) = (   0.3333333  -0.4725183   0.3333333), wk =   0.0370370
        k(   36) = (   0.3333333  -0.4725183  -0.5000000), wk =   0.0370370
        k(   37) = (  -0.5000000   0.0000000  -0.5000000), wk =   0.0092593
        k(   38) = (  -0.5000000   0.1575061  -0.5000000), wk =   0.0185185
        k(   39) = (  -0.5000000   0.3150122  -0.5000000), wk =   0.0185185
        k(   40) = (  -0.5000000  -0.4725183  -0.5000000), wk =   0.0092593
        k(   41) = (   0.3333333   0.0000000   0.1666667), wk =   0.0370370
        k(   42) = (   0.3333333  -0.1575061   0.1666667), wk =   0.0740741
        k(   43) = (   0.3333333  -0.3150122   0.1666667), wk =   0.0740741
        k(   44) = (   0.3333333   0.4725183   0.1666667), wk =   0.0370370

     Initial potential from superposition of free atoms

     starting charge  367.99656, renormalised to  369.00000
     Starting wfc are  232 randomized atomic wfcs

     Self-consistent Calculation

     iteration #  1     ecut=   120.00 Ry     beta= 0.70
     Davidson diagonalization with overlap
     ethr =  1.00E-02,  avg # of iterations =  5.5

     total energy              =   -6253.08139739 Ry
     Harris-Foulkes estimate   =   -6264.05286074 Ry
     estimated scf accuracy    <      13.77450890 Ry

[...]

     total energy              =   -6260.39210170 Ry
     Harris-Foulkes estimate   =   -6260.39210172 Ry
     estimated scf accuracy    <       0.00000003 Ry

     iteration # 14     ecut=   120.00 Ry     beta= 0.70
     Davidson diagonalization with overlap
     ethr =  9.17E-12,  avg # of iterations =  2.9

     End of self-consistent calculation

          k = 0.0000 0.0000 0.0000 ( 62239 PWs)   bands (ev):

   -65.9450 -65.9446 -65.9440 -65.9440 -65.9436 -65.9436 -65.9430 -65.9426
   -30.4211 -30.4178 -30.4178 -30.4146 -30.3606 -30.3579 -30.3579 -30.3553
   -30.2816 -30.2816 -30.2781 -30.2781 -30.2761 -30.2761 -30.2728 -30.2728
   -30.1789 -30.1789 -30.1762 -30.1762 -30.1745 -30.1745 -30.1717 -30.1717
   -20.1032 -20.1029 -20.1029 -20.1027 -20.0978 -20.0975 -20.0975 -20.0972
   -20.0889 -20.0889 -20.0888 -20.0888 -20.0877 -20.0877 -20.0877 -20.0877
   -20.0869 -20.0868 -20.0867 -20.0867 -20.0866 -20.0866 -20.0866 -20.0865
   -20.0855 -20.0855 -20.0855 -20.0855 -20.0844 -20.0844 -20.0842 -20.0842
   -20.0676 -20.0675 -20.0673 -20.0673 -20.0672 -20.0672 -20.0669 -20.0669
   -20.0194 -20.0194 -20.0194 -20.0194 -20.0178 -20.0178 -20.0178 -20.0178
   -20.0136 -20.0136 -20.0136 -20.0136 -20.0120 -20.0120 -20.0120 -20.0120
    -9.8936  -9.5926  -9.4594  -9.4594  -9.1548  -9.1548  -9.0681  -8.9635
    -8.9513  -8.8467  -8.8066  -8.8066  -7.8496  -7.7897  -7.7897  -7.7376
    -7.6956  -7.6956  -7.6691  -7.6691  -7.5380  -7.5380  -7.5165  -7.5165
     1.3180   1.3186   1.3800   1.3800   1.4061   1.4061   1.4296   1.6673
     1.6682   1.6682   1.7479   1.9329   2.4744   2.5503   2.6050   2.6050
     2.7590   2.7590   4.1943   4.1943   4.4220   4.4220   4.8605   4.8605
     4.9538   4.9538   4.9807   4.9807   5.0680   5.0680   5.0888   5.4440
     5.4440   5.5684   5.5684   5.5754   5.5754   5.6027   5.6027   5.8478
     5.8478   5.9316   5.9316   5.9683   5.9782   6.1051   6.1051   6.2084
     6.2085   6.3031   6.3031   6.6147   6.6147   6.8273   6.8273   6.8676
     6.8676   6.9270   7.0559   7.0656   7.1311   7.1311   7.4798   7.4798
     7.5241   7.5241   7.8583   7.8729   8.1067   8.1067   8.1697   8.1697
     9.4124   9.4203  10.0847  10.0847  10.1197  10.1197  12.3731  12.3731
    12.3863  12.3863  12.4574  12.4574  12.5865  12.5865  13.0285  13.0317
    13.3297  13.3297  13.5075  13.5075  13.8720  14.2593  14.2593  14.2639
    14.2639  14.4606  14.4606  14.8382  15.5564  15.5917  15.6027  16.1969
    16.1969  16.9026  17.1337  17.1337  17.3756  17.3994

[...]

          k =-0.5000 0.0000-0.5000 ( 62308 PWs)   bands (ev):

[...]

          k =-0.5000-0.4725-0.5000 ( 62272 PWs)   bands (ev):

[...]

          k = 0.3333 0.4725 0.1667 ( 62252 PWs)   bands (ev):

   -65.9445 -65.9445 -65.9440 -65.9440 -65.9436 -65.9436 -65.9431 -65.9431
   -30.3904 -30.3904 -30.3888 -30.3888 -30.3878 -30.3878 -30.3863 -30.3863
   -30.2717 -30.2716 -30.2690 -30.2690 -30.2539 -30.2539 -30.2494 -30.2494
   -30.2029 -30.2028 -30.1988 -30.1988 -30.1833 -30.1833 -30.1810 -30.1810
   -20.1005 -20.1005 -20.1004 -20.1003 -20.1002 -20.1002 -20.1001 -20.1001
   -20.0881 -20.0881 -20.0880 -20.0880 -20.0876 -20.0876 -20.0875 -20.0875
   -20.0868 -20.0868 -20.0867 -20.0867 -20.0866 -20.0866 -20.0866 -20.0865
   -20.0857 -20.0857 -20.0856 -20.0856 -20.0851 -20.0851 -20.0851 -20.0851
   -20.0674 -20.0674 -20.0673 -20.0673 -20.0671 -20.0671 -20.0670 -20.0670
   -20.0186 -20.0186 -20.0179 -20.0179 -20.0179 -20.0178 -20.0166 -20.0166
   -20.0150 -20.0150 -20.0137 -20.0137 -20.0136 -20.0136 -20.0128 -20.0128
    -9.4597  -9.4596  -9.2271  -9.2269  -8.9447  -8.9443  -8.7525  -8.7523
    -8.5349  -8.5338  -8.4447  -8.4431  -8.4107  -8.4097  -8.3924  -8.3923
    -8.0876  -8.0870  -7.9860  -7.9855  -7.7646  -7.7642  -7.6885  -7.6882
     1.6842   1.6853   1.7074   1.7089   2.3411   2.3418   2.5210   2.5225
     2.9649   2.9706   3.2537   3.2540   3.2567   3.2574   3.2643   3.2728
     3.3103   3.3450   3.4705   3.5164   3.5189   3.5485   3.6967   3.7088
     3.7985   3.8123   3.9678   4.0378   4.4963   4.5471   4.6698   4.6779
     4.7302   4.7945   4.7981   4.8392   5.0261   5.0570   5.0744   5.0961
     5.1896   5.2363   5.4032   5.4667   5.8682   5.8821   6.3004   6.3005
     6.6844   6.6893   6.7327   6.7468   6.9035   6.9046   7.0831   7.1466
     7.1655   7.1943   7.2025   7.2379   7.2455   7.2486   7.4483   7.4577
     7.4817   7.4893   7.4909   7.5227   7.5243   7.5642   7.8439   7.8470
    10.6471  10.6506  11.4621  11.4804  11.4988  11.5101  11.8427  11.8596
    11.8623  11.8794  12.0110  12.0620  12.5516  12.6070  12.8424  12.8691
    13.0200  13.0517  13.2183  13.3049  13.5043  13.5341  13.5612  13.6195
    15.7442  15.7704  15.9665  15.9886  16.2687  16.3050  16.7233  16.7592
    16.8903  16.8947  17.3558  17.4111  17.8259  17.9085

     the Fermi energy is    10.0696 ev

!    total energy              =   -6260.39210171 Ry
     Harris-Foulkes estimate   =   -6260.39210171 Ry
     estimated scf accuracy    <          3.3E-09 Ry

     The total energy is the sum of the following terms:

     one-electron contribution =   -4724.11298441 Ry
     hartree contribution      =    2601.77929753 Ry
     xc contribution           =    -966.77728502 Ry
     ewald contribution        =   -3171.28112790 Ry
     smearing contrib. (-TS)   =      -0.00000191 Ry

     convergence has been achieved in  14 iterations

     Writing output data file Landau_0.save

     General routines

     Parallel routines

   This run was terminated on:  15: 0:34  17Sep2019

   JOB DONE.