     Program PWSCF v.6.4.1 starts on 22Nov2019 at  1:36:34

     K-points division:     npool     =      40
     Reading input from scf.in

     Current dimensions of program PWSCF are:
     Max number of different atomic species (ntypx) = 10
     Max number of k-points (npk) =  40000
     Max angular momentum in pseudopotentials (lmaxx) =  3

     Subspace diagonalization in iterative solution of the eigenvalue problem:
     a serial algorithm will be used

     Message from routine setup:
     using ibrav=0 with symmetry is DISCOURAGED, use correct ibrav instead

     bravais-lattice index     =            0
     lattice parameter (alat)  =      14.0808  a.u.
     unit-cell volume          =    2833.1644 (a.u.)^3
     number of atoms/cell      =           32
     number of atomic types    =            2
     number of electrons       =       368.52
     number of Kohn-Sham states=          221
     kinetic-energy cutoff     =     120.0000  Ry
     charge density cutoff     =     480.0000  Ry
     convergence threshold     =      1.0E-08
     mixing beta               =       0.7000
     number of iterations used =            8  plain     mixing
     Exchange-correlation      = SLA PW NOGX NOGC ( 1  4  0  0 0 0)

     celldm(1)=  14.080788  celldm(2)=   0.000000  celldm(3)=   0.000000
     celldm(4)=   0.000000  celldm(5)=   0.000000  celldm(6)=   0.000000

     crystal axes: (cart. coord. in units of alat)
               a(1) = (   1.000000   0.000000   0.000000 )
               a(2) = (   0.000000   1.016839   0.000000 )
               a(3) = (   0.000000   0.000000   0.998019 )

     reciprocal axes: (cart. coord. in units 2 pi/alat)
               b(1) = (  1.000000  0.000000  0.000000 )
               b(2) = (  0.000000  0.983440  0.000000 )
               b(3) = (  0.000000  0.000000  1.001985 )

     PseudoPot. # 1 for W  read from file:
     /cluster/scratch/mnoe/QE/pps/W_ONCV_LDA-4.0.upf
     MD5 check sum: ba0307d5d4cd419d6f1d13dc49d7c13a
     Pseudo is Norm-conserving + core correction, Zval = 28.0
     Generated using ONCVPSP code by D. R. Hamann
     Using radial grid of 1380 points,  8 beta functions with:
                l(1) =   0
                l(2) =   0
                l(3) =   1
                l(4) =   1
                l(5) =   2
                l(6) =   2
                l(7) =   3
                l(8) =   3

     PseudoPot. # 2 for O  read from file:
     /cluster/scratch/mnoe/QE/pps/O_ONCV_LDA-3.0.upf
     MD5 check sum: b55cdb4f45ae2203d24ad12cf8d61a31
     Pseudo is Norm-conserving + core correction, Zval =  6.0
     Generated using ONCVPSP code by D. R. Hamann
     Using radial grid of  926 points,  5 beta functions with:
                l(1) =   0
                l(2) =   0
                l(3) =   1
                l(4) =   1
                l(5) =   2

     atomic species   valence    mass     pseudopotential
        W             28.00   183.84000     W ( 1.00)
        O              6.00    15.99940     O ( 1.00)

      8 Sym. Ops., with inversion, found ( 6 have fractional translation)

   Cartesian axes

     site n.     atom                  positions (alat units)
         1           W   tau(   1) = (   0.2370500   0.2962750   0.0122058  )
         2           W   tau(   2) = (   0.7629500   0.7205636   0.9858135  )
         3           W   tau(   3) = (   0.2629500   0.2121443   0.5112154  )
         4           W   tau(   4) = (   0.7370500   0.8046943   0.4868038  )
         5           W   tau(   5) = (   0.7629500   0.2962750   0.4868038  )
         6           W   tau(   6) = (   0.2370500   0.7205636   0.5112154  )
         7           W   tau(   7) = (   0.7370500   0.2121443   0.9858135  )
         8           W   tau(   8) = (   0.2629500   0.8046943   0.0122058  )
         9           O   tau(   9) = (   0.2261100   0.0267559   0.0037925  )
        10           O   tau(  10) = (   0.7738900   0.9900828   0.9942268  )
        11           O   tau(  11) = (   0.2738900   0.4816634   0.5028021  )
        12           O   tau(  12) = (   0.7261100   0.5351752   0.4952171  )
        13           O   tau(  13) = (   0.7738900   0.0267559   0.4952171  )
        14           O   tau(  14) = (   0.2261100   0.9900828   0.5028021  )
        15           O   tau(  15) = (   0.7261100   0.4816634   0.9942268  )
        16           O   tau(  16) = (   0.2738900   0.5351752   0.0037925  )
        17           O   tau(  17) = (   0.5035400   0.2292869   0.4977007  )
        18           O   tau(  18) = (   0.4964600   0.7875517   0.5003186  )
        19           O   tau(  19) = (   0.9964600   0.2791324   0.9967103  )
        20           O   tau(  20) = (   0.0035400   0.7377062   0.0013090  )
        21           O   tau(  21) = (   0.4964600   0.2292869   0.0013090  )
        22           O   tau(  22) = (   0.5035400   0.7875517   0.9967103  )
        23           O   tau(  23) = (   0.0035400   0.2791324   0.5003186  )
        24           O   tau(  24) = (   0.9964600   0.7377062   0.4977007  )
        25           O   tau(  25) = (   0.7486885   0.2487696   0.7431550  )
        26           O   tau(  26) = (   0.2513116   0.7680690   0.2548642  )
        27           O   tau(  27) = (   0.7513116   0.2596497   0.2441454  )
        28           O   tau(  28) = (   0.2486885   0.7571888   0.7538738  )
        29           O   tau(  29) = (   0.2513116   0.2487696   0.7538738  )
        30           O   tau(  30) = (   0.7486885   0.7680690   0.2441454  )
        31           O   tau(  31) = (   0.2486885   0.2596497   0.2548642  )
        32           O   tau(  32) = (   0.7513116   0.7571888   0.7431550  )

     number of k points=    64  gaussian smearing, width (Ry)=  0.0007
                       cart. coord. in units 2pi/alat
        k(    1) = (   0.0000000   0.0000000   0.0000000), wk =   0.0092593
        k(    2) = (   0.0000000   0.0000000   0.1669974), wk =   0.0185185
        k(    3) = (   0.0000000   0.0000000   0.3339949), wk =   0.0185185
        k(    4) = (   0.0000000   0.0000000  -0.5009923), wk =   0.0092593
        k(    5) = (   0.0000000   0.1639067   0.0000000), wk =   0.0185185
        k(    6) = (   0.0000000   0.1639067   0.1669974), wk =   0.0370370
        k(    7) = (   0.0000000   0.1639067   0.3339949), wk =   0.0370370
        k(    8) = (   0.0000000   0.1639067  -0.5009923), wk =   0.0185185
        k(    9) = (   0.0000000   0.3278134   0.0000000), wk =   0.0185185
        k(   10) = (   0.0000000   0.3278134   0.1669974), wk =   0.0370370
        k(   11) = (   0.0000000   0.3278134   0.3339949), wk =   0.0370370
        k(   12) = (   0.0000000   0.3278134  -0.5009923), wk =   0.0185185
        k(   13) = (   0.0000000  -0.4917201   0.0000000), wk =   0.0092593
        k(   14) = (   0.0000000  -0.4917201   0.1669974), wk =   0.0185185
        k(   15) = (   0.0000000  -0.4917201   0.3339949), wk =   0.0185185
        k(   16) = (   0.0000000  -0.4917201  -0.5009923), wk =   0.0092593
        k(   17) = (   0.1666667   0.0000000   0.0000000), wk =   0.0185185
        k(   18) = (   0.1666667   0.0000000   0.1669974), wk =   0.0370370
        k(   19) = (   0.1666667   0.0000000   0.3339949), wk =   0.0370370
        k(   20) = (   0.1666667   0.0000000  -0.5009923), wk =   0.0185185
        k(   21) = (   0.1666667   0.1639067   0.0000000), wk =   0.0370370
        k(   22) = (   0.1666667   0.1639067   0.1669974), wk =   0.0740741
        k(   23) = (   0.1666667   0.1639067   0.3339949), wk =   0.0740741
        k(   24) = (   0.1666667   0.1639067  -0.5009923), wk =   0.0370370
        k(   25) = (   0.1666667   0.3278134   0.0000000), wk =   0.0370370
        k(   26) = (   0.1666667   0.3278134   0.1669974), wk =   0.0740741
        k(   27) = (   0.1666667   0.3278134   0.3339949), wk =   0.0740741
        k(   28) = (   0.1666667   0.3278134  -0.5009923), wk =   0.0370370
        k(   29) = (   0.1666667  -0.4917201   0.0000000), wk =   0.0185185
        k(   30) = (   0.1666667  -0.4917201   0.1669974), wk =   0.0370370
        k(   31) = (   0.1666667  -0.4917201   0.3339949), wk =   0.0370370
        k(   32) = (   0.1666667  -0.4917201  -0.5009923), wk =   0.0185185
        k(   33) = (   0.3333333   0.0000000   0.0000000), wk =   0.0185185
        k(   34) = (   0.3333333   0.0000000   0.1669974), wk =   0.0370370
        k(   35) = (   0.3333333   0.0000000   0.3339949), wk =   0.0370370
        k(   36) = (   0.3333333   0.0000000  -0.5009923), wk =   0.0185185
        k(   37) = (   0.3333333   0.1639067   0.0000000), wk =   0.0370370
        k(   38) = (   0.3333333   0.1639067   0.1669974), wk =   0.0740741
        k(   39) = (   0.3333333   0.1639067   0.3339949), wk =   0.0740741
        k(   40) = (   0.3333333   0.1639067  -0.5009923), wk =   0.0370370
        k(   41) = (   0.3333333   0.3278134   0.0000000), wk =   0.0370370
        k(   42) = (   0.3333333   0.3278134   0.1669974), wk =   0.0740741
        k(   43) = (   0.3333333   0.3278134   0.3339949), wk =   0.0740741
        k(   44) = (   0.3333333   0.3278134  -0.5009923), wk =   0.0370370
        k(   45) = (   0.3333333  -0.4917201   0.0000000), wk =   0.0185185
        k(   46) = (   0.3333333  -0.4917201   0.1669974), wk =   0.0370370
        k(   47) = (   0.3333333  -0.4917201   0.3339949), wk =   0.0370370
        k(   48) = (   0.3333333  -0.4917201  -0.5009923), wk =   0.0185185
        k(   49) = (  -0.5000000   0.0000000   0.0000000), wk =   0.0092593
        k(   50) = (  -0.5000000   0.0000000   0.1669974), wk =   0.0185185
        k(   51) = (  -0.5000000   0.0000000   0.3339949), wk =   0.0185185
        k(   52) = (  -0.5000000   0.0000000  -0.5009923), wk =   0.0092593
        k(   53) = (  -0.5000000   0.1639067   0.0000000), wk =   0.0185185
        k(   54) = (  -0.5000000   0.1639067   0.1669974), wk =   0.0370370
        k(   55) = (  -0.5000000   0.1639067   0.3339949), wk =   0.0370370
        k(   56) = (  -0.5000000   0.1639067  -0.5009923), wk =   0.0185185
        k(   57) = (  -0.5000000   0.3278134   0.0000000), wk =   0.0185185
        k(   58) = (  -0.5000000   0.3278134   0.1669974), wk =   0.0370370
        k(   59) = (  -0.5000000   0.3278134   0.3339949), wk =   0.0370370
        k(   60) = (  -0.5000000   0.3278134  -0.5009923), wk =   0.0185185
        k(   61) = (  -0.5000000  -0.4917201   0.0000000), wk =   0.0092593
        k(   62) = (  -0.5000000  -0.4917201   0.1669974), wk =   0.0185185
        k(   63) = (  -0.5000000  -0.4917201   0.3339949), wk =   0.0185185
        k(   64) = (  -0.5000000  -0.4917201  -0.5009923), wk =   0.0092593

     Initial potential from superposition of free atoms

     starting charge  367.99656, renormalised to  368.52000
     Starting wfcs are  232 randomized atomic wfcs

     Self-consistent Calculation

     iteration #  1     ecut=   120.00 Ry     beta= 0.70
     Davidson diagonalization with overlap
     ethr =  1.00E-02,  avg # of iterations =  5.2

     total energy              =   -6253.28622557 Ry
     Harris-Foulkes estimate   =   -6264.28734644 Ry
     estimated scf accuracy    <      13.85945755 Ry

[...]

     total energy              =   -6260.65912717 Ry
     Harris-Foulkes estimate   =   -6260.65912719 Ry
     estimated scf accuracy    <       0.00000003 Ry

     iteration # 13     ecut=   120.00 Ry     beta= 0.70
     Davidson diagonalization with overlap
     ethr =  7.97E-12,  avg # of iterations =  2.6

     End of self-consistent calculation

          k = 0.0000 0.0000 0.0000 ( 62873 PWs)   bands (ev):

   -66.2045 -66.2039 -66.2039 -66.2039 -66.2033 -66.2033 -66.2032 -66.2027
   -30.5949 -30.5906 -30.5781 -30.5771 -30.5733 -30.5730 -30.5631 -30.5523
   -30.5522 -30.5487 -30.5421 -30.5349 -30.5146 -30.5115 -30.4938 -30.4915
   -30.4888 -30.4851 -30.4812 -30.4690 -30.4630 -30.4614 -30.4574 -30.4536
   -20.3602 -20.3600 -20.3599 -20.3598 -20.3596 -20.3595 -20.3593 -20.3592
   -20.3499 -20.3499 -20.3499 -20.3499 -20.3493 -20.3493 -20.3493 -20.3493
   -20.3415 -20.3412 -20.3408 -20.3406 -20.3374 -20.3373 -20.3373 -20.3370
   -20.3360 -20.3359 -20.3358 -20.3358 -20.3338 -20.3333 -20.3323 -20.3321
   -20.3320 -20.3314 -20.3312 -20.3311 -20.3309 -20.3307 -20.3300 -20.3299
   -20.3293 -20.3289 -20.3286 -20.3284 -20.3242 -20.3238 -20.3236 -20.3232
   -20.3175 -20.3174 -20.3170 -20.3170 -20.3165 -20.3165 -20.3161 -20.3161
   -10.0880  -9.7089  -9.7049  -9.6729  -9.3184  -9.2945  -9.2843  -9.0174
    -8.9848  -8.9227  -8.9203  -8.9177  -7.9985  -7.9156  -7.9098  -7.8684
    -7.8679  -7.8480  -7.8455  -7.8317  -7.7803  -7.7540  -7.7309  -7.7164
     1.1481   1.1507   1.1592   1.1946   1.2155   1.2408   1.3218   1.3272
     1.3450   1.4106   1.4489   1.5511   2.3449   2.3720   2.4050   2.4456
     2.4521   2.5776   3.9833   4.0687   4.1596   4.2773   4.5247   4.5575
     4.5853   4.6205   4.6241   4.7181   4.7607   4.7814   5.1058   5.4461
     5.4578   5.4776   5.4986   5.5777   5.5879   5.6745   5.7482   5.7639
     5.7994   5.8077   5.8710   5.8950   5.9124   5.9228   6.0591   6.0812
     6.1072   6.3314   6.3388   6.3678   6.3721   6.6041   6.6284   6.6791
     6.6791   6.6835   6.9861   6.9895   7.0110   7.0184   7.0331   7.0456
     7.0774   7.0802   8.0752   8.1181   8.2519   8.2725   8.2843   8.3106
     9.2863   9.3004   9.6234   9.7019   9.7636   9.8597  12.4153  12.5024
    12.5024  12.5772  12.6155  12.6370  12.6600  12.6899  12.6988  12.8383
    13.1094  13.1544  13.2161  13.3762  13.7789  13.9000  13.9640  14.0137
    14.0715  14.0868  14.3766  14.5966  14.6709  14.6823  15.2946  15.4332
    15.6819  16.3167  16.8211  16.9102  16.9555

[...]

          k = 0.3333-0.4917-0.5010 ( 62848 PWs)   bands (ev):

[...]

          k =-0.5000 0.0000 0.0000 ( 62798 PWs)   bands (ev):

[...]

          k =-0.5000-0.4917-0.5010 ( 62816 PWs)   bands (ev):

   -66.2036 -66.2036 -66.2036 -66.2036 -66.2036 -66.2036 -66.2036 -66.2035
   -30.5556 -30.5556 -30.5556 -30.5556 -30.5535 -30.5535 -30.5535 -30.5535
   -30.5240 -30.5240 -30.5240 -30.5240 -30.5223 -30.5223 -30.5223 -30.5223
   -30.4925 -30.4925 -30.4925 -30.4925 -30.4912 -30.4912 -30.4912 -30.4912
   -20.3597 -20.3597 -20.3597 -20.3597 -20.3597 -20.3597 -20.3597 -20.3597
   -20.3498 -20.3498 -20.3498 -20.3498 -20.3497 -20.3497 -20.3497 -20.3497
   -20.3386 -20.3386 -20.3386 -20.3386 -20.3384 -20.3384 -20.3384 -20.3384
   -20.3343 -20.3343 -20.3343 -20.3343 -20.3341 -20.3341 -20.3341 -20.3341
   -20.3317 -20.3317 -20.3317 -20.3316 -20.3316 -20.3316 -20.3316 -20.3316
   -20.3264 -20.3264 -20.3264 -20.3264 -20.3264 -20.3263 -20.3263 -20.3263
   -20.3168 -20.3168 -20.3168 -20.3168 -20.3168 -20.3168 -20.3168 -20.3168
    -9.1093  -9.1093  -9.1092  -9.1092  -9.0762  -9.0762  -9.0762  -9.0762
    -8.4952  -8.4951  -8.4951  -8.4951  -8.4743  -8.4743  -8.4743  -8.4743
    -8.4147  -8.4147  -8.4147  -8.4147  -8.3672  -8.3672  -8.3672  -8.3672
     2.6731   2.6731   2.6732   2.6732   2.7937   2.7937   2.7937   2.7937
     2.9146   2.9146   2.9146   2.9146   3.0935   3.0935   3.0935   3.0935
     3.2041   3.2042   3.2042   3.2042   3.3575   3.3575   3.3575   3.3575
     4.0710   4.0710   4.0710   4.0710   4.1411   4.1411   4.1411   4.1411
     4.2409   4.2409   4.2409   4.2410   4.3010   4.3010   4.3010   4.3010
     4.4248   4.4248   4.4248   4.4248   4.5147   4.5147   4.5148   4.5148
     7.0893   7.0893   7.0893   7.0893   7.2183   7.2183   7.2183   7.2183
     7.2894   7.2894   7.2894   7.2894   7.3749   7.3749   7.3749   7.3749
     7.5153   7.5153   7.5153   7.5153   7.5957   7.5957   7.5957   7.5958
    11.7984  11.7984  11.7984  11.7984  11.9230  11.9230  11.9230  11.9230
    12.1144  12.1144  12.1144  12.1144  12.2143  12.2143  12.2143  12.2143
    12.3066  12.3066  12.3066  12.3066  12.4111  12.4111  12.4111  12.4111
    16.7282  16.7282  16.7282  16.7282  16.8976  16.8976  16.8976  16.8976
    17.3566  17.3566  17.3566  17.3568  17.4262

     the Fermi energy is     9.6351 ev

!    total energy              =   -6260.65912717 Ry
     Harris-Foulkes estimate   =   -6260.65912718 Ry
     estimated scf accuracy    <          1.7E-09 Ry

     The total energy is the sum of the following terms:

     one-electron contribution =   -4762.84653613 Ry
     hartree contribution      =    2617.87605578 Ry
     xc contribution           =    -966.28014652 Ry
     ewald contribution        =   -3149.40846868 Ry
     smearing contrib. (-TS)   =      -0.00003163 Ry

     convergence has been achieved in  13 iterations

     Writing output data file Landau_28.save/

     General routines

     Parallel routines

   This run was terminated on:   2: 5:57  22Nov2019

   JOB DONE.