     Program PWSCF v.6.2 (svn rev. 14038) starts on 28Feb2020 at 18:37: 6

     K-points division:     npool     =      40
     Reading input from rscf.in

     Current dimensions of program PWSCF are:
     Max number of different atomic species (ntypx) = 10
     Max number of k-points (npk) =  40000
     Max angular momentum in pseudopotentials (lmaxx) =  3

     Subspace diagonalization in iterative solution of the eigenvalue problem:
     a serial algorithm will be used

     bravais-lattice index     =            0
     lattice parameter (alat)  =      13.8397  a.u.
     unit-cell volume          =    2804.9816 (a.u.)^3
     number of atoms/cell      =           32
     number of atomic types    =            2
     number of electrons       =       368.00
     number of Kohn-Sham states=          221
     kinetic-energy cutoff     =     120.0000  Ry
     charge density cutoff     =     480.0000  Ry
     convergence threshold     =      1.0E-08
     mixing beta               =       0.7000
     number of iterations used =            8  plain     mixing
     Exchange-correlation      = SLA PW NOGX NOGC ( 1  4  0  0 0 0)
     nstep                     =           50

     celldm(1)=  13.839685  celldm(2)=   0.000000  celldm(3)=   0.000000
     celldm(4)=   0.000000  celldm(5)=   0.000000  celldm(6)=   0.000000

     crystal axes: (cart. coord. in units of alat)
               a(1) = (   1.000000   0.000000   0.000000 )
               a(2) = (   0.000000   1.058160   0.000000 )
               a(3) = (   0.000000   0.000000   1.000000 )

     reciprocal axes: (cart. coord. in units 2 pi/alat)
               b(1) = (  1.000000  0.000000  0.000000 )
               b(2) = (  0.000000  0.945037  0.000000 )
               b(3) = (  0.000000  0.000000  1.000000 )

     PseudoPot. # 1 for W  read from file:
     /cluster/scratch/mnoe/QE/pps/W_ONCV_LDA-4.0.upf
     MD5 check sum: ba0307d5d4cd419d6f1d13dc49d7c13a
     Pseudo is Norm-conserving + core correction, Zval = 28.0
     Generated using ONCVPSP code by D. R. Hamann
     Using radial grid of 1380 points,  8 beta functions with:
                l(1) =   0
                l(2) =   0
                l(3) =   1
                l(4) =   1
                l(5) =   2
                l(6) =   2
                l(7) =   3
                l(8) =   3

     PseudoPot. # 2 for O  read from file:
     /cluster/scratch/mnoe/QE/pps/O_ONCV_LDA-3.0.upf
     MD5 check sum: a1bd6164e7280c17a38c229939bfbd54
     Pseudo is Norm-conserving + core correction, Zval =  6.0
     Generated using ONCVPSP code by D. R. Hamann
     Using radial grid of  926 points,  5 beta functions with:
                l(1) =   0
                l(2) =   0
                l(3) =   1
                l(4) =   1
                l(5) =   2

     atomic species   valence    mass     pseudopotential
        W             28.00   183.84000     W ( 1.00)
        O              6.00    15.99940     O ( 1.00)

      8 Sym. Ops. (no inversion) found ( 4 have fractional translation)

   Cartesian axes

     site n.     atom                  positions (alat units)
         1           W   tau(   1) = (   0.2832700   0.3115490   0.2509500  )
         2           W   tau(   2) = (  -0.2509500   0.7466111  -0.7167300  )
         3           W   tau(   3) = (   0.2167300   0.2175311   0.7509500  )
         4           W   tau(   4) = (   0.7509500   0.8406290   0.7832700  )
         5           W   tau(   5) = (   0.7167300   0.3115490   0.7490500  )
         6           W   tau(   6) = (   0.2509500   0.7466111   0.7167300  )
         7           W   tau(   7) = (  -0.2167300   0.2175311  -0.7509500  )
         8           W   tau(   8) = (   0.2490500   0.8406290   0.2167300  )
         9           O   tau(   9) = (   0.2866000   0.0339629   0.2765400  )
        10           O   tau(  10) = (  -0.2765401   1.0241972  -0.7134000  )
        11           O   tau(  11) = (   0.2134000   0.4951171   0.7765400  )
        12           O   tau(  12) = (   0.7765400   0.5630430   0.7866000  )
        13           O   tau(  13) = (   0.7134000   0.0339629   0.7234600  )
        14           O   tau(  14) = (   0.2765400   1.0241972   0.7134000  )
        15           O   tau(  15) = (  -0.2134000   0.4951171  -0.7765401  )
        16           O   tau(  16) = (   0.2234600   0.5630430   0.2134000  )
        17           O   tau(  17) = (   0.4882300   0.3062844   0.7644861  )
        18           O   tau(  18) = (   0.4975900   0.7668380   0.7355139  )
        19           O   tau(  19) = (  -0.9882300   0.2227956   1.2644861  )
        20           O   tau(  20) = (   0.0024101   0.8204021   0.2355139  )
        21           O   tau(  21) = (   0.5117700   0.3062844   0.2355139  )
        22           O   tau(  22) = (   0.5024100   0.7668380   1.2644861  )
        23           O   tau(  23) = (  -0.0117699   0.2227956   0.7355139  )
        24           O   tau(  24) = (  -1.0024100   0.8204021   0.7644861  )
        25           O   tau(  25) = (   0.7644862   0.2377580   2.0024100  )
        26           O   tau(  26) = (   0.2355139   0.7518756   0.4882300  )
        27           O   tau(  27) = (   0.7355139   0.2913220   0.5024100  )
        28           O   tau(  28) = (   0.2644862   0.8353645   1.9882300  )
        29           O   tau(  29) = (   0.2355139   0.2377580   0.9975899  )
        30           O   tau(  30) = (   0.7644862   0.7518756   0.5117700  )
        31           O   tau(  31) = (   0.2644862   0.2913220   0.4975900  )
        32           O   tau(  32) = (   0.7355139   0.8353645   1.0117699  )

     number of k points=    40  gaussian smearing, width (Ry)=  0.0007
                       cart. coord. in units 2pi/alat
        k(    1) = (   0.0000000   0.0000000   0.0000000), wk =   0.0092593
        k(    2) = (   0.0000000   0.0000000   0.1666667), wk =   0.0370370
        k(    3) = (   0.0000000   0.0000000   0.3333333), wk =   0.0370370
        k(    4) = (   0.0000000   0.0000000  -0.5000000), wk =   0.0185185
        k(    5) = (   0.0000000   0.1575061   0.0000000), wk =   0.0185185
        k(    6) = (   0.0000000   0.1575061   0.1666667), wk =   0.0740741
        k(    7) = (   0.0000000   0.1575061   0.3333333), wk =   0.0740741
        k(    8) = (   0.0000000   0.1575061  -0.5000000), wk =   0.0370370
        k(    9) = (   0.0000000   0.3150122   0.0000000), wk =   0.0185185
        k(   10) = (   0.0000000   0.3150122   0.1666667), wk =   0.0740741
        k(   11) = (   0.0000000   0.3150122   0.3333333), wk =   0.0740741
        k(   12) = (   0.0000000   0.3150122  -0.5000000), wk =   0.0370370
        k(   13) = (   0.0000000  -0.4725183   0.0000000), wk =   0.0092593
        k(   14) = (   0.0000000  -0.4725183   0.1666667), wk =   0.0370370
        k(   15) = (   0.0000000  -0.4725183   0.3333333), wk =   0.0370370
        k(   16) = (   0.0000000  -0.4725183  -0.5000000), wk =   0.0185185
        k(   17) = (   0.1666667   0.0000000   0.1666667), wk =   0.0370370
        k(   18) = (   0.1666667   0.0000000   0.3333333), wk =   0.0740741
        k(   19) = (   0.1666667   0.0000000  -0.5000000), wk =   0.0370370
        k(   20) = (   0.1666667   0.1575061   0.1666667), wk =   0.0740741
        k(   21) = (   0.1666667   0.1575061   0.3333333), wk =   0.1481481
        k(   22) = (   0.1666667   0.1575061  -0.5000000), wk =   0.0740741
        k(   23) = (   0.1666667   0.3150122   0.1666667), wk =   0.0740741
        k(   24) = (   0.1666667   0.3150122   0.3333333), wk =   0.1481481
        k(   25) = (   0.1666667   0.3150122  -0.5000000), wk =   0.0740741
        k(   26) = (   0.1666667  -0.4725183   0.1666667), wk =   0.0370370
        k(   27) = (   0.1666667  -0.4725183   0.3333333), wk =   0.0740741
        k(   28) = (   0.1666667  -0.4725183  -0.5000000), wk =   0.0370370
        k(   29) = (   0.3333333   0.0000000   0.3333333), wk =   0.0370370
        k(   30) = (   0.3333333   0.0000000  -0.5000000), wk =   0.0370370
        k(   31) = (   0.3333333   0.1575061   0.3333333), wk =   0.0740741
        k(   32) = (   0.3333333   0.1575061  -0.5000000), wk =   0.0740741
        k(   33) = (   0.3333333   0.3150122   0.3333333), wk =   0.0740741
        k(   34) = (   0.3333333   0.3150122  -0.5000000), wk =   0.0740741
        k(   35) = (   0.3333333  -0.4725183   0.3333333), wk =   0.0370370
        k(   36) = (   0.3333333  -0.4725183  -0.5000000), wk =   0.0370370
        k(   37) = (  -0.5000000   0.0000000  -0.5000000), wk =   0.0092593
        k(   38) = (  -0.5000000   0.1575061  -0.5000000), wk =   0.0185185
        k(   39) = (  -0.5000000   0.3150122  -0.5000000), wk =   0.0185185
        k(   40) = (  -0.5000000  -0.4725183  -0.5000000), wk =   0.0092593

     Initial potential from superposition of free atoms

     starting charge  367.99656, renormalised to  368.00000
     Starting wfc are  232 randomized atomic wfcs

     Self-consistent Calculation

     iteration #  1     ecut=   120.00 Ry     beta= 0.70
     Davidson diagonalization with overlap
     ethr =  1.00E-02,  avg # of iterations =  4.8

     total energy              =   -6253.40911693 Ry
     Harris-Foulkes estimate   =   -6264.27297522 Ry
     estimated scf accuracy    <      13.74663818 Ry

[...]

     End of self-consistent calculation

          k = 0.0000 0.0000 0.0000 ( 62239 PWs)   bands (ev):

   -66.1343 -66.1339 -66.1335 -66.1335 -66.1331 -66.1331 -66.1327 -66.1324
   -30.7912 -30.7901 -30.7873 -30.7873 -30.7010 -30.7010 -30.6985 -30.6979
   -30.4819 -30.4815 -30.4752 -30.4752 -30.3995 -30.3995 -30.3946 -30.3945
   -30.2781 -30.2764 -30.2764 -30.2748 -30.2260 -30.2251 -30.2251 -30.2243
   -20.3016 -20.3015 -20.3013 -20.3013 -20.2981 -20.2981 -20.2978 -20.2978
   -20.2833 -20.2833 -20.2829 -20.2829 -20.2814 -20.2814 -20.2813 -20.2813
   -20.2666 -20.2665 -20.2665 -20.2664 -20.2651 -20.2651 -20.2650 -20.2648
   -20.2611 -20.2609 -20.2603 -20.2603 -20.2599 -20.2599 -20.2593 -20.2591
   -20.2429 -20.2427 -20.2426 -20.2424 -20.2407 -20.2402 -20.2402 -20.2397
   -20.2305 -20.2302 -20.2302 -20.2299 -20.2270 -20.2267 -20.2267 -20.2265
   -20.2226 -20.2223 -20.2223 -20.2223 -20.2215 -20.2215 -20.2214 -20.2214
   -10.0859  -9.8957  -9.7298  -9.7298  -9.2617  -9.2617  -9.0218  -9.0138
    -8.3456  -8.2901  -8.1980  -8.1980  -8.1519  -8.1463  -8.1463  -8.1431
    -7.8433  -7.8425  -7.7949  -7.7949  -7.2396  -7.1574  -7.1574  -7.0797
     0.9727   0.9877   1.1226   1.1226   1.4317   1.4317   1.5253   1.5458
     2.0682   2.1592   2.2997   2.3015   2.3015   2.3275   2.6684   2.6846
     2.7346   2.7346   3.9306   3.9306   4.0500   4.1426   4.1426   4.2316
     4.4546   4.4546   4.8481   4.8590   4.9924   5.1092   5.2008   5.2008
     5.3023   5.4120   5.4120   5.5412   5.6740   5.6740   5.7712   5.7897
     5.7900   5.7900   5.9791   6.0424   6.0439   6.0439   6.0848   6.3420
     6.3747   6.5196   6.5196   6.5267   6.8734   6.9422   6.9422   7.0168
     7.0168   7.0523   7.1690   7.2621   7.2621   7.3635   7.4661   7.5548
     7.5548   7.5850   8.0037   8.0405   8.2695   8.4230   8.4230   8.4325
     9.8320  10.0549  10.0549  10.1276  10.2675  10.4505  12.3658  12.5267
[...]
W        0.216729985   0.205574809   0.750949967    0   0   0
W        0.750949975   0.794425159   0.783270015    0   0   0
W        0.716730025   0.294425190   0.749050017    0   0   0
W        0.250949983   0.705574810   0.716729969    0   0   0
W       -0.216730033   0.205574809  -0.750949983    0   0   0
W        0.249050033   0.794425159   0.216730025    0   0   0
O        0.286600001   0.032096201   0.276540025    0   0   0
O       -0.276540066   0.967903852  -0.713400016    0   0   0
O        0.213399983   0.467903786   0.776540033    0   0   0
O        0.776540025   0.532096217   0.786600017    0   0   0
O        0.713399975   0.032096201   0.723459983    0   0   0
O        0.276540017   0.967903852   0.713399999    0   0   0
O       -0.213400016   0.467903786  -0.776540066    0   0   0
O        0.223459967   0.532096217   0.213399975    0   0   0
O        0.488230047   0.289450007   0.764486148    0   0   0
O        0.497590013   0.724689997   0.735513891    0   0   0
O       -0.988230047   0.210550009   1.264486128    0   0   0
O        0.002410052   0.775309975   0.235513916    0   0   0
O        0.511769953   0.289450007   0.235513916    0   0   0
O        0.502409987   0.724689997   1.264486128    0   0   0
O       -0.011769888   0.210550009   0.735513891    0   0   0
O       -1.002409987   0.775309975   0.764486148    0   0   0
O        0.764486218   0.224690027   2.002409987    0   0   0
O        0.235513905   0.710549980   0.488230047    0   0   0
O        0.735513854   0.275309989   0.502409987    0   0   0
O        0.264486166   0.789449992   1.988230047    0   0   0
O        0.235513905   0.224690027   0.997589948    0   0   0
O        0.764486218   0.710549980   0.511769953    0   0   0
O        0.264486166   0.275309989   0.497590013    0   0   0
O        0.735513854   0.789449992   1.011769888    0   0   0
End final coordinates

     A final scf calculation at the relaxed structure.
     The G-vectors are recalculated for the final unit cell
     Results may differ from those at the preceding step.

     bravais-lattice index     =            0
     lattice parameter (alat)  =      13.8397  a.u.
     unit-cell volume          =    2794.8157 (a.u.)^3
     number of atoms/cell      =           32
     number of atomic types    =            2
     number of electrons       =       368.00
     number of Kohn-Sham states=          221
     kinetic-energy cutoff     =     120.0000  Ry
     charge density cutoff     =     480.0000  Ry
     convergence threshold     =      1.0E-10
     mixing beta               =       0.7000
     number of iterations used =            8  plain     mixing
     Exchange-correlation      = SLA PW NOGX NOGC ( 1  4  0  0 0 0)

     celldm(1)=  13.839685  celldm(2)=   0.000000  celldm(3)=   0.000000
     celldm(4)=   0.000000  celldm(5)=   0.000000  celldm(6)=   0.000000

     crystal axes: (cart. coord. in units of alat)
               a(1) = (   1.020622   0.000000   0.000000 )
               a(2) = (   0.000000   1.012150   0.000000 )
               a(3) = (   0.000000   0.000000   1.020622 )

     reciprocal axes: (cart. coord. in units 2 pi/alat)
               b(1) = (  0.979795  0.000000  0.000000 )
               b(2) = (  0.000000  0.987996  0.000000 )
               b(3) = (  0.000000  0.000000  0.979795 )

     PseudoPot. # 1 for W  read from file:
     /cluster/scratch/mnoe/QE/pps/W_ONCV_LDA-4.0.upf
     MD5 check sum: ba0307d5d4cd419d6f1d13dc49d7c13a
     Pseudo is Norm-conserving + core correction, Zval = 28.0
     Generated using ONCVPSP code by D. R. Hamann
     Using radial grid of 1380 points,  8 beta functions with:
                l(1) =   0
                l(2) =   0
                l(3) =   1
                l(4) =   1
                l(5) =   2
                l(6) =   2
                l(7) =   3
                l(8) =   3

     PseudoPot. # 2 for O  read from file:
     /cluster/scratch/mnoe/QE/pps/O_ONCV_LDA-3.0.upf
     MD5 check sum: a1bd6164e7280c17a38c229939bfbd54
     Pseudo is Norm-conserving + core correction, Zval =  6.0
     Generated using ONCVPSP code by D. R. Hamann
     Using radial grid of  926 points,  5 beta functions with:
                l(1) =   0
                l(2) =   0
                l(3) =   1
                l(4) =   1
                l(5) =   2

     atomic species   valence    mass     pseudopotential
        W             28.00   183.84000     W ( 1.00)
        O              6.00    15.99940     O ( 1.00)

      8 Sym. Ops. (no inversion) found ( 4 have fractional translation)

   Cartesian axes

     site n.     atom                  positions (alat units)
         1           W   tau(   1) = (   0.2891115   0.2980025   0.2561250  )
         2           W   tau(   2) = (  -0.2561250   0.7141477  -0.7315102  )
         3           W   tau(   3) = (   0.2211993   0.2080726   0.7664358  )
         4           W   tau(   4) = (   0.7664358   0.8040776   0.7994223  )
         5           W   tau(   5) = (   0.7315102   0.2980025   0.7644967  )
         6           W   tau(   6) = (   0.2561250   0.7141477   0.7315101  )
         7           W   tau(   7) = (  -0.2211994   0.2080726  -0.7664358  )
         8           W   tau(   8) = (   0.2541859   0.8040776   0.2211994  )
         9           O   tau(   9) = (   0.2925102   0.0324862   0.2822427  )
        10           O   tau(  10) = (  -0.2822428   0.9796641  -0.7281115  )
        11           O   tau(  11) = (   0.2178006   0.4735889   0.7925536  )
        12           O   tau(  12) = (   0.7925536   0.5385613   0.8028210  )
        13           O   tau(  13) = (   0.7281115   0.0324862   0.7383789  )
        14           O   tau(  14) = (   0.2822427   0.9796641   0.7281115  )
        15           O   tau(  15) = (  -0.2178007   0.4735889  -0.7925536  )
        16           O   tau(  16) = (   0.2280681   0.5385613   0.2178006  )
        17           O   tau(  17) = (   0.4982982   0.2929669   0.7802511  )
        18           O   tau(  18) = (   0.5078511   0.7334951   0.7506814  )
        19           O   tau(  19) = (  -1.0086090   0.2131082   1.2905619  )
        20           O   tau(  20) = (   0.0024598   0.7847302   0.2403706  )
        21           O   tau(  21) = (   0.5223235   0.2929669   0.2403706  )
        22           O   tau(  22) = (   0.5127705   0.7334951   1.2905619  )
        23           O   tau(  23) = (  -0.0120126   0.2131082   0.7506814  )
        24           O   tau(  24) = (  -1.0230813   0.7847302   0.7802511  )
        25           O   tau(  25) = (   0.7802512   0.2274201   2.0437030  )
        26           O   tau(  26) = (   0.2403706   0.7191833   0.4982982  )
        27           O   tau(  27) = (   0.7506814   0.2786551   0.5127705  )
        28           O   tau(  28) = (   0.2699403   0.7990420   2.0292306  )
        29           O   tau(  29) = (   0.2403706   0.2274201   1.0181619  )
        30           O   tau(  30) = (   0.7802512   0.7191833   0.5223235  )
        31           O   tau(  31) = (   0.2699403   0.2786551   0.5078511  )
        32           O   tau(  32) = (   0.7506814   0.7990420   1.0326342  )

     number of k points=    40  gaussian smearing, width (Ry)=  0.0007
                       cart. coord. in units 2pi/alat
        k(    1) = (   0.0000000   0.0000000   0.0000000), wk =   0.0092593
        k(    2) = (   0.0000000   0.0000000   0.1632992), wk =   0.0370370
        k(    3) = (   0.0000000   0.0000000   0.3265983), wk =   0.0370370
        k(    4) = (   0.0000000   0.0000000  -0.4898975), wk =   0.0185185
        k(    5) = (   0.0000000   0.1646659   0.0000000), wk =   0.0185185
        k(    6) = (   0.0000000   0.1646659   0.1632992), wk =   0.0740741
        k(    7) = (   0.0000000   0.1646659   0.3265983), wk =   0.0740741
        k(    8) = (   0.0000000   0.1646659  -0.4898975), wk =   0.0370370
        k(    9) = (   0.0000000   0.3293319   0.0000000), wk =   0.0185185
        k(   10) = (   0.0000000   0.3293319   0.1632992), wk =   0.0740741
        k(   11) = (   0.0000000   0.3293319   0.3265983), wk =   0.0740741
        k(   12) = (   0.0000000   0.3293319  -0.4898975), wk =   0.0370370
        k(   13) = (   0.0000000  -0.4939978   0.0000000), wk =   0.0092593
        k(   14) = (   0.0000000  -0.4939978   0.1632992), wk =   0.0370370
        k(   15) = (   0.0000000  -0.4939978   0.3265983), wk =   0.0370370
        k(   16) = (   0.0000000  -0.4939978  -0.4898975), wk =   0.0185185
        k(   17) = (   0.1632992   0.0000000   0.1632992), wk =   0.0370370
        k(   18) = (   0.1632992   0.0000000   0.3265983), wk =   0.0740741
        k(   19) = (   0.1632992   0.0000000  -0.4898975), wk =   0.0370370
        k(   20) = (   0.1632992   0.1646659   0.1632992), wk =   0.0740741
        k(   21) = (   0.1632992   0.1646659   0.3265983), wk =   0.1481481
        k(   22) = (   0.1632992   0.1646659  -0.4898975), wk =   0.0740741
        k(   23) = (   0.1632992   0.3293319   0.1632992), wk =   0.0740741
        k(   24) = (   0.1632992   0.3293319   0.3265983), wk =   0.1481481
        k(   25) = (   0.1632992   0.3293319  -0.4898975), wk =   0.0740741
        k(   26) = (   0.1632992  -0.4939978   0.1632992), wk =   0.0370370
        k(   27) = (   0.1632992  -0.4939978   0.3265983), wk =   0.0740741
        k(   28) = (   0.1632992  -0.4939978  -0.4898975), wk =   0.0370370
        k(   29) = (   0.3265983   0.0000000   0.3265983), wk =   0.0370370
        k(   30) = (   0.3265983   0.0000000  -0.4898975), wk =   0.0370370
        k(   31) = (   0.3265983   0.1646659   0.3265983), wk =   0.0740741
        k(   32) = (   0.3265983   0.1646659  -0.4898975), wk =   0.0740741
        k(   33) = (   0.3265983   0.3293319   0.3265983), wk =   0.0740741
        k(   34) = (   0.3265983   0.3293319  -0.4898975), wk =   0.0740741
        k(   35) = (   0.3265983  -0.4939978   0.3265983), wk =   0.0370370
        k(   36) = (   0.3265983  -0.4939978  -0.4898975), wk =   0.0370370
        k(   37) = (  -0.4898975   0.0000000  -0.4898975), wk =   0.0092593
        k(   38) = (  -0.4898975   0.1646659  -0.4898975), wk =   0.0185185
        k(   39) = (  -0.4898975   0.3293319  -0.4898975), wk =   0.0185185
        k(   40) = (  -0.4898975  -0.4939978  -0.4898975), wk =   0.0092593

     Initial potential from superposition of free atoms

     starting charge  367.99656, renormalised to  368.00000
     Starting wfc are  232 randomized atomic wfcs

     Writing output data file Landau_37.save

     Self-consistent Calculation

[...]

     total energy              =   -6260.88842757 Ry
     Harris-Foulkes estimate   =   -6260.88842757 Ry
     estimated scf accuracy    <          9.8E-10 Ry

     iteration # 14     ecut=   120.00 Ry     beta= 0.70
     Davidson diagonalization with overlap
     ethr =  2.65E-13,  avg # of iterations =  2.2

     End of self-consistent calculation

[...]

          k = 0.3266-0.4940-0.4899 ( 62024 PWs)   bands (ev):

[...]

          k =-0.4899-0.4940-0.4899 ( 61944 PWs)   bands (ev):

   -66.0629 -66.0629 -66.0629 -66.0629 -66.0629 -66.0629 -66.0629 -66.0629
   -30.5555 -30.5555 -30.5553 -30.5553 -30.5553 -30.5553 -30.5547 -30.5547
   -30.3248 -30.3248 -30.3229 -30.3229 -30.3229 -30.3229 -30.3214 -30.3214
   -30.3007 -30.3007 -30.2985 -30.2985 -30.2985 -30.2984 -30.2963 -30.2963
   -20.2414 -20.2414 -20.2414 -20.2414 -20.2414 -20.2413 -20.2413 -20.2413
   -20.2271 -20.2271 -20.2271 -20.2271 -20.2269 -20.2269 -20.2269 -20.2269
   -20.1986 -20.1986 -20.1986 -20.1986 -20.1986 -20.1986 -20.1986 -20.1985
   -20.1954 -20.1954 -20.1954 -20.1954 -20.1952 -20.1952 -20.1952 -20.1952
   -20.1747 -20.1746 -20.1743 -20.1743 -20.1743 -20.1743 -20.1742 -20.1742
   -20.1658 -20.1658 -20.1656 -20.1656 -20.1656 -20.1656 -20.1653 -20.1653
   -20.1540 -20.1540 -20.1540 -20.1540 -20.1540 -20.1540 -20.1540 -20.1540
    -8.9948  -8.9948  -8.9494  -8.9493  -8.9493  -8.9493  -8.8957  -8.8957
    -8.3654  -8.3654  -8.2912  -8.2912  -8.2912  -8.2912  -8.2084  -8.2084
    -8.0439  -8.0439  -8.0189  -8.0189  -8.0189  -8.0188  -8.0093  -8.0093
     2.7920   2.7920   2.7920   2.7920   2.8017   2.8017   2.8943   2.8943
     3.1698   3.1698   3.2993   3.2993   3.2993   3.2993   3.3016   3.3016
     3.3679   3.3679   3.5750   3.5750   3.5750   3.5750   3.6577   3.6577
     4.2352   4.2352   4.2384   4.2384   4.2395   4.2395   4.2395   4.2395
     4.4487   4.4487   4.5141   4.5141   4.5141   4.5141   4.5253   4.5253
     4.7591   4.7591   4.7782   4.7782   4.7782   4.7782   4.9000   4.9000
     7.2980   7.2980   7.2980   7.2980   7.3023   7.3023   7.3041   7.3041
     7.4109   7.4109   7.4110   7.4110   7.4947   7.4947   7.6277   7.6277
     7.9020   7.9021   7.9356   7.9356   7.9356   7.9356   7.9488   7.9488
    12.0467  12.0467  12.0752  12.0752  12.0752  12.0752  12.0810  12.0810
    12.2622  12.2622  12.3778  12.3778  12.4365  12.4365  12.4365  12.4365
    12.6372  12.6372  12.6649  12.6649  12.7061  12.7061  12.7061  12.7061
    16.5474  16.5475  16.6183  16.6183  16.6183  16.6183  16.8735  16.8735
    17.2844  17.2844  17.2845  17.2845  17.3435

     the Fermi energy is     9.0159 ev

!    total energy              =   -6260.88842757 Ry
     Harris-Foulkes estimate   =   -6260.88842757 Ry
     estimated scf accuracy    <          9.6E-11 Ry

     The total energy is the sum of the following terms:

     one-electron contribution =   -4682.35802607 Ry
     hartree contribution      =    2579.48060948 Ry
     xc contribution           =    -965.62316739 Ry
     ewald contribution        =   -3192.38784359 Ry
     smearing contrib. (-TS)   =      -0.00000000 Ry

     convergence has been achieved in  14 iterations

     Forces acting on atoms (cartesian axes, Ry/au):

     atom    1 type  1   force =    -0.09110107    0.00108192    0.00767567
     atom    2 type  1   force =    -0.00767567   -0.00108192   -0.09110107
     atom    3 type  1   force =     0.09110107   -0.00108192    0.00767567
     atom    4 type  1   force =     0.00767567    0.00108192   -0.09110107
     atom    5 type  1   force =     0.09110107    0.00108192   -0.00767567
     atom    6 type  1   force =     0.00767567   -0.00108192    0.09110107
     atom    7 type  1   force =    -0.09110107   -0.00108192   -0.00767567
     atom    8 type  1   force =    -0.00767567    0.00108192    0.09110107
     atom    9 type  2   force =    -0.00120905   -0.10587226   -0.02474621
     atom   10 type  2   force =     0.02474621    0.10587226   -0.00120905
     atom   11 type  2   force =     0.00120905    0.10587226   -0.02474621
     atom   12 type  2   force =    -0.02474621   -0.10587226   -0.00120905
     atom   13 type  2   force =     0.00120905   -0.10587226    0.02474621
     atom   14 type  2   force =    -0.02474621    0.10587226    0.00120905
     atom   15 type  2   force =    -0.00120905    0.10587226    0.02474621
     atom   16 type  2   force =     0.02474621   -0.10587226    0.00120905
     atom   17 type  2   force =    -0.05650274    0.00113330    0.00840182
     atom   18 type  2   force =     0.00734991   -0.01661666    0.00761838
     atom   19 type  2   force =     0.05650274   -0.00113330    0.00840182
     atom   20 type  2   force =    -0.00734991    0.01661666    0.00761838
     atom   21 type  2   force =     0.05650274    0.00113330   -0.00840182
     atom   22 type  2   force =    -0.00734991   -0.01661666   -0.00761838
     atom   23 type  2   force =    -0.05650274   -0.00113330   -0.00840182
     atom   24 type  2   force =     0.00734991    0.01661666   -0.00761838
     atom   25 type  2   force =    -0.00761838   -0.01661666   -0.00734991
     atom   26 type  2   force =    -0.00840182   -0.00113330   -0.05650274
     atom   27 type  2   force =     0.00761838    0.01661666   -0.00734991
     atom   28 type  2   force =     0.00840182    0.00113330   -0.05650274
     atom   29 type  2   force =     0.00761838   -0.01661666    0.00734991
     atom   30 type  2   force =     0.00840182   -0.00113330    0.05650274
     atom   31 type  2   force =    -0.00761838    0.01661666    0.00734991
     atom   32 type  2   force =    -0.00840182    0.00113330    0.05650274

     Total force =     0.000000     Total SCF correction =     0.000000

     Computing stress (Cartesian axis) and pressure

          total   stress  (Ry/bohr**3)                   (kbar)     P=    1.00
   0.00001069   0.00000000   0.00000000          1.57      0.00      0.00
   0.00000000  -0.00000101   0.00000000          0.00     -0.15      0.00
   0.00000000   0.00000000   0.00001069          0.00      0.00      1.57

     Writing output data file Landau_37.save

     General routines

     Parallel routines

   This run was terminated on:  20: 3:24  28Feb2020

   JOB DONE.