     Program PWSCF v.6.2 (svn rev. 14038) starts on 17Sep2019 at 13:39:39

     K-points division:     npool     =      40
     Reading input from scf.in

     Current dimensions of program PWSCF are:
     Max number of different atomic species (ntypx) = 10
     Max number of k-points (npk) =  40000
     Max angular momentum in pseudopotentials (lmaxx) =  3

     Subspace diagonalization in iterative solution of the eigenvalue problem:
     a serial algorithm will be used

     bravais-lattice index     =            0
     lattice parameter (alat)  =      13.8804  a.u.
     unit-cell volume          =    2760.8780 (a.u.)^3
     number of atoms/cell      =           32
     number of atomic types    =            2
     number of electrons       =       368.84
     number of Kohn-Sham states=          221
     kinetic-energy cutoff     =     120.0000  Ry
     charge density cutoff     =     480.0000  Ry
     convergence threshold     =      1.0E-08
     mixing beta               =       0.7000
     number of iterations used =            8  plain     mixing
     Exchange-correlation      = SLA PW NOGX NOGC ( 1  4  0  0 0 0)

     celldm(1)=  13.880416  celldm(2)=   0.000000  celldm(3)=   0.000000
     celldm(4)=   0.000000  celldm(5)=   0.000000  celldm(6)=   0.000000

     crystal axes: (cart. coord. in units of alat)
               a(1) = (   1.000000   0.000000   0.000000 )
               a(2) = (   0.000000   1.032380   0.000000 )
               a(3) = (   0.000000   0.000000   1.000000 )

     reciprocal axes: (cart. coord. in units 2 pi/alat)
               b(1) = (  1.000000  0.000000  0.000000 )
               b(2) = (  0.000000  0.968635  0.000000 )
               b(3) = (  0.000000  0.000000  1.000000 )

     PseudoPot. # 1 for W  read from file:
     /cluster/scratch/mnoe/QE/pps/W_ONCV_LDA-4.0.upf
     MD5 check sum: ba0307d5d4cd419d6f1d13dc49d7c13a
     Pseudo is Norm-conserving + core correction, Zval = 28.0
     Generated using ONCVPSP code by D. R. Hamann
     Using radial grid of 1380 points,  8 beta functions with:
                l(1) =   0
                l(2) =   0
                l(3) =   1
                l(4) =   1
                l(5) =   2
                l(6) =   2
                l(7) =   3
                l(8) =   3

     PseudoPot. # 2 for O  read from file:
     /cluster/scratch/mnoe/QE/pps/O_ONCV_LDA-3.0.upf
     MD5 check sum: ca1549d10c4e927e51167f6fca52ae32
     Pseudo is Norm-conserving + core correction, Zval =  6.0
     Generated using ONCVPSP code by D. R. Hamann
     Using radial grid of  926 points,  5 beta functions with:
                l(1) =   0
                l(2) =   0
                l(3) =   1
                l(4) =   1
                l(5) =   2

     atomic species   valence    mass     pseudopotential
        W             28.00   183.84000     W ( 1.00)
        O              6.00    15.99940     O ( 1.00)

      8 Sym. Ops. (no inversion) found ( 4 have fractional translation)

   Cartesian axes

     site n.     atom                  positions (alat units)
         1           W   tau(   1) = (   0.2769700   0.2909868   0.2507700  )
         2           W   tau(   2) = (  -0.2507699   0.7413937  -0.7230299  )
         3           W   tau(   3) = (   0.2230300   0.2252035   0.7507700  )
         4           W   tau(   4) = (   0.7507700   0.8071770   0.7769700  )
         5           W   tau(   5) = (   0.7230300   0.2909868   0.7492300  )
         6           W   tau(   6) = (   0.2507700   0.7413937   0.7230300  )
         7           W   tau(   7) = (  -0.2230299   0.2252035  -0.7507699  )
         8           W   tau(   8) = (   0.2492300   0.8071770   0.2230300  )
         9           O   tau(   9) = (   0.2796700   0.0085894   0.2715100  )
        10           O   tau(  10) = (  -0.2715100   1.0237911  -0.7203300  )
        11           O   tau(  11) = (   0.2203300   0.5076008   0.7715100  )
        12           O   tau(  12) = (   0.7715100   0.5247796   0.7796700  )
        13           O   tau(  13) = (   0.7203300   0.0085894   0.7284900  )
        14           O   tau(  14) = (   0.2715100   1.0237911   0.7203300  )
        15           O   tau(  15) = (  -0.2203300   0.5076008  -0.7715100  )
        16           O   tau(  16) = (   0.2284900   0.5247796   0.2203300  )
        17           O   tau(  17) = (   0.4904599   0.2911210   0.6995400  )
        18           O   tau(  18) = (   0.4980400   0.7530905   0.8004600  )
        19           O   tau(  19) = (  -0.9904600   0.2250693   1.1995400  )
        20           O   tau(  20) = (   0.0019599   0.7954801   0.3004600  )
        21           O   tau(  21) = (   0.5095401   0.2911210   0.3004600  )
        22           O   tau(  22) = (   0.5019600   0.7530905   1.1995400  )
        23           O   tau(  23) = (  -0.0095400   0.2250693   0.8004600  )
        24           O   tau(  24) = (  -1.0019600   0.7954801   0.6995400  )
        25           O   tau(  25) = (   0.6995400   0.2369004   2.0019600  )
        26           O   tau(  26) = (   0.3004600   0.7412594   0.4904600  )
        27           O   tau(  27) = (   0.8004600   0.2792899   0.5019599  )
        28           O   tau(  28) = (   0.1995400   0.8073112   1.9904599  )
        29           O   tau(  29) = (   0.3004600   0.2369004   0.9980400  )
        30           O   tau(  30) = (   0.6995400   0.7412594   0.5095400  )
        31           O   tau(  31) = (   0.1995400   0.2792899   0.4980400  )
        32           O   tau(  32) = (   0.8004600   0.8073112   1.0095401  )

     number of k points=    40  gaussian smearing, width (Ry)=  0.0007
                       cart. coord. in units 2pi/alat
        k(    1) = (   0.0000000   0.0000000   0.0000000), wk =   0.0092593
        k(    2) = (   0.0000000   0.0000000   0.1666667), wk =   0.0370370
        k(    3) = (   0.0000000   0.0000000   0.3333333), wk =   0.0370370
        k(    4) = (   0.0000000   0.0000000  -0.5000000), wk =   0.0185185
        k(    5) = (   0.0000000   0.1614392   0.0000000), wk =   0.0185185
        k(    6) = (   0.0000000   0.1614392   0.1666667), wk =   0.0740741
        k(    7) = (   0.0000000   0.1614392   0.3333333), wk =   0.0740741
        k(    8) = (   0.0000000   0.1614392  -0.5000000), wk =   0.0370370
        k(    9) = (   0.0000000   0.3228784   0.0000000), wk =   0.0185185
        k(   10) = (   0.0000000   0.3228784   0.1666667), wk =   0.0740741
        k(   11) = (   0.0000000   0.3228784   0.3333333), wk =   0.0740741
        k(   12) = (   0.0000000   0.3228784  -0.5000000), wk =   0.0370370
        k(   13) = (   0.0000000  -0.4843176   0.0000000), wk =   0.0092593
        k(   14) = (   0.0000000  -0.4843176   0.1666667), wk =   0.0370370
        k(   15) = (   0.0000000  -0.4843176   0.3333333), wk =   0.0370370
        k(   16) = (   0.0000000  -0.4843176  -0.5000000), wk =   0.0185185
        k(   17) = (   0.1666667   0.0000000   0.1666667), wk =   0.0370370
        k(   18) = (   0.1666667   0.0000000   0.3333333), wk =   0.0740741
        k(   19) = (   0.1666667   0.0000000  -0.5000000), wk =   0.0370370
        k(   20) = (   0.1666667   0.1614392   0.1666667), wk =   0.0740741
        k(   21) = (   0.1666667   0.1614392   0.3333333), wk =   0.1481481
        k(   22) = (   0.1666667   0.1614392  -0.5000000), wk =   0.0740741
        k(   23) = (   0.1666667   0.3228784   0.1666667), wk =   0.0740741
        k(   24) = (   0.1666667   0.3228784   0.3333333), wk =   0.1481481
        k(   25) = (   0.1666667   0.3228784  -0.5000000), wk =   0.0740741
        k(   26) = (   0.1666667  -0.4843176   0.1666667), wk =   0.0370370
        k(   27) = (   0.1666667  -0.4843176   0.3333333), wk =   0.0740741
        k(   28) = (   0.1666667  -0.4843176  -0.5000000), wk =   0.0370370
        k(   29) = (   0.3333333   0.0000000   0.3333333), wk =   0.0370370
        k(   30) = (   0.3333333   0.0000000  -0.5000000), wk =   0.0370370
        k(   31) = (   0.3333333   0.1614392   0.3333333), wk =   0.0740741
        k(   32) = (   0.3333333   0.1614392  -0.5000000), wk =   0.0740741
        k(   33) = (   0.3333333   0.3228784   0.3333333), wk =   0.0740741
        k(   34) = (   0.3333333   0.3228784  -0.5000000), wk =   0.0740741
        k(   35) = (   0.3333333  -0.4843176   0.3333333), wk =   0.0370370
        k(   36) = (   0.3333333  -0.4843176  -0.5000000), wk =   0.0370370
        k(   37) = (  -0.5000000   0.0000000  -0.5000000), wk =   0.0092593
        k(   38) = (  -0.5000000   0.1614392  -0.5000000), wk =   0.0185185
        k(   39) = (  -0.5000000   0.3228784  -0.5000000), wk =   0.0185185
        k(   40) = (  -0.5000000  -0.4843176  -0.5000000), wk =   0.0092593

     Initial potential from superposition of free atoms

     starting charge  367.99656, renormalised to  368.84000
     Starting wfc are  232 randomized atomic wfcs

     Self-consistent Calculation

     iteration #  1     ecut=   120.00 Ry     beta= 0.70
     Davidson diagonalization with overlap
     ethr =  1.00E-02,  avg # of iterations =  4.9

     total energy              =   -6253.19673534 Ry
     Harris-Foulkes estimate   =   -6264.02883392 Ry
     estimated scf accuracy    <      13.62144384 Ry

[...]

     total energy              =   -6260.44155870 Ry
     Harris-Foulkes estimate   =   -6260.44155871 Ry
     estimated scf accuracy    <       0.00000001 Ry

     iteration # 13     ecut=   120.00 Ry     beta= 0.70
     Davidson diagonalization with overlap
     ethr =  3.08E-12,  avg # of iterations =  2.0

     End of self-consistent calculation

          k = 0.0000 0.0000 0.0000 ( 61381 PWs)   bands (ev):

   -65.6896 -65.6890 -65.6887 -65.6886 -65.6881 -65.6880 -65.6877 -65.6871
   -30.1886 -30.1786 -30.1786 -30.1779 -30.1287 -30.1195 -30.1195 -30.0946
   -30.0787 -30.0558 -30.0557 -30.0334 -30.0145 -30.0048 -30.0048 -29.9944
   -29.9871 -29.9852 -29.9745 -29.9745 -29.8977 -29.8977 -29.8928 -29.8911
   -19.8285 -19.8283 -19.8283 -19.8282 -19.8267 -19.8266 -19.8266 -19.8265
   -19.8211 -19.8208 -19.8207 -19.8204 -19.8192 -19.8186 -19.8186 -19.8181
   -19.8128 -19.8121 -19.8121 -19.8115 -19.8102 -19.8101 -19.8099 -19.8099
   -19.8096 -19.8096 -19.8092 -19.8091 -19.8078 -19.8068 -19.8068 -19.8062
   -19.8012 -19.8009 -19.8005 -19.8005 -19.7987 -19.7987 -19.7984 -19.7977
   -19.7864 -19.7862 -19.7856 -19.7855 -19.7833 -19.7833 -19.7825 -19.7824
   -19.7819 -19.7819 -19.7804 -19.7804 -19.7773 -19.7773 -19.7761 -19.7760
    -9.6675  -9.3372  -9.2369  -9.2369  -8.8321  -8.8320  -8.7809  -8.6548
    -8.5907  -8.4943  -8.4721  -8.4720  -7.7341  -7.6654  -7.5606  -7.5606
    -7.5000  -7.4294  -7.4294  -7.3996  -7.3890  -7.3721  -7.2381  -7.2381
     1.6375   1.6764   1.6903   1.6903   1.8190   1.8700   1.8700   1.9289
     2.0193   2.0193   2.1245   2.3047   2.6669   2.7521   2.7917   2.9187
     2.9894   2.9894   4.4664   4.4665   4.7932   4.7987   4.8303   4.9956
     4.9956   5.0881   5.0952   5.0952   5.4136   5.4136   5.5605   5.6274
     5.6558   5.7531   5.7531   5.8407   5.9336   5.9336   6.0558   6.0618
     6.0618   6.0723   6.1140   6.1443   6.1443   6.2316   6.2519   6.3859
     6.4561   6.6957   6.7051   6.7052   6.7605   6.7761   7.1384   7.1384
     7.1412   7.2058   7.2078   7.2975   7.2975   7.3816   7.3816   7.3984
     7.7457   7.7457   7.9647   8.0018   8.1980   8.2670   8.2670   8.4180
    10.1626  10.2403  10.5388  10.5454  10.5454  10.5788  12.5402  12.5402
    12.6427  12.6561  12.6561  12.9252  12.9440  13.0763  13.0763  13.2474
    13.4218  13.6012  13.6012  13.6533  14.0108  14.1160  14.1160  14.3675
    14.9500  15.1387  15.1387  15.1517  15.7279  15.8733  16.0230  16.2646
    16.2646  16.9997  17.2488  17.2488  17.8149

[...]

          k = 0.3333-0.4843-0.5000 ( 61300 PWs)   bands (ev):

[...]

          k =-0.5000 0.0000-0.5000 ( 61244 PWs)   bands (ev):

[...]

          k =-0.5000-0.4843-0.5000 ( 61272 PWs)   bands (ev):

   -65.6884 -65.6884 -65.6884 -65.6884 -65.6883 -65.6883 -65.6883 -65.6883
   -30.1430 -30.1429 -30.1416 -30.1416 -30.1416 -30.1415 -30.1414 -30.1414
   -30.0371 -30.0371 -30.0368 -30.0368 -30.0368 -30.0367 -30.0357 -30.0357
   -29.9384 -29.9384 -29.9384 -29.9384 -29.9384 -29.9384 -29.9382 -29.9382
   -19.8275 -19.8275 -19.8274 -19.8274 -19.8274 -19.8274 -19.8274 -19.8274
   -19.8196 -19.8196 -19.8196 -19.8196 -19.8195 -19.8195 -19.8195 -19.8195
   -19.8105 -19.8105 -19.8105 -19.8105 -19.8105 -19.8104 -19.8104 -19.8104
   -19.8091 -19.8090 -19.8090 -19.8090 -19.8090 -19.8090 -19.8090 -19.8090
   -19.7995 -19.7995 -19.7995 -19.7995 -19.7994 -19.7994 -19.7994 -19.7994
   -19.7848 -19.7848 -19.7847 -19.7847 -19.7845 -19.7845 -19.7845 -19.7845
   -19.7791 -19.7791 -19.7790 -19.7790 -19.7789 -19.7789 -19.7789 -19.7788
    -8.7238  -8.7238  -8.6640  -8.6640  -8.6470  -8.6470  -8.6469  -8.6469
    -8.1871  -8.1871  -8.0954  -8.0954  -8.0954  -8.0954  -8.0662  -8.0662
    -7.9829  -7.9829  -7.9828  -7.9828  -7.9102  -7.9102  -7.8912  -7.8912
     3.1766   3.1766   3.1766   3.1766   3.1795   3.1795   3.2285   3.2285
     3.3933   3.3933   3.5235   3.5236   3.5236   3.5236   3.6250   3.6250
     3.6989   3.6989   3.8171   3.8172   3.8172   3.8172   3.8275   3.8275
     4.3870   4.3870   4.4084   4.4084   4.4871   4.4871   4.4871   4.4871
     4.6777   4.6777   4.6777   4.6777   4.6982   4.6982   4.7862   4.7862
     4.8289   4.8289   4.8995   4.8996   4.9107   4.9108   4.9108   4.9108
     7.2295   7.2295   7.3768   7.3768   7.3769   7.3769   7.5428   7.5428
     7.6345   7.6345   7.6345   7.6346   7.6726   7.6727   7.7668   7.7668
     7.8545   7.8545   7.8742   7.8742   7.8742   7.8743   7.9564   7.9564
    12.2189  12.2189  12.2614  12.2614  12.2614  12.2614  12.2870  12.2870
    12.5949  12.5949  12.5949  12.5949  12.5953  12.5953  12.8301  12.8301
    12.8779  12.8779  13.0119  13.0119  13.0119  13.0120  13.0423  13.0423
    17.1795  17.1795  17.1795  17.1795  17.2496  17.2496  17.3470  17.3470
    17.6426  17.6426  17.6427  17.6427  17.6838

     the Fermi energy is    10.6055 ev

!    total energy              =   -6260.44155871 Ry
     Harris-Foulkes estimate   =   -6260.44155871 Ry
     estimated scf accuracy    <          9.6E-10 Ry

     The total energy is the sum of the following terms:

     one-electron contribution =   -4639.86099746 Ry
     hartree contribution      =    2562.86757107 Ry
     xc contribution           =    -966.57003441 Ry
     ewald contribution        =   -3216.87807873 Ry
     smearing contrib. (-TS)   =      -0.00001918 Ry

     convergence has been achieved in  13 iterations

     Writing output data file Landau_30.save

     General routines

     Parallel routines

   This run was terminated on:  13:55:59  17Sep2019

   JOB DONE.