     Program PWSCF v.6.2 (svn rev. 14038) starts on  1May2019 at  5:31:10

     K-points division:     npool     =      32
     Reading input from rscf.in

     Current dimensions of program PWSCF are:
     Max number of different atomic species (ntypx) = 10
     Max number of k-points (npk) =  40000
     Max angular momentum in pseudopotentials (lmaxx) =  3

     Subspace diagonalization in iterative solution of the eigenvalue problem:
     a serial algorithm will be used

     bravais-lattice index     =            0
     lattice parameter (alat)  =      13.8397  a.u.
     unit-cell volume          =    2804.9816 (a.u.)^3
     number of atoms/cell      =           32
     number of atomic types    =            2
     number of electrons       =       368.00
     number of Kohn-Sham states=          221
     kinetic-energy cutoff     =     120.0000  Ry
     charge density cutoff     =     480.0000  Ry
     convergence threshold     =      1.0E-08
     mixing beta               =       0.7000
     number of iterations used =            8  plain     mixing
     Exchange-correlation      = SLA PW NOGX NOGC ( 1  4  0  0 0 0)
     nstep                     =           50

     celldm(1)=  13.839685  celldm(2)=   0.000000  celldm(3)=   0.000000
     celldm(4)=   0.000000  celldm(5)=   0.000000  celldm(6)=   0.000000

     crystal axes: (cart. coord. in units of alat)
               a(1) = (   1.000000   0.000000   0.000000 )
               a(2) = (   0.000000   1.058160   0.000000 )
               a(3) = (   0.000000   0.000000   1.000000 )

     reciprocal axes: (cart. coord. in units 2 pi/alat)
               b(1) = (  1.000000  0.000000  0.000000 )
               b(2) = (  0.000000  0.945037  0.000000 )
               b(3) = (  0.000000  0.000000  1.000000 )

     PseudoPot. # 1 for W  read from file:
     /cluster/scratch/mnoe/QE/pps/W_ONCV_LDA-4.0.upf
     MD5 check sum: ba0307d5d4cd419d6f1d13dc49d7c13a
     Pseudo is Norm-conserving + core correction, Zval = 28.0
     Generated using ONCVPSP code by D. R. Hamann
     Using radial grid of 1380 points,  8 beta functions with:
                l(1) =   0
                l(2) =   0
                l(3) =   1
                l(4) =   1
                l(5) =   2
                l(6) =   2
                l(7) =   3
                l(8) =   3

     PseudoPot. # 2 for O  read from file:
     /cluster/scratch/mnoe/QE/pps/O_ONCV_LDA-3.0.upf
     MD5 check sum: a1bd6164e7280c17a38c229939bfbd54
     Pseudo is Norm-conserving + core correction, Zval =  6.0
     Generated using ONCVPSP code by D. R. Hamann
     Using radial grid of  926 points,  5 beta functions with:
                l(1) =   0
                l(2) =   0
                l(3) =   1
                l(4) =   1
                l(5) =   2

     atomic species   valence    mass     pseudopotential
        W             28.00   183.84000     W ( 1.00)
        O              6.00    15.99940     O ( 1.00)

      8 Sym. Ops. (no inversion) found ( 4 have fractional translation)

   Cartesian axes

     site n.     atom                  positions (alat units)
         1           W   tau(   1) = (   0.2805700   0.2982530   0.2508700  )
         2           W   tau(   2) = (  -0.2508700   0.7599071  -0.7194300  )
         3           W   tau(   3) = (   0.2194300   0.2308271   0.7508700  )
         4           W   tau(   4) = (   0.7508700   0.8273330   0.7805700  )
         5           W   tau(   5) = (   0.7194300   0.2982530   0.7491300  )
         6           W   tau(   6) = (   0.2508700   0.7599071   0.7194300  )
         7           W   tau(   7) = (  -0.2194300   0.2308271  -0.7508700  )
         8           W   tau(   8) = (   0.2491300   0.8273330   0.2194300  )
         9           O   tau(   9) = (   0.2836300   0.0088039   0.2743900  )
        10           O   tau(  10) = (  -0.2743900   1.0493562  -0.7163700  )
        11           O   tau(  11) = (   0.2163700   0.5202761   0.7743900  )
        12           O   tau(  12) = (   0.7743900   0.5378839   0.7836300  )
        13           O   tau(  13) = (   0.7163700   0.0088039   0.7256100  )
        14           O   tau(  14) = (   0.2743900   1.0493562   0.7163700  )
        15           O   tau(  15) = (  -0.2163700   0.5202761  -0.7743900  )
        16           O   tau(  16) = (   0.2256100   0.5378839   0.2163700  )
        17           O   tau(  17) = (   0.4891800   0.3029089   0.6995400  )
        18           O   tau(  18) = (   0.4977800   0.7690072   0.8004600  )
        19           O   tau(  19) = (  -0.9891800   0.2261711   1.1995400  )
        20           O   tau(  20) = (   0.0022200   0.8182328   0.3004600  )
        21           O   tau(  21) = (   0.5108200   0.3029089   0.3004600  )
        22           O   tau(  22) = (   0.5022200   0.7690072   1.1995400  )
        23           O   tau(  23) = (  -0.0108200   0.2261711   0.8004600  )
        24           O   tau(  24) = (  -1.0022200   0.8182328   0.6995400  )
        25           O   tau(  25) = (   0.6995400   0.2399272   2.0022200  )
        26           O   tau(  26) = (   0.3004600   0.7552511   0.4891800  )
        27           O   tau(  27) = (   0.8004600   0.2891528   0.5022200  )
        28           O   tau(  28) = (   0.1995400   0.8319889   1.9891800  )
        29           O   tau(  29) = (   0.3004600   0.2399272   0.9977800  )
        30           O   tau(  30) = (   0.6995400   0.7552511   0.5108200  )
        31           O   tau(  31) = (   0.1995400   0.2891528   0.4977800  )
        32           O   tau(  32) = (   0.8004600   0.8319889   1.0108200  )

     number of k points=    40  gaussian smearing, width (Ry)=  0.0007
                       cart. coord. in units 2pi/alat
        k(    1) = (   0.0000000   0.0000000   0.0000000), wk =   0.0092593
        k(    2) = (   0.0000000   0.0000000   0.1666667), wk =   0.0370370
        k(    3) = (   0.0000000   0.0000000   0.3333333), wk =   0.0370370
        k(    4) = (   0.0000000   0.0000000  -0.5000000), wk =   0.0185185
        k(    5) = (   0.0000000   0.1575061   0.0000000), wk =   0.0185185
        k(    6) = (   0.0000000   0.1575061   0.1666667), wk =   0.0740741
        k(    7) = (   0.0000000   0.1575061   0.3333333), wk =   0.0740741
        k(    8) = (   0.0000000   0.1575061  -0.5000000), wk =   0.0370370
        k(    9) = (   0.0000000   0.3150122   0.0000000), wk =   0.0185185
        k(   10) = (   0.0000000   0.3150122   0.1666667), wk =   0.0740741
        k(   11) = (   0.0000000   0.3150122   0.3333333), wk =   0.0740741
        k(   12) = (   0.0000000   0.3150122  -0.5000000), wk =   0.0370370
        k(   13) = (   0.0000000  -0.4725183   0.0000000), wk =   0.0092593
        k(   14) = (   0.0000000  -0.4725183   0.1666667), wk =   0.0370370
        k(   15) = (   0.0000000  -0.4725183   0.3333333), wk =   0.0370370
        k(   16) = (   0.0000000  -0.4725183  -0.5000000), wk =   0.0185185
        k(   17) = (   0.1666667   0.0000000   0.1666667), wk =   0.0370370
        k(   18) = (   0.1666667   0.0000000   0.3333333), wk =   0.0740741
        k(   19) = (   0.1666667   0.0000000  -0.5000000), wk =   0.0370370
        k(   20) = (   0.1666667   0.1575061   0.1666667), wk =   0.0740741
        k(   21) = (   0.1666667   0.1575061   0.3333333), wk =   0.1481481
        k(   22) = (   0.1666667   0.1575061  -0.5000000), wk =   0.0740741
        k(   23) = (   0.1666667   0.3150122   0.1666667), wk =   0.0740741
        k(   24) = (   0.1666667   0.3150122   0.3333333), wk =   0.1481481
        k(   25) = (   0.1666667   0.3150122  -0.5000000), wk =   0.0740741
        k(   26) = (   0.1666667  -0.4725183   0.1666667), wk =   0.0370370
        k(   27) = (   0.1666667  -0.4725183   0.3333333), wk =   0.0740741
        k(   28) = (   0.1666667  -0.4725183  -0.5000000), wk =   0.0370370
        k(   29) = (   0.3333333   0.0000000   0.3333333), wk =   0.0370370
        k(   30) = (   0.3333333   0.0000000  -0.5000000), wk =   0.0370370
        k(   31) = (   0.3333333   0.1575061   0.3333333), wk =   0.0740741
        k(   32) = (   0.3333333   0.1575061  -0.5000000), wk =   0.0740741
        k(   33) = (   0.3333333   0.3150122   0.3333333), wk =   0.0740741
        k(   34) = (   0.3333333   0.3150122  -0.5000000), wk =   0.0740741
        k(   35) = (   0.3333333  -0.4725183   0.3333333), wk =   0.0370370
        k(   36) = (   0.3333333  -0.4725183  -0.5000000), wk =   0.0370370
        k(   37) = (  -0.5000000   0.0000000  -0.5000000), wk =   0.0092593
        k(   38) = (  -0.5000000   0.1575061  -0.5000000), wk =   0.0185185
        k(   39) = (  -0.5000000   0.3150122  -0.5000000), wk =   0.0185185
        k(   40) = (  -0.5000000  -0.4725183  -0.5000000), wk =   0.0092593

     Initial potential from superposition of free atoms

     starting charge  367.99656, renormalised to  368.00000
     Starting wfc are  232 randomized atomic wfcs

     Self-consistent Calculation

     iteration #  1     ecut=   120.00 Ry     beta= 0.70
     Davidson diagonalization with overlap
     ethr =  1.00E-02,  avg # of iterations =  4.5

     total energy              =   -6253.76089503 Ry
     Harris-Foulkes estimate   =   -6264.47201912 Ry
     estimated scf accuracy    <      13.53866515 Ry

[...]

     End of self-consistent calculation

          k = 0.0000 0.0000 0.0000 ( 62239 PWs)   bands (ev):

   -66.1839 -66.1834 -66.1829 -66.1829 -66.1824 -66.1824 -66.1819 -66.1815
   -30.6922 -30.6914 -30.6873 -30.6872 -30.5988 -30.5988 -30.5943 -30.5936
   -30.4707 -30.4703 -30.4628 -30.4628 -30.4328 -30.4299 -30.4299 -30.4283
   -30.3843 -30.3843 -30.3836 -30.3808 -30.3755 -30.3755 -30.3751 -30.3695
   -20.3541 -20.3540 -20.3537 -20.3537 -20.3536 -20.3536 -20.3533 -20.3532
   -20.3420 -20.3420 -20.3418 -20.3416 -20.3409 -20.3407 -20.3405 -20.3405
   -20.3353 -20.3352 -20.3350 -20.3350 -20.3304 -20.3304 -20.3303 -20.3300
   -20.3204 -20.3202 -20.3202 -20.3202 -20.3187 -20.3186 -20.3186 -20.3182
   -20.3180 -20.3178 -20.3178 -20.3175 -20.3143 -20.3139 -20.3139 -20.3135
   -20.3101 -20.3100 -20.3092 -20.3092 -20.3057 -20.3057 -20.3052 -20.3050
   -20.3020 -20.3018 -20.3015 -20.3015 -20.2991 -20.2991 -20.2988 -20.2985
    -9.9573  -9.7550  -9.5388  -9.5388  -9.1081  -9.1081  -8.9553  -8.9488
    -8.6086  -8.5201  -8.5033  -8.5033  -8.1514  -8.1050  -7.9727  -7.9727
    -7.7502  -7.7395  -7.6186  -7.6046  -7.6045  -7.5454  -7.5454  -7.4827
     1.2424   1.2599   1.3072   1.3072   1.5772   1.5772   1.7298   1.7735
     2.1026   2.1306   2.1306   2.2077   2.2607   2.3643   2.6562   2.8830
     2.9191   2.9191   4.2201   4.2201   4.3893   4.4521   4.5466   4.5466
     4.7229   4.7229   4.7745   4.9427   5.1753   5.3300   5.3301   5.3500
     5.3839   5.4675   5.4675   5.6115   5.6537   5.6537   5.7777   5.7872
     5.7872   5.8056   5.8598   5.8871   5.9349   5.9350   6.0150   6.0858
     6.2330   6.4650   6.5400   6.5429   6.5768   6.5768   6.8267   6.8468
     6.8468   7.0346   7.0346   7.1132   7.1132   7.1229   7.1423   7.1665
     7.4201   7.4201   7.5751   7.6212   7.9236   8.0050   8.0050   8.1614
     9.8631   9.9749  10.2012  10.2012  10.2264  10.2677  12.0919  12.0919
[...]
W        0.219429979   0.218140012   0.750870009    0   0   0
W        0.750870031   0.781859972   0.780570021    0   0   0
W        0.719429969   0.281860003   0.749130008    0   0   0
W        0.250869992   0.718139997   0.719429996    0   0   0
W       -0.219429963   0.218140012  -0.750870025    0   0   0
W        0.249129991   0.781859972   0.219429969    0   0   0
O        0.283629986   0.008320000   0.274390020    0   0   0
O       -0.274390005   0.991680023  -0.716369965    0   0   0
O        0.216369997   0.491679992   0.774389973    0   0   0
O        0.774390020   0.508319977   0.783629970    0   0   0
O        0.716369980   0.008320000   0.725609978    0   0   0
O        0.274389989   0.991680023   0.716369981    0   0   0
O       -0.216369965   0.491679992  -0.774390005    0   0   0
O        0.225609994   0.508319977   0.216369980    0   0   0
O        0.489180030   0.286259998   0.699540004    0   0   0
O        0.497780010   0.726739948   0.800459963    0   0   0
O       -0.989179981   0.213740002   1.199540037    0   0   0
O        0.002220031   0.773259962   0.300460012    0   0   0
O        0.510819970   0.286259998   0.300460012    0   0   0
O        0.502219990   0.726739948   1.199540037    0   0   0
O       -0.010819978   0.213740002   0.800459963    0   0   0
O       -1.002219990   0.773259962   0.699540004    0   0   0
O        0.699540037   0.226740008   2.002219990    0   0   0
O        0.300459996   0.713739941   0.489180030    0   0   0
O        0.800459963   0.273259992   0.502220039    0   0   0
O        0.199540020   0.786259969   1.989180030    0   0   0
O        0.300459996   0.226740008   0.997780018    0   0   0
O        0.699540037   0.713739941   0.510820019    0   0   0
O        0.199540020   0.273259992   0.497780010    0   0   0
O        0.800459963   0.786259969   1.010819978    0   0   0
End final coordinates

     A final scf calculation at the relaxed structure.
     The G-vectors are recalculated for the final unit cell
     Results may differ from those at the preceding step.

     bravais-lattice index     =            0
     lattice parameter (alat)  =      13.8397  a.u.
     unit-cell volume          =    2748.8362 (a.u.)^3
     number of atoms/cell      =           32
     number of atomic types    =            2
     number of electrons       =       368.00
     number of Kohn-Sham states=          221
     kinetic-energy cutoff     =     120.0000  Ry
     charge density cutoff     =     480.0000  Ry
     convergence threshold     =      1.0E-10
     mixing beta               =       0.7000
     number of iterations used =            8  plain     mixing
     Exchange-correlation      = SLA PW NOGX NOGC ( 1  4  0  0 0 0)

     celldm(1)=  13.839685  celldm(2)=   0.000000  celldm(3)=   0.000000
     celldm(4)=   0.000000  celldm(5)=   0.000000  celldm(6)=   0.000000

     crystal axes: (cart. coord. in units of alat)
               a(1) = (   1.003822   0.000000   0.000000 )
               a(2) = (   0.000000   1.029098   0.000000 )
               a(3) = (   0.000000   0.000000   1.003822 )

     reciprocal axes: (cart. coord. in units 2 pi/alat)
               b(1) = (  0.996193  0.000000  0.000000 )
               b(2) = (  0.000000  0.971724  0.000000 )
               b(3) = (  0.000000  0.000000  0.996193 )

     PseudoPot. # 1 for W  read from file:
     /cluster/scratch/mnoe/QE/pps/W_ONCV_LDA-4.0.upf
     MD5 check sum: ba0307d5d4cd419d6f1d13dc49d7c13a
     Pseudo is Norm-conserving + core correction, Zval = 28.0
     Generated using ONCVPSP code by D. R. Hamann
     Using radial grid of 1380 points,  8 beta functions with:
                l(1) =   0
                l(2) =   0
                l(3) =   1
                l(4) =   1
                l(5) =   2
                l(6) =   2
                l(7) =   3
                l(8) =   3

     PseudoPot. # 2 for O  read from file:
     /cluster/scratch/mnoe/QE/pps/O_ONCV_LDA-3.0.upf
     MD5 check sum: a1bd6164e7280c17a38c229939bfbd54
     Pseudo is Norm-conserving + core correction, Zval =  6.0
     Generated using ONCVPSP code by D. R. Hamann
     Using radial grid of  926 points,  5 beta functions with:
                l(1) =   0
                l(2) =   0
                l(3) =   1
                l(4) =   1
                l(5) =   2

     atomic species   valence    mass     pseudopotential
        W             28.00   183.84000     W ( 1.00)
        O              6.00    15.99940     O ( 1.00)

      8 Sym. Ops. (no inversion) found ( 4 have fractional translation)

   Cartesian axes

     site n.     atom                  positions (alat units)
         1           W   tau(   1) = (   0.2816423   0.2900617   0.2518288  )
         2           W   tau(   2) = (  -0.2518288   0.7390367  -0.7221795  )
         3           W   tau(   3) = (   0.2202686   0.2244875   0.7537397  )
         4           W   tau(   4) = (   0.7537398   0.8046108   0.7835533  )
         5           W   tau(   5) = (   0.7221795   0.2900617   0.7519931  )
         6           W   tau(   6) = (   0.2518288   0.7390367   0.7221796  )
         7           W   tau(   7) = (  -0.2202686   0.2244875  -0.7537398  )
         8           W   tau(   8) = (   0.2500821   0.8046108   0.2202686  )
         9           O   tau(   9) = (   0.2847140   0.0085621   0.2754387  )
        10           O   tau(  10) = (  -0.2754387   1.0205363  -0.7191078  )
        11           O   tau(  11) = (   0.2171969   0.5059871   0.7773496  )
        12           O   tau(  12) = (   0.7773496   0.5231113   0.7866249  )
        13           O   tau(  13) = (   0.7191079   0.0085621   0.7283832  )
        14           O   tau(  14) = (   0.2754387   1.0205363   0.7191079  )
        15           O   tau(  15) = (  -0.2171969   0.5059871  -0.7773496  )
        16           O   tau(  16) = (   0.2264722   0.5231113   0.2171969  )
        17           O   tau(  17) = (   0.4910496   0.2945897   0.7022136  )
        18           O   tau(  18) = (   0.4996825   0.7478869   0.8035192  )
        19           O   tau(  19) = (  -0.9929605   0.2199595   1.2041245  )
        20           O   tau(  20) = (   0.0022285   0.7957606   0.3016083  )
        21           O   tau(  21) = (   0.5127723   0.2945897   0.3016083  )
        22           O   tau(  22) = (   0.5041394   0.7478869   1.2041245  )
        23           O   tau(  23) = (  -0.0108613   0.2199595   0.8035192  )
        24           O   tau(  24) = (  -1.0060503   0.7957606   0.7022136  )
        25           O   tau(  25) = (   0.7022136   0.2333378   2.0098722  )
        26           O   tau(  26) = (   0.3016083   0.7345086   0.4910496  )
        27           O   tau(  27) = (   0.8035192   0.2812114   0.5041395  )
        28           O   tau(  28) = (   0.2003026   0.8091389   1.9967824  )
        29           O   tau(  29) = (   0.3016083   0.2333378   1.0015934  )
        30           O   tau(  30) = (   0.7022136   0.7345086   0.5127723  )
        31           O   tau(  31) = (   0.2003026   0.2812114   0.4996825  )
        32           O   tau(  32) = (   0.8035192   0.8091389   1.0146832  )

     number of k points=    40  gaussian smearing, width (Ry)=  0.0007
                       cart. coord. in units 2pi/alat
        k(    1) = (   0.0000000   0.0000000   0.0000000), wk =   0.0092593
        k(    2) = (   0.0000000   0.0000000   0.1660321), wk =   0.0370370
        k(    3) = (   0.0000000   0.0000000   0.3320642), wk =   0.0370370
        k(    4) = (   0.0000000   0.0000000  -0.4980963), wk =   0.0185185
        k(    5) = (   0.0000000   0.1619541   0.0000000), wk =   0.0185185
        k(    6) = (   0.0000000   0.1619541   0.1660321), wk =   0.0740741
        k(    7) = (   0.0000000   0.1619541   0.3320642), wk =   0.0740741
        k(    8) = (   0.0000000   0.1619541  -0.4980963), wk =   0.0370370
        k(    9) = (   0.0000000   0.3239081   0.0000000), wk =   0.0185185
        k(   10) = (   0.0000000   0.3239081   0.1660321), wk =   0.0740741
        k(   11) = (   0.0000000   0.3239081   0.3320642), wk =   0.0740741
        k(   12) = (   0.0000000   0.3239081  -0.4980963), wk =   0.0370370
        k(   13) = (   0.0000000  -0.4858622   0.0000000), wk =   0.0092593
        k(   14) = (   0.0000000  -0.4858622   0.1660321), wk =   0.0370370
        k(   15) = (   0.0000000  -0.4858622   0.3320642), wk =   0.0370370
        k(   16) = (   0.0000000  -0.4858622  -0.4980963), wk =   0.0185185
        k(   17) = (   0.1660321   0.0000000   0.1660321), wk =   0.0370370
        k(   18) = (   0.1660321   0.0000000   0.3320642), wk =   0.0740741
        k(   19) = (   0.1660321   0.0000000  -0.4980963), wk =   0.0370370
        k(   20) = (   0.1660321   0.1619541   0.1660321), wk =   0.0740741
        k(   21) = (   0.1660321   0.1619541   0.3320642), wk =   0.1481481
        k(   22) = (   0.1660321   0.1619541  -0.4980963), wk =   0.0740741
        k(   23) = (   0.1660321   0.3239081   0.1660321), wk =   0.0740741
        k(   24) = (   0.1660321   0.3239081   0.3320642), wk =   0.1481481
        k(   25) = (   0.1660321   0.3239081  -0.4980963), wk =   0.0740741
        k(   26) = (   0.1660321  -0.4858622   0.1660321), wk =   0.0370370
        k(   27) = (   0.1660321  -0.4858622   0.3320642), wk =   0.0740741
        k(   28) = (   0.1660321  -0.4858622  -0.4980963), wk =   0.0370370
        k(   29) = (   0.3320642   0.0000000   0.3320642), wk =   0.0370370
        k(   30) = (   0.3320642   0.0000000  -0.4980963), wk =   0.0370370
        k(   31) = (   0.3320642   0.1619541   0.3320642), wk =   0.0740741
        k(   32) = (   0.3320642   0.1619541  -0.4980963), wk =   0.0740741
        k(   33) = (   0.3320642   0.3239081   0.3320642), wk =   0.0740741
        k(   34) = (   0.3320642   0.3239081  -0.4980963), wk =   0.0740741
        k(   35) = (   0.3320642  -0.4858622   0.3320642), wk =   0.0370370
        k(   36) = (   0.3320642  -0.4858622  -0.4980963), wk =   0.0370370
        k(   37) = (  -0.4980963   0.0000000  -0.4980963), wk =   0.0092593
        k(   38) = (  -0.4980963   0.1619541  -0.4980963), wk =   0.0185185
        k(   39) = (  -0.4980963   0.3239081  -0.4980963), wk =   0.0185185
        k(   40) = (  -0.4980963  -0.4858622  -0.4980963), wk =   0.0092593

     Initial potential from superposition of free atoms

     starting charge  367.99656, renormalised to  368.00000
     Starting wfc are  232 randomized atomic wfcs

     Writing output data file Landau_34.save

     Self-consistent Calculation

[...]

     total energy              =   -6261.06528107 Ry
     Harris-Foulkes estimate   =   -6261.06528107 Ry
     estimated scf accuracy    <          5.5E-10 Ry

     iteration # 14     ecut=   120.00 Ry     beta= 0.70
     Davidson diagonalization with overlap
     ethr =  1.50E-13,  avg # of iterations =  2.0

     End of self-consistent calculation

[...]

          k = 0.3321-0.4859-0.4981 ( 61060 PWs)   bands (ev):

[...]

          k =-0.4981-0.4859-0.4981 ( 61056 PWs)   bands (ev):

   -65.7942 -65.7942 -65.7942 -65.7942 -65.7942 -65.7942 -65.7941 -65.7941
   -30.2511 -30.2511 -30.2500 -30.2500 -30.2499 -30.2499 -30.2499 -30.2499
   -30.1139 -30.1139 -30.1138 -30.1138 -30.1138 -30.1138 -30.1130 -30.1129
   -30.0298 -30.0297 -30.0297 -30.0297 -30.0297 -30.0297 -30.0294 -30.0294
   -19.9518 -19.9518 -19.9518 -19.9518 -19.9517 -19.9517 -19.9517 -19.9517
   -19.9397 -19.9397 -19.9397 -19.9397 -19.9396 -19.9396 -19.9396 -19.9396
   -19.9265 -19.9265 -19.9265 -19.9265 -19.9265 -19.9265 -19.9264 -19.9263
   -19.9145 -19.9145 -19.9145 -19.9145 -19.9142 -19.9142 -19.9142 -19.9142
   -19.9133 -19.9133 -19.9132 -19.9132 -19.9129 -19.9129 -19.9129 -19.9129
   -19.9021 -19.9021 -19.9021 -19.9021 -19.9020 -19.9020 -19.9020 -19.9020
   -19.8945 -19.8945 -19.8945 -19.8945 -19.8944 -19.8944 -19.8944 -19.8944
    -8.7244  -8.7244  -8.6550  -8.6549  -8.6336  -8.6336  -8.6336  -8.6336
    -8.1673  -8.1673  -8.0741  -8.0741  -8.0741  -8.0741  -8.0280  -8.0279
    -7.9235  -7.9234  -7.9234  -7.9234  -7.8494  -7.8494  -7.8286  -7.8286
     3.1632   3.1632   3.1632   3.1632   3.1713   3.1714   3.2238   3.2238
     3.3625   3.3625   3.5235   3.5235   3.5235   3.5235   3.6481   3.6481
     3.7293   3.7294   3.8426   3.8426   3.8456   3.8456   3.8456   3.8456
     4.4157   4.4157   4.4241   4.4241   4.5241   4.5241   4.5241   4.5241
     4.7094   4.7094   4.7261   4.7261   4.7261   4.7261   4.8226   4.8226
     4.8887   4.8887   4.9658   4.9658   4.9659   4.9659   4.9720   4.9721
     7.2571   7.2572   7.4021   7.4021   7.4021   7.4021   7.5727   7.5727
     7.6551   7.6551   7.6551   7.6551   7.7176   7.7176   7.8070   7.8070
     7.9368   7.9368   7.9368   7.9368   7.9394   7.9394   8.0161   8.0161
    12.1677  12.1678  12.2274  12.2274  12.2274  12.2274  12.2762  12.2762
    12.5920  12.5920  12.5920  12.5920  12.6237  12.6237  12.8256  12.8256
    12.8746  12.8746  13.0216  13.0216  13.0216  13.0216  13.0544  13.0544
    17.0909  17.0909  17.0909  17.0909  17.2182  17.2182  17.2643  17.2643
    17.6612  17.6612  17.6612  17.6612  17.7162

     the Fermi energy is     9.2601 ev

!    total energy              =   -6261.06528107 Ry
     Harris-Foulkes estimate   =   -6261.06528107 Ry
     estimated scf accuracy    <          6.9E-11 Ry

     The total energy is the sum of the following terms:

     one-electron contribution =   -4615.32444146 Ry
     hartree contribution      =    2549.16179798 Ry
     xc contribution           =    -965.62346732 Ry
     ewald contribution        =   -3229.27917027 Ry
     smearing contrib. (-TS)   =      -0.00000000 Ry

     convergence has been achieved in  14 iterations

     Forces acting on atoms (cartesian axes, Ry/au):

     atom    1 type  1   force =    -0.06761287   -0.02186504   -0.01022985
     atom    2 type  1   force =     0.01022985    0.02186504   -0.06761287
     atom    3 type  1   force =     0.06761287    0.02186504   -0.01022985
     atom    4 type  1   force =    -0.01022985   -0.02186504   -0.06761287
     atom    5 type  1   force =     0.06761287   -0.02186504    0.01022985
     atom    6 type  1   force =    -0.01022985    0.02186504    0.06761287
     atom    7 type  1   force =    -0.06761287    0.02186504    0.01022985
     atom    8 type  1   force =     0.01022985   -0.02186504    0.06761287
     atom    9 type  2   force =     0.00219368    0.00619593   -0.00467918
     atom   10 type  2   force =     0.00467918   -0.00619593    0.00219368
     atom   11 type  2   force =    -0.00219368   -0.00619593   -0.00467918
     atom   12 type  2   force =    -0.00467918    0.00619593    0.00219368
     atom   13 type  2   force =    -0.00219368    0.00619593    0.00467918
     atom   14 type  2   force =    -0.00467918   -0.00619593   -0.00219368
     atom   15 type  2   force =     0.00219368   -0.00619593    0.00467918
     atom   16 type  2   force =     0.00467918    0.00619593   -0.00219368
     atom   17 type  2   force =    -0.04376347    0.00466691   -0.00271017
     atom   18 type  2   force =    -0.00091892    0.00721995   -0.00621395
     atom   19 type  2   force =     0.04376347   -0.00466691   -0.00271017
     atom   20 type  2   force =     0.00091892   -0.00721995   -0.00621395
     atom   21 type  2   force =     0.04376347    0.00466691    0.00271017
     atom   22 type  2   force =     0.00091892    0.00721995    0.00621395
     atom   23 type  2   force =    -0.04376347   -0.00466691    0.00271017
     atom   24 type  2   force =    -0.00091892   -0.00721995    0.00621395
     atom   25 type  2   force =     0.00621395    0.00721995    0.00091892
     atom   26 type  2   force =     0.00271017   -0.00466691   -0.04376347
     atom   27 type  2   force =    -0.00621395   -0.00721995    0.00091892
     atom   28 type  2   force =    -0.00271017    0.00466691   -0.04376347
     atom   29 type  2   force =    -0.00621395    0.00721995   -0.00091892
     atom   30 type  2   force =    -0.00271017   -0.00466691    0.04376347
     atom   31 type  2   force =     0.00621395   -0.00721995   -0.00091892
     atom   32 type  2   force =     0.00271017    0.00466691    0.04376347

     Total force =     0.000000     Total SCF correction =     0.000000

     Computing stress (Cartesian axis) and pressure

          total   stress  (Ry/bohr**3)                   (kbar)     P=   -0.15
  -0.00000018   0.00000000   0.00000000         -0.03      0.00      0.00
   0.00000000  -0.00000274   0.00000000          0.00     -0.40      0.00
   0.00000000   0.00000000  -0.00000018          0.00      0.00     -0.03

     Writing output data file Landau_34.save

     General routines

     Parallel routines

   This run was terminated on:   8:11: 4   1May2019

   JOB DONE.