     Program PWSCF v.6.4.1 starts on  3Dec2019 at 16:13:27

     K-points division:     npool     =      40
     Reading input from scf.in

     Current dimensions of program PWSCF are:
     Max number of different atomic species (ntypx) = 10
     Max number of k-points (npk) =  40000
     Max angular momentum in pseudopotentials (lmaxx) =  3

     Subspace diagonalization in iterative solution of the eigenvalue problem:
     a serial algorithm will be used

     Message from routine setup:
     using ibrav=0 with symmetry is DISCOURAGED, use correct ibrav instead

     bravais-lattice index     =            0
     lattice parameter (alat)  =       9.8013  a.u.
     unit-cell volume          =    1405.8154 (a.u.)^3
     number of atoms/cell      =           16
     number of atomic types    =            2
     number of electrons       =       184.05
     number of Kohn-Sham states=          110
     kinetic-energy cutoff     =     120.0000  Ry
     charge density cutoff     =     480.0000  Ry
     convergence threshold     =      1.0E-08
     mixing beta               =       0.7000
     number of iterations used =            8  plain     mixing
     Exchange-correlation      = SLA PW NOGX NOGC ( 1  4  0  0 0 0)

     celldm(1)=   9.801346  celldm(2)=   0.000000  celldm(3)=   0.000000
     celldm(4)=   0.000000  celldm(5)=   0.000000  celldm(6)=   0.000000

     crystal axes: (cart. coord. in units of alat)
               a(1) = (   1.000000   0.000000   0.000000 )
               a(2) = (   0.000000   1.000000   0.000000 )
               a(3) = (   0.000000   0.000000   1.493039 )

     reciprocal axes: (cart. coord. in units 2 pi/alat)
               b(1) = (  1.000000  0.000000  0.000000 )
               b(2) = (  0.000000  1.000000  0.000000 )
               b(3) = (  0.000000  0.000000  0.669775 )

     PseudoPot. # 1 for W  read from file:
     /cluster/scratch/mnoe/QE/pps/W_ONCV_LDA-4.0.upf
     MD5 check sum: ba0307d5d4cd419d6f1d13dc49d7c13a
     Pseudo is Norm-conserving + core correction, Zval = 28.0
     Generated using ONCVPSP code by D. R. Hamann
     Using radial grid of 1380 points,  8 beta functions with:
                l(1) =   0
                l(2) =   0
                l(3) =   1
                l(4) =   1
                l(5) =   2
                l(6) =   2
                l(7) =   3
                l(8) =   3

     PseudoPot. # 2 for O  read from file:
     /cluster/scratch/mnoe/QE/pps/O_ONCV_LDA-3.0.upf
     MD5 check sum: b55cdb4f45ae2203d24ad12cf8d61a31
     Pseudo is Norm-conserving + core correction, Zval =  6.0
     Generated using ONCVPSP code by D. R. Hamann
     Using radial grid of  926 points,  5 beta functions with:
                l(1) =   0
                l(2) =   0
                l(3) =   1
                l(4) =   1
                l(5) =   2

     atomic species   valence    mass     pseudopotential
        W             28.00   183.84000     W ( 1.00)
        O              6.00    15.99940     O ( 1.00)

     16 Sym. Ops., with inversion, found (14 have fractional translation)

   Cartesian axes

     site n.     atom                  positions (alat units)
         1           W   tau(   1) = (   0.2500000   0.2500000   0.3256616  )
         2           W   tau(   2) = (   0.7500000   0.7500000   1.1673772  )
         3           W   tau(   3) = (   0.7500000   0.7500000   0.4208578  )
         4           W   tau(   4) = (   0.2500000   0.2500000   1.0721809  )
         5           O   tau(   5) = (   0.2500000   0.2500000   0.7340824  )
         6           O   tau(   6) = (   0.7500000   0.7500000   0.7589563  )
         7           O   tau(   7) = (   0.7500000   0.7500000   0.0124370  )
         8           O   tau(   8) = (   0.2500000   0.2500000   1.4806018  )
         9           O   tau(   9) = (   0.4494100   0.5505900   0.3732597  )
        10           O   tau(  10) = (   0.5505900   0.4494100   1.1197790  )
        11           O   tau(  11) = (   0.0505900   0.9494100   0.3732597  )
        12           O   tau(  12) = (   0.9494099   0.0505900   1.1197790  )
        13           O   tau(  13) = (   0.9494100   0.4494100   0.3732597  )
        14           O   tau(  14) = (   0.0505900   0.5505900   1.1197790  )
        15           O   tau(  15) = (   0.5505900   0.0505900   0.3732597  )
        16           O   tau(  16) = (   0.4494100   0.9494099   1.1197790  )

     number of k points=    60  gaussian smearing, width (Ry)=  0.0007
                       cart. coord. in units 2pi/alat
        k(    1) = (   0.0000000   0.0000000   0.0000000), wk =   0.0041152
        k(    2) = (   0.0000000   0.0000000   0.1116292), wk =   0.0082305
        k(    3) = (   0.0000000   0.0000000   0.2232583), wk =   0.0082305
        k(    4) = (   0.0000000   0.0000000  -0.3348875), wk =   0.0041152
        k(    5) = (   0.0000000   0.1111111   0.0000000), wk =   0.0164609
        k(    6) = (   0.0000000   0.1111111   0.1116292), wk =   0.0329218
        k(    7) = (   0.0000000   0.1111111   0.2232583), wk =   0.0329218
        k(    8) = (   0.0000000   0.1111111  -0.3348875), wk =   0.0164609
        k(    9) = (   0.0000000   0.2222222   0.0000000), wk =   0.0164609
        k(   10) = (   0.0000000   0.2222222   0.1116292), wk =   0.0329218
        k(   11) = (   0.0000000   0.2222222   0.2232583), wk =   0.0329218
        k(   12) = (   0.0000000   0.2222222  -0.3348875), wk =   0.0164609
        k(   13) = (   0.0000000   0.3333333   0.0000000), wk =   0.0164609
        k(   14) = (   0.0000000   0.3333333   0.1116292), wk =   0.0329218
        k(   15) = (   0.0000000   0.3333333   0.2232583), wk =   0.0329218
        k(   16) = (   0.0000000   0.3333333  -0.3348875), wk =   0.0164609
        k(   17) = (   0.0000000   0.4444444   0.0000000), wk =   0.0164609
        k(   18) = (   0.0000000   0.4444444   0.1116292), wk =   0.0329218
        k(   19) = (   0.0000000   0.4444444   0.2232583), wk =   0.0329218
        k(   20) = (   0.0000000   0.4444444  -0.3348875), wk =   0.0164609
        k(   21) = (   0.1111111   0.1111111   0.0000000), wk =   0.0164609
        k(   22) = (   0.1111111   0.1111111   0.1116292), wk =   0.0329218
        k(   23) = (   0.1111111   0.1111111   0.2232583), wk =   0.0329218
        k(   24) = (   0.1111111   0.1111111  -0.3348875), wk =   0.0164609
        k(   25) = (   0.1111111   0.2222222   0.0000000), wk =   0.0329218
        k(   26) = (   0.1111111   0.2222222   0.1116292), wk =   0.0658436
        k(   27) = (   0.1111111   0.2222222   0.2232583), wk =   0.0658436
        k(   28) = (   0.1111111   0.2222222  -0.3348875), wk =   0.0329218
        k(   29) = (   0.1111111   0.3333333   0.0000000), wk =   0.0329218
        k(   30) = (   0.1111111   0.3333333   0.1116292), wk =   0.0658436
        k(   31) = (   0.1111111   0.3333333   0.2232583), wk =   0.0658436
        k(   32) = (   0.1111111   0.3333333  -0.3348875), wk =   0.0329218
        k(   33) = (   0.1111111   0.4444444   0.0000000), wk =   0.0329218
        k(   34) = (   0.1111111   0.4444444   0.1116292), wk =   0.0658436
        k(   35) = (   0.1111111   0.4444444   0.2232583), wk =   0.0658436
        k(   36) = (   0.1111111   0.4444444  -0.3348875), wk =   0.0329218
        k(   37) = (   0.2222222   0.2222222   0.0000000), wk =   0.0164609
        k(   38) = (   0.2222222   0.2222222   0.1116292), wk =   0.0329218
        k(   39) = (   0.2222222   0.2222222   0.2232583), wk =   0.0329218
        k(   40) = (   0.2222222   0.2222222  -0.3348875), wk =   0.0164609
        k(   41) = (   0.2222222   0.3333333   0.0000000), wk =   0.0329218
        k(   42) = (   0.2222222   0.3333333   0.1116292), wk =   0.0658436
        k(   43) = (   0.2222222   0.3333333   0.2232583), wk =   0.0658436
        k(   44) = (   0.2222222   0.3333333  -0.3348875), wk =   0.0329218
        k(   45) = (   0.2222222   0.4444444   0.0000000), wk =   0.0329218
        k(   46) = (   0.2222222   0.4444444   0.1116292), wk =   0.0658436
        k(   47) = (   0.2222222   0.4444444   0.2232583), wk =   0.0658436
        k(   48) = (   0.2222222   0.4444444  -0.3348875), wk =   0.0329218
        k(   49) = (   0.3333333   0.3333333   0.0000000), wk =   0.0164609
        k(   50) = (   0.3333333   0.3333333   0.1116292), wk =   0.0329218
        k(   51) = (   0.3333333   0.3333333   0.2232583), wk =   0.0329218
        k(   52) = (   0.3333333   0.3333333  -0.3348875), wk =   0.0164609
        k(   53) = (   0.3333333   0.4444444   0.0000000), wk =   0.0329218
        k(   54) = (   0.3333333   0.4444444   0.1116292), wk =   0.0658436
        k(   55) = (   0.3333333   0.4444444   0.2232583), wk =   0.0658436
        k(   56) = (   0.3333333   0.4444444  -0.3348875), wk =   0.0329218
        k(   57) = (   0.4444444   0.4444444   0.0000000), wk =   0.0164609
        k(   58) = (   0.4444444   0.4444444   0.1116292), wk =   0.0329218
        k(   59) = (   0.4444444   0.4444444   0.2232583), wk =   0.0329218
        k(   60) = (   0.4444444   0.4444444  -0.3348875), wk =   0.0164609

     Initial potential from superposition of free atoms

     starting charge  183.99828, renormalised to  184.05000
     Starting wfcs are  116 randomized atomic wfcs

     Self-consistent Calculation

     iteration #  1     ecut=   120.00 Ry     beta= 0.70
     Davidson diagonalization with overlap
     ethr =  1.00E-02,  avg # of iterations =  4.2

     total energy              =   -3126.92653762 Ry
     Harris-Foulkes estimate   =   -3132.26807561 Ry
     estimated scf accuracy    <       6.75538520 Ry

[...]

     total energy              =   -3130.52068562 Ry
     Harris-Foulkes estimate   =   -3130.52068563 Ry
     estimated scf accuracy    <       0.00000003 Ry

     iteration # 12     ecut=   120.00 Ry     beta= 0.70
     Davidson diagonalization with overlap
     ethr =  1.64E-11,  avg # of iterations =  2.0

     End of self-consistent calculation

          k = 0.0000 0.0000 0.0000 ( 31167 PWs)   bands (ev):

   -66.1972 -66.1968 -66.1952 -66.1948 -30.6025 -30.5963 -30.5427 -30.5377
   -30.5270 -30.5270 -30.5237 -30.5237 -30.4333 -30.4333 -30.4306 -30.4306
   -20.3576 -20.3575 -20.3574 -20.3574 -20.3439 -20.3435 -20.3384 -20.3379
   -20.3347 -20.3347 -20.3343 -20.3343 -20.3334 -20.3334 -20.3328 -20.3328
   -20.3262 -20.3261 -20.3255 -20.3254 -20.3234 -20.3234 -20.3233 -20.3233
   -20.3165 -20.3165 -20.3161 -20.3161  -9.9662  -9.6774  -9.1295  -9.0572
    -9.0451  -8.9183  -7.9020  -7.7929  -7.6497  -7.6497  -7.6285  -7.6285
     1.1943   1.1948   1.3337   1.5820   1.6324   1.8336   2.3951   2.4689
     2.7009   2.7009   4.1143   4.1143   4.9897   4.9897   5.0422   5.4791
     5.4791   5.4907   5.4907   5.7691   5.7691   5.9154   5.9208   6.7624
     6.7624   6.8644   6.9899   7.0027   7.3717   7.3717   7.4165   7.4165
     7.7543   7.7680   8.0412   8.0412   9.2057   9.2127   9.9934   9.9934
    12.2533  12.2533  12.7967  12.7997  13.3533  13.3533  13.7346  14.1098
    14.1098  14.8718  15.3368  15.3478  15.4301  16.7430

[...]

          k = 0.4444 0.4444-0.3349 ( 31226 PWs)   bands (ev):

   -66.1960 -66.1960 -66.1960 -66.1960 -30.5700 -30.5700 -30.5699 -30.5699
   -30.5303 -30.5303 -30.5274 -30.5274 -30.4306 -30.4306 -30.4278 -30.4278
   -20.3575 -20.3575 -20.3575 -20.3575 -20.3410 -20.3410 -20.3410 -20.3410
   -20.3345 -20.3345 -20.3345 -20.3345 -20.3331 -20.3331 -20.3331 -20.3331
   -20.3259 -20.3259 -20.3258 -20.3258 -20.3242 -20.3242 -20.3239 -20.3239
   -20.3157 -20.3157 -20.3155 -20.3155  -9.3354  -9.3354  -9.2904  -9.2904
    -8.4916  -8.4916  -8.4861  -8.4861  -7.8461  -7.8461  -7.7865  -7.7865
     1.2895   1.2895   1.4011   1.4011   3.1748   3.1748   3.1792   3.1792
     3.4154   3.4154   3.4418   3.4418   4.6426   4.6426   4.8812   4.8812
     5.1876   5.1876   5.2695   5.2696   5.8941   5.8941   6.0565   6.0565
     6.0914   6.0914   6.2445   6.2445   6.7270   6.7270   6.8150   6.8150
     7.4230   7.4230   7.4333   7.4333  11.2869  11.2869  11.3443  11.3443
    12.1985  12.1985  12.2579  12.2579  13.4382  13.4382  13.5199  13.5199
    15.5749  15.5749  15.7047  15.7047  18.0370  18.0370

     the Fermi energy is     9.4966 ev

!    total energy              =   -3130.52068562 Ry
     Harris-Foulkes estimate   =   -3130.52068562 Ry
     estimated scf accuracy    <          2.1E-09 Ry

     The total energy is the sum of the following terms:

     one-electron contribution =   -2362.51024724 Ry
     hartree contribution      =    1299.47655559 Ry
     xc contribution           =    -482.84980582 Ry
     ewald contribution        =   -1584.63718739 Ry
     smearing contrib. (-TS)   =      -0.00000076 Ry

     convergence has been achieved in  12 iterations

     Writing output data file chempot_1.save/

     General routines

     Parallel routines

   This run was terminated on:  16:19:24   3Dec2019

   JOB DONE.