     Program PWSCF v.6.2 (svn rev. 14038) starts on 28Aug2019 at 12:45:35

     K-points division:     npool     =      64
     Reading input from scf.in

     Current dimensions of program PWSCF are:
     Max number of different atomic species (ntypx) = 10
     Max number of k-points (npk) =  40000
     Max angular momentum in pseudopotentials (lmaxx) =  3

     Subspace diagonalization in iterative solution of the eigenvalue problem:
     a serial algorithm will be used

     bravais-lattice index     =            0
     lattice parameter (alat)  =      13.8296  a.u.
     unit-cell volume          =    2787.8206 (a.u.)^3
     number of atoms/cell      =           32
     number of atomic types    =            2
     number of electrons       =       368.36
     number of Kohn-Sham states=          221
     kinetic-energy cutoff     =     120.0000  Ry
     charge density cutoff     =     480.0000  Ry
     convergence threshold     =      1.0E-08
     mixing beta               =       0.7000
     number of iterations used =            8  plain     mixing
     Exchange-correlation      = SLA PW NOGX NOGC ( 1  4  0  0 0 0)

     celldm(1)=  13.829597  celldm(2)=   0.000000  celldm(3)=   0.000000
     celldm(4)=   0.000000  celldm(5)=   0.000000  celldm(6)=   0.000000

     crystal axes: (cart. coord. in units of alat)
               a(1) = (   1.000000   0.000000   0.000000 )
               a(2) = (   0.000000   1.050315   0.000000 )
               a(3) = (   0.000000   0.000000   1.003498 )

     reciprocal axes: (cart. coord. in units 2 pi/alat)
               b(1) = (  1.000000  0.000000  0.000000 )
               b(2) = (  0.000000  0.952095  0.000000 )
               b(3) = (  0.000000  0.000000  0.996514 )

     PseudoPot. # 1 for W  read from file:
     /cluster/scratch/mnoe/QE/pps/W_ONCV_LDA-4.0.upf
     MD5 check sum: ba0307d5d4cd419d6f1d13dc49d7c13a
     Pseudo is Norm-conserving + core correction, Zval = 28.0
     Generated using ONCVPSP code by D. R. Hamann
     Using radial grid of 1380 points,  8 beta functions with:
                l(1) =   0
                l(2) =   0
                l(3) =   1
                l(4) =   1
                l(5) =   2
                l(6) =   2
                l(7) =   3
                l(8) =   3

     PseudoPot. # 2 for O  read from file:
     /cluster/scratch/mnoe/QE/pps/O_ONCV_LDA-3.0.upf
     MD5 check sum: b55cdb4f45ae2203d24ad12cf8d61a31
     Pseudo is Norm-conserving + core correction, Zval =  6.0
     Generated using ONCVPSP code by D. R. Hamann
     Using radial grid of  926 points,  5 beta functions with:
                l(1) =   0
                l(2) =   0
                l(3) =   1
                l(4) =   1
                l(5) =   2

     atomic species   valence    mass     pseudopotential
        W             28.00   183.84000     W ( 1.00)
        O              6.00    15.99940     O ( 1.00)

      8 Sym. Ops., with inversion, found ( 6 have fractional translation)

   Cartesian axes

     site n.     atom                  positions (alat units)
         1           W   tau(   1) = (   0.2379800   0.2960418   0.0113997  )
         2           W   tau(   2) = (   0.7620200   0.7542731   0.9920987  )
         3           W   tau(   3) = (   0.2620200   0.2291157   0.5131490  )
         4           W   tau(   4) = (   0.7379800   0.8211992   0.4903495  )
         5           W   tau(   5) = (   0.7620200   0.2960418   0.4903495  )
         6           W   tau(   6) = (   0.2379800   0.7542731   0.5131490  )
         7           W   tau(   7) = (   0.7379800   0.2291157   0.9920987  )
         8           W   tau(   8) = (   0.2620200   0.8211992   0.0113997  )
         9           O   tau(   9) = (   0.2278200   0.0087386   0.0035423  )
        10           O   tau(  10) = (   0.7721800   1.0415763   0.9999561  )
        11           O   tau(  11) = (   0.2721800   0.5164188   0.5052916  )
        12           O   tau(  12) = (   0.7278200   0.5338961   0.4982069  )
        13           O   tau(  13) = (   0.7721800   0.0087386   0.4982069  )
        14           O   tau(  14) = (   0.2278200   1.0415763   0.5052916  )
        15           O   tau(  15) = (   0.7278200   0.5164188   0.9999561  )
        16           O   tau(  16) = (   0.2721800   0.5338961   0.0035423  )
        17           O   tau(  17) = (   0.5032900   0.2386735   0.4511127  )
        18           O   tau(  18) = (   0.4967100   0.8116414   0.5523857  )
        19           O   tau(  19) = (   0.9967100   0.2864839   0.9528620  )
        20           O   tau(  20) = (   0.0032899   0.7638310   0.0506365  )
        21           O   tau(  21) = (   0.4967100   0.2386735   0.0506365  )
        22           O   tau(  22) = (   0.5032900   0.8116414   0.9528620  )
        23           O   tau(  23) = (   0.0032899   0.2864839   0.5523857  )
        24           O   tau(  24) = (   0.9967100   0.7638310   0.4511127  )
        25           O   tau(  25) = (   0.6995400   0.2573587   0.7476164  )
        26           O   tau(  26) = (   0.3004600   0.7929563   0.2558821  )
        27           O   tau(  27) = (   0.8004600   0.2677988   0.2458672  )
        28           O   tau(  28) = (   0.1995400   0.7825161   0.7576313  )
        29           O   tau(  29) = (   0.3004600   0.2573587   0.7576313  )
        30           O   tau(  30) = (   0.6995400   0.7929563   0.2458672  )
        31           O   tau(  31) = (   0.1995400   0.2677988   0.2558821  )
        32           O   tau(  32) = (   0.8004600   0.7825161   0.7476164  )

     number of k points=    64  gaussian smearing, width (Ry)=  0.0007
                       cart. coord. in units 2pi/alat
        k(    1) = (   0.0000000   0.0000000   0.0000000), wk =   0.0092593
        k(    2) = (   0.0000000   0.0000000   0.1660856), wk =   0.0185185
        k(    3) = (   0.0000000   0.0000000   0.3321712), wk =   0.0185185
        k(    4) = (   0.0000000   0.0000000  -0.4982569), wk =   0.0092593
        k(    5) = (   0.0000000   0.1586826   0.0000000), wk =   0.0185185
        k(    6) = (   0.0000000   0.1586826   0.1660856), wk =   0.0370370
        k(    7) = (   0.0000000   0.1586826   0.3321712), wk =   0.0370370
        k(    8) = (   0.0000000   0.1586826  -0.4982569), wk =   0.0185185
        k(    9) = (   0.0000000   0.3173651   0.0000000), wk =   0.0185185
        k(   10) = (   0.0000000   0.3173651   0.1660856), wk =   0.0370370
        k(   11) = (   0.0000000   0.3173651   0.3321712), wk =   0.0370370
        k(   12) = (   0.0000000   0.3173651  -0.4982569), wk =   0.0185185
        k(   13) = (   0.0000000  -0.4760477   0.0000000), wk =   0.0092593
        k(   14) = (   0.0000000  -0.4760477   0.1660856), wk =   0.0185185
        k(   15) = (   0.0000000  -0.4760477   0.3321712), wk =   0.0185185
        k(   16) = (   0.0000000  -0.4760477  -0.4982569), wk =   0.0092593
        k(   17) = (   0.1666667   0.0000000   0.0000000), wk =   0.0185185
        k(   18) = (   0.1666667   0.0000000   0.1660856), wk =   0.0370370
        k(   19) = (   0.1666667   0.0000000   0.3321712), wk =   0.0370370
        k(   20) = (   0.1666667   0.0000000  -0.4982569), wk =   0.0185185
        k(   21) = (   0.1666667   0.1586826   0.0000000), wk =   0.0370370
        k(   22) = (   0.1666667   0.1586826   0.1660856), wk =   0.0740741
        k(   23) = (   0.1666667   0.1586826   0.3321712), wk =   0.0740741
        k(   24) = (   0.1666667   0.1586826  -0.4982569), wk =   0.0370370
        k(   25) = (   0.1666667   0.3173651   0.0000000), wk =   0.0370370
        k(   26) = (   0.1666667   0.3173651   0.1660856), wk =   0.0740741
        k(   27) = (   0.1666667   0.3173651   0.3321712), wk =   0.0740741
        k(   28) = (   0.1666667   0.3173651  -0.4982569), wk =   0.0370370
        k(   29) = (   0.1666667  -0.4760477   0.0000000), wk =   0.0185185
        k(   30) = (   0.1666667  -0.4760477   0.1660856), wk =   0.0370370
        k(   31) = (   0.1666667  -0.4760477   0.3321712), wk =   0.0370370
        k(   32) = (   0.1666667  -0.4760477  -0.4982569), wk =   0.0185185
        k(   33) = (   0.3333333   0.0000000   0.0000000), wk =   0.0185185
        k(   34) = (   0.3333333   0.0000000   0.1660856), wk =   0.0370370
        k(   35) = (   0.3333333   0.0000000   0.3321712), wk =   0.0370370
        k(   36) = (   0.3333333   0.0000000  -0.4982569), wk =   0.0185185
        k(   37) = (   0.3333333   0.1586826   0.0000000), wk =   0.0370370
        k(   38) = (   0.3333333   0.1586826   0.1660856), wk =   0.0740741
        k(   39) = (   0.3333333   0.1586826   0.3321712), wk =   0.0740741
        k(   40) = (   0.3333333   0.1586826  -0.4982569), wk =   0.0370370
        k(   41) = (   0.3333333   0.3173651   0.0000000), wk =   0.0370370
        k(   42) = (   0.3333333   0.3173651   0.1660856), wk =   0.0740741
        k(   43) = (   0.3333333   0.3173651   0.3321712), wk =   0.0740741
        k(   44) = (   0.3333333   0.3173651  -0.4982569), wk =   0.0370370
        k(   45) = (   0.3333333  -0.4760477   0.0000000), wk =   0.0185185
        k(   46) = (   0.3333333  -0.4760477   0.1660856), wk =   0.0370370
        k(   47) = (   0.3333333  -0.4760477   0.3321712), wk =   0.0370370
        k(   48) = (   0.3333333  -0.4760477  -0.4982569), wk =   0.0185185
        k(   49) = (  -0.5000000   0.0000000   0.0000000), wk =   0.0092593
        k(   50) = (  -0.5000000   0.0000000   0.1660856), wk =   0.0185185
        k(   51) = (  -0.5000000   0.0000000   0.3321712), wk =   0.0185185
        k(   52) = (  -0.5000000   0.0000000  -0.4982569), wk =   0.0092593
        k(   53) = (  -0.5000000   0.1586826   0.0000000), wk =   0.0185185
        k(   54) = (  -0.5000000   0.1586826   0.1660856), wk =   0.0370370
        k(   55) = (  -0.5000000   0.1586826   0.3321712), wk =   0.0370370
        k(   56) = (  -0.5000000   0.1586826  -0.4982569), wk =   0.0185185
        k(   57) = (  -0.5000000   0.3173651   0.0000000), wk =   0.0185185
        k(   58) = (  -0.5000000   0.3173651   0.1660856), wk =   0.0370370
        k(   59) = (  -0.5000000   0.3173651   0.3321712), wk =   0.0370370
        k(   60) = (  -0.5000000   0.3173651  -0.4982569), wk =   0.0185185
        k(   61) = (  -0.5000000  -0.4760477   0.0000000), wk =   0.0092593
        k(   62) = (  -0.5000000  -0.4760477   0.1660856), wk =   0.0185185
        k(   63) = (  -0.5000000  -0.4760477   0.3321712), wk =   0.0185185
        k(   64) = (  -0.5000000  -0.4760477  -0.4982569), wk =   0.0092593

     Initial potential from superposition of free atoms

     starting charge  367.99656, renormalised to  368.36000
     Starting wfc are  232 randomized atomic wfcs

     Self-consistent Calculation

     iteration #  1     ecut=   120.00 Ry     beta= 0.70
     Davidson diagonalization with overlap
     ethr =  1.00E-02,  avg # of iterations =  5.1

     total energy              =   -6253.68527779 Ry
     Harris-Foulkes estimate   =   -6264.36538283 Ry
     estimated scf accuracy    <      13.48391448 Ry

[...]

     total energy              =   -6260.85169879 Ry
     Harris-Foulkes estimate   =   -6260.85169880 Ry
     estimated scf accuracy    <       0.00000002 Ry

     iteration # 13     ecut=   120.00 Ry     beta= 0.70
     Davidson diagonalization with overlap
     ethr =  6.42E-12,  avg # of iterations =  2.6

     End of self-consistent calculation

          k = 0.0000 0.0000 0.0000 ( 61831 PWs)   bands (ev):

   -65.9682 -65.9677 -65.9672 -65.9671 -65.9667 -65.9667 -65.9662 -65.9657
   -30.3943 -30.3884 -30.3873 -30.3817 -30.3480 -30.3388 -30.3384 -30.3286
   -30.3275 -30.3215 -30.3156 -30.3113 -30.3076 -30.3061 -30.2962 -30.2884
   -30.2278 -30.2261 -30.2259 -30.2252 -30.2186 -30.2137 -30.2114 -30.2069
   -20.1209 -20.1208 -20.1205 -20.1204 -20.1203 -20.1202 -20.1199 -20.1198
   -20.1081 -20.1079 -20.1076 -20.1074 -20.1054 -20.1049 -20.1046 -20.1041
   -20.1037 -20.1030 -20.1030 -20.1022 -20.1015 -20.1012 -20.1006 -20.1005
   -20.1005 -20.1001 -20.1000 -20.1000 -20.0998 -20.0996 -20.0994 -20.0991
   -20.0898 -20.0896 -20.0895 -20.0893 -20.0866 -20.0863 -20.0861 -20.0859
   -20.0787 -20.0787 -20.0774 -20.0774 -20.0723 -20.0723 -20.0720 -20.0719
   -20.0712 -20.0712 -20.0707 -20.0706 -20.0676 -20.0675 -20.0663 -20.0662
    -9.8315  -9.5287  -9.3859  -9.3834  -9.0973  -9.0757  -8.9640  -8.8879
    -8.8713  -8.7589  -8.7215  -8.7184  -7.7792  -7.6954  -7.6917  -7.6694
    -7.6594  -7.6513  -7.6478  -7.6138  -7.5377  -7.5228  -7.5089  -7.5035
     1.3948   1.4016   1.4587   1.4678   1.4822   1.5176   1.5227   1.7433
     1.7465   1.7859   1.8094   2.0181   2.5092   2.5965   2.6661   2.6918
     2.8121   2.8555   4.2290   4.2866   4.4658   4.5816   4.8182   4.9001
     4.9368   4.9376   4.9519   4.9589   5.1769   5.1943   5.2812   5.5082
     5.5967   5.6024   5.6620   5.6690   5.7083   5.7370   5.8340   5.9064
     5.9420   5.9598   5.9727   5.9970   6.0642   6.0780   6.1224   6.2193
     6.2382   6.3324   6.3704   6.6374   6.6546   6.8896   6.9061   6.9422
     6.9915   7.0060   7.0224   7.0808   7.1015   7.1571   7.3819   7.4263
     7.4535   7.4941   7.8506   7.8701   8.0848   8.1493   8.1960   8.2562
     9.6495   9.6651  10.2000  10.2226  10.2399  10.2664  12.3374  12.3693
    12.4775  12.5275  12.5836  12.5885  12.7078  12.7109  12.7671  12.9181
    13.3600  13.4247  13.4292  13.5078  13.7927  13.9531  14.2318  14.2348
    14.5371  14.5996  14.8240  15.0101  15.5588  15.5856  15.6731  16.1159
    16.1843  16.8877  17.0696  17.1602  17.6462

[...]

          k = 0.3333-0.4760-0.4983 ( 61848 PWs)   bands (ev):

[...]

          k =-0.5000 0.0000 0.0000 ( 61868 PWs)   bands (ev):

[...]

          k =-0.5000-0.4760-0.4983 ( 61920 PWs)   bands (ev):

   -65.9669 -65.9669 -65.9669 -65.9669 -65.9669 -65.9669 -65.9669 -65.9669
   -30.3588 -30.3588 -30.3587 -30.3587 -30.3580 -30.3580 -30.3580 -30.3580
   -30.2800 -30.2800 -30.2800 -30.2800 -30.2773 -30.2773 -30.2773 -30.2773
   -30.2570 -30.2570 -30.2570 -30.2570 -30.2544 -30.2544 -30.2544 -30.2543
   -20.1203 -20.1203 -20.1203 -20.1203 -20.1203 -20.1203 -20.1203 -20.1203
   -20.1062 -20.1062 -20.1062 -20.1062 -20.1061 -20.1061 -20.1061 -20.1061
   -20.1022 -20.1022 -20.1022 -20.1022 -20.1018 -20.1018 -20.1018 -20.1017
   -20.1003 -20.1003 -20.1003 -20.1003 -20.0998 -20.0998 -20.0998 -20.0997
   -20.0879 -20.0879 -20.0879 -20.0879 -20.0877 -20.0877 -20.0877 -20.0877
   -20.0750 -20.0750 -20.0750 -20.0750 -20.0750 -20.0750 -20.0750 -20.0750
   -20.0693 -20.0693 -20.0693 -20.0693 -20.0693 -20.0693 -20.0693 -20.0692
    -8.8318  -8.8318  -8.8318  -8.8318  -8.8087  -8.8087  -8.8087  -8.8087
    -8.3037  -8.3037  -8.3037  -8.3037  -8.2690  -8.2690  -8.2690  -8.2690
    -8.2241  -8.2241  -8.2241  -8.2241  -8.1932  -8.1932  -8.1932  -8.1932
     3.0205   3.0205   3.0205   3.0205   3.1085   3.1085   3.1085   3.1085
     3.2638   3.2638   3.2638   3.2638   3.3887   3.3887   3.3887   3.3887
     3.4678   3.4678   3.4678   3.4678   3.6492   3.6492   3.6492   3.6492
     4.2629   4.2629   4.2629   4.2629   4.2836   4.2836   4.2836   4.2836
     4.4678   4.4678   4.4678   4.4678   4.5321   4.5321   4.5321   4.5321
     4.6062   4.6062   4.6062   4.6062   4.6748   4.6748   4.6748   4.6748
     7.1921   7.1921   7.1921   7.1921   7.3736   7.3736   7.3736   7.3736
     7.4300   7.4300   7.4300   7.4300   7.4887   7.4887   7.4887   7.4887
     7.6593   7.6593   7.6593   7.6593   7.7294   7.7294   7.7294   7.7294
    12.0031  12.0031  12.0031  12.0031  12.0228  12.0228  12.0228  12.0228
    12.3292  12.3292  12.3292  12.3292  12.5023  12.5023  12.5023  12.5023
    12.6633  12.6633  12.6633  12.6633  12.7591  12.7591  12.7591  12.7591
    17.1771  17.1772  17.1772  17.1772  17.2632  17.2632  17.2632  17.2632
    17.4798  17.4798  17.4798  17.4798  17.5407

     the Fermi energy is     9.9771 ev

!    total energy              =   -6260.85169879 Ry
     Harris-Foulkes estimate   =   -6260.85169879 Ry
     estimated scf accuracy    <          8.9E-10 Ry

     The total energy is the sum of the following terms:

     one-electron contribution =   -4690.45049590 Ry
     hartree contribution      =    2584.50331821 Ry
     xc contribution           =    -966.06117074 Ry
     ewald contribution        =   -3188.84331157 Ry
     smearing contrib. (-TS)   =      -0.00003879 Ry

     convergence has been achieved in  13 iterations

     Writing output data file chempot_1.save

     General routines

     Parallel routines

   This run was terminated on:  13: 4: 7  28Aug2019

   JOB DONE.