     Program PWSCF v.6.2 (svn rev. 14038) starts on 30Apr2019 at 22:10: 8

     K-points division:     npool     =      32
     Reading input from rscf.in

     Current dimensions of program PWSCF are:
     Max number of different atomic species (ntypx) = 10
     Max number of k-points (npk) =  40000
     Max angular momentum in pseudopotentials (lmaxx) =  3

     Subspace diagonalization in iterative solution of the eigenvalue problem:
     a serial algorithm will be used

     bravais-lattice index     =            0
     lattice parameter (alat)  =      13.8397  a.u.
     unit-cell volume          =    2804.9816 (a.u.)^3
     number of atoms/cell      =           32
     number of atomic types    =            2
     number of electrons       =       368.00
     number of Kohn-Sham states=          221
     kinetic-energy cutoff     =     120.0000  Ry
     charge density cutoff     =     480.0000  Ry
     convergence threshold     =      1.0E-08
     mixing beta               =       0.7000
     number of iterations used =            8  plain     mixing
     Exchange-correlation      = SLA PW NOGX NOGC ( 1  4  0  0 0 0)
     nstep                     =           50

     celldm(1)=  13.839685  celldm(2)=   0.000000  celldm(3)=   0.000000
     celldm(4)=   0.000000  celldm(5)=   0.000000  celldm(6)=   0.000000

     crystal axes: (cart. coord. in units of alat)
               a(1) = (   1.000000   0.000000   0.000000 )
               a(2) = (   0.000000   1.058160   0.000000 )
               a(3) = (   0.000000   0.000000   1.000000 )

     reciprocal axes: (cart. coord. in units 2 pi/alat)
               b(1) = (  1.000000  0.000000  0.000000 )
               b(2) = (  0.000000  0.945037  0.000000 )
               b(3) = (  0.000000  0.000000  1.000000 )

     PseudoPot. # 1 for W  read from file:
     /cluster/scratch/mnoe/QE/pps/W_ONCV_LDA-4.0.upf
     MD5 check sum: ba0307d5d4cd419d6f1d13dc49d7c13a
     Pseudo is Norm-conserving + core correction, Zval = 28.0
     Generated using ONCVPSP code by D. R. Hamann
     Using radial grid of 1380 points,  8 beta functions with:
                l(1) =   0
                l(2) =   0
                l(3) =   1
                l(4) =   1
                l(5) =   2
                l(6) =   2
                l(7) =   3
                l(8) =   3

     PseudoPot. # 2 for O  read from file:
     /cluster/scratch/mnoe/QE/pps/O_ONCV_LDA-3.0.upf
     MD5 check sum: a1bd6164e7280c17a38c229939bfbd54
     Pseudo is Norm-conserving + core correction, Zval =  6.0
     Generated using ONCVPSP code by D. R. Hamann
     Using radial grid of  926 points,  5 beta functions with:
                l(1) =   0
                l(2) =   0
                l(3) =   1
                l(4) =   1
                l(5) =   2

     atomic species   valence    mass     pseudopotential
        W             28.00   183.84000     W ( 1.00)
        O              6.00    15.99940     O ( 1.00)

      8 Sym. Ops. (no inversion) found ( 4 have fractional translation)

   Cartesian axes

     site n.     atom                  positions (alat units)
         1           W   tau(   1) = (   0.2598900   0.2982530   0.2502900  )
         2           W   tau(   2) = (  -0.2502899   0.7599071  -0.7401100  )
         3           W   tau(   3) = (   0.2401100   0.2308271   0.7502900  )
         4           W   tau(   4) = (   0.7502900   0.8273330   0.7598900  )
         5           W   tau(   5) = (   0.7401100   0.2982530   0.7497100  )
         6           W   tau(   6) = (   0.2502900   0.7599071   0.7401100  )
         7           W   tau(   7) = (  -0.2401100   0.2308271  -0.7502899  )
         8           W   tau(   8) = (   0.2497100   0.8273330   0.2401100  )
         9           O   tau(   9) = (   0.2608700   0.0088039   0.2578900  )
        10           O   tau(  10) = (  -0.2578899   1.0493562  -0.7391300  )
        11           O   tau(  11) = (   0.2391300   0.5202761   0.7578900  )
        12           O   tau(  12) = (   0.7578900   0.5378839   0.7608700  )
        13           O   tau(  13) = (   0.7391300   0.0088039   0.7421100  )
        14           O   tau(  14) = (   0.2578900   1.0493562   0.7391300  )
        15           O   tau(  15) = (  -0.2391300   0.5202761  -0.7578899  )
        16           O   tau(  16) = (   0.2421100   0.5378839   0.2391300  )
        17           O   tau(  17) = (   0.4965000   0.2769522   0.6995400  )
        18           O   tau(  18) = (   0.4992800   0.7856521   0.8004600  )
        19           O   tau(  19) = (  -0.9965000   0.2521278   1.1995400  )
        20           O   tau(  20) = (   0.0007200   0.8015880   0.3004600  )
        21           O   tau(  21) = (   0.5035000   0.2769522   0.3004600  )
        22           O   tau(  22) = (   0.5007200   0.7856521   1.1995400  )
        23           O   tau(  23) = (  -0.0035000   0.2521278   0.8004600  )
        24           O   tau(  24) = (  -1.0007200   0.8015880   0.6995400  )
        25           O   tau(  25) = (   0.6995400   0.2565721   2.0007200  )
        26           O   tau(  26) = (   0.3004600   0.7812079   0.4965000  )
        27           O   tau(  27) = (   0.8004600   0.2725080   0.5007200  )
        28           O   tau(  28) = (   0.1995400   0.8060322   1.9965000  )
        29           O   tau(  29) = (   0.3004600   0.2565721   0.9992800  )
        30           O   tau(  30) = (   0.6995400   0.7812079   0.5035000  )
        31           O   tau(  31) = (   0.1995400   0.2725080   0.4992800  )
        32           O   tau(  32) = (   0.8004600   0.8060322   1.0035000  )

     number of k points=    40  gaussian smearing, width (Ry)=  0.0007
                       cart. coord. in units 2pi/alat
        k(    1) = (   0.0000000   0.0000000   0.0000000), wk =   0.0092593
        k(    2) = (   0.0000000   0.0000000   0.1666667), wk =   0.0370370
        k(    3) = (   0.0000000   0.0000000   0.3333333), wk =   0.0370370
        k(    4) = (   0.0000000   0.0000000  -0.5000000), wk =   0.0185185
        k(    5) = (   0.0000000   0.1575061   0.0000000), wk =   0.0185185
        k(    6) = (   0.0000000   0.1575061   0.1666667), wk =   0.0740741
        k(    7) = (   0.0000000   0.1575061   0.3333333), wk =   0.0740741
        k(    8) = (   0.0000000   0.1575061  -0.5000000), wk =   0.0370370
        k(    9) = (   0.0000000   0.3150122   0.0000000), wk =   0.0185185
        k(   10) = (   0.0000000   0.3150122   0.1666667), wk =   0.0740741
        k(   11) = (   0.0000000   0.3150122   0.3333333), wk =   0.0740741
        k(   12) = (   0.0000000   0.3150122  -0.5000000), wk =   0.0370370
        k(   13) = (   0.0000000  -0.4725183   0.0000000), wk =   0.0092593
        k(   14) = (   0.0000000  -0.4725183   0.1666667), wk =   0.0370370
        k(   15) = (   0.0000000  -0.4725183   0.3333333), wk =   0.0370370
        k(   16) = (   0.0000000  -0.4725183  -0.5000000), wk =   0.0185185
        k(   17) = (   0.1666667   0.0000000   0.1666667), wk =   0.0370370
        k(   18) = (   0.1666667   0.0000000   0.3333333), wk =   0.0740741
        k(   19) = (   0.1666667   0.0000000  -0.5000000), wk =   0.0370370
        k(   20) = (   0.1666667   0.1575061   0.1666667), wk =   0.0740741
        k(   21) = (   0.1666667   0.1575061   0.3333333), wk =   0.1481481
        k(   22) = (   0.1666667   0.1575061  -0.5000000), wk =   0.0740741
        k(   23) = (   0.1666667   0.3150122   0.1666667), wk =   0.0740741
        k(   24) = (   0.1666667   0.3150122   0.3333333), wk =   0.1481481
        k(   25) = (   0.1666667   0.3150122  -0.5000000), wk =   0.0740741
        k(   26) = (   0.1666667  -0.4725183   0.1666667), wk =   0.0370370
        k(   27) = (   0.1666667  -0.4725183   0.3333333), wk =   0.0740741
        k(   28) = (   0.1666667  -0.4725183  -0.5000000), wk =   0.0370370
        k(   29) = (   0.3333333   0.0000000   0.3333333), wk =   0.0370370
        k(   30) = (   0.3333333   0.0000000  -0.5000000), wk =   0.0370370
        k(   31) = (   0.3333333   0.1575061   0.3333333), wk =   0.0740741
        k(   32) = (   0.3333333   0.1575061  -0.5000000), wk =   0.0740741
        k(   33) = (   0.3333333   0.3150122   0.3333333), wk =   0.0740741
        k(   34) = (   0.3333333   0.3150122  -0.5000000), wk =   0.0740741
        k(   35) = (   0.3333333  -0.4725183   0.3333333), wk =   0.0370370
        k(   36) = (   0.3333333  -0.4725183  -0.5000000), wk =   0.0370370
        k(   37) = (  -0.5000000   0.0000000  -0.5000000), wk =   0.0092593
        k(   38) = (  -0.5000000   0.1575061  -0.5000000), wk =   0.0185185
        k(   39) = (  -0.5000000   0.3150122  -0.5000000), wk =   0.0185185
        k(   40) = (  -0.5000000  -0.4725183  -0.5000000), wk =   0.0092593

     Initial potential from superposition of free atoms

     starting charge  367.99656, renormalised to  368.00000
     Starting wfc are  232 randomized atomic wfcs

     Self-consistent Calculation

     iteration #  1     ecut=   120.00 Ry     beta= 0.70
     Davidson diagonalization with overlap
     ethr =  1.00E-02,  avg # of iterations =  5.0

     total energy              =   -6253.97205850 Ry
     Harris-Foulkes estimate   =   -6264.58086307 Ry
     estimated scf accuracy    <      13.43044262 Ry

[...]

     End of self-consistent calculation

          k = 0.0000 0.0000 0.0000 ( 62239 PWs)   bands (ev):

   -66.1738 -66.1734 -66.1728 -66.1728 -66.1724 -66.1724 -66.1718 -66.1714
   -30.5591 -30.5523 -30.5523 -30.5454 -30.5394 -30.5281 -30.5281 -30.5272
   -30.5114 -30.5099 -30.5064 -30.5064 -30.4899 -30.4880 -30.4880 -30.4870
   -30.4319 -30.4319 -30.4301 -30.4273 -30.4120 -30.4119 -30.4077 -30.4066
   -20.3359 -20.3358 -20.3357 -20.3357 -20.3356 -20.3356 -20.3355 -20.3354
   -20.3162 -20.3158 -20.3158 -20.3156 -20.3155 -20.3153 -20.3150 -20.3149
   -20.3146 -20.3146 -20.3143 -20.3140 -20.3126 -20.3119 -20.3119 -20.3117
   -20.3110 -20.3105 -20.3105 -20.3098 -20.3093 -20.3088 -20.3088 -20.3084
   -20.3039 -20.3036 -20.3034 -20.3034 -20.3021 -20.3019 -20.3017 -20.3017
   -20.2975 -20.2975 -20.2975 -20.2971 -20.2966 -20.2964 -20.2964 -20.2964
   -20.2958 -20.2958 -20.2955 -20.2954 -20.2926 -20.2926 -20.2922 -20.2919
    -9.9473  -9.6820  -9.4960  -9.4960  -9.2439  -9.2439  -9.0521  -9.0405
    -9.0209  -8.8396  -8.8184  -8.8184  -7.8636  -7.8113  -7.7906  -7.7745
    -7.7745  -7.7685  -7.7572  -7.7158  -7.6584  -7.6584  -7.6115  -7.6115
     1.1939   1.1958   1.2741   1.2741   1.3101   1.3101   1.4147   1.6412
     1.6820   1.6820   1.6900   1.8761   2.3718   2.4478   2.5910   2.6165
     2.7531   2.7531   4.1391   4.1391   4.3568   4.3600   4.8105   4.8105
     4.8181   4.8395   4.8395   4.8851   5.0832   5.0833   5.1177   5.4656
     5.4675   5.5140   5.5140   5.5492   5.5492   5.6264   5.6264   5.8391
     5.8391   5.8786   5.8845   5.9033   5.9677   5.9842   5.9986   6.0933
     6.0994   6.2466   6.2545   6.5549   6.5549   6.8308   6.8329   6.8329
     6.8568   6.8602   6.9784   7.0087   7.0604   7.0604   7.3236   7.3236
     7.4140   7.4140   7.7532   7.7678   8.0622   8.0622   8.1110   8.1482
     9.3220   9.3230  10.0152  10.0235  10.0524  10.0524  12.2213  12.2213
[...]
W        0.240109991   0.218140012   0.750289975    0   0   0
W        0.750289992   0.781859972   0.759889976    0   0   0
W        0.740110008   0.281860003   0.749709992    0   0   0
W        0.250289975   0.718139997   0.740109991    0   0   0
W       -0.240109959   0.218140012  -0.750289943    0   0   0
W        0.249709992   0.781859972   0.240110008    0   0   0
O        0.260869992   0.008320000   0.257889955    0   0   0
O       -0.257889934   0.991680023  -0.739130024    0   0   0
O        0.239130024   0.491679992   0.757890000    0   0   0
O        0.757889955   0.508319977   0.760869976    0   0   0
O        0.739130045   0.008320000   0.742109984    0   0   0
O        0.257890016   0.991680023   0.739130008    0   0   0
O       -0.239130024   0.491679992  -0.757889934    0   0   0
O        0.242110000   0.508319977   0.239130045    0   0   0
O        0.496500008   0.261730010   0.699540004    0   0   0
O        0.499279960   0.742469961   0.800459963    0   0   0
O       -0.996499991   0.238270022   1.199540037    0   0   0
O        0.000720020   0.757529948   0.300460012    0   0   0
O        0.503499992   0.261730010   0.300460012    0   0   0
O        0.500720040   0.742469961   1.199540037    0   0   0
O       -0.003499980   0.238270022   0.800459963    0   0   0
O       -1.000719991   0.757529948   0.699540004    0   0   0
O        0.699540037   0.242470022   2.000720007    0   0   0
O        0.300459996   0.738270007   0.496500024    0   0   0
O        0.800459963   0.257530010   0.500720024    0   0   0
O        0.199540020   0.761729902   1.996499975    0   0   0
O        0.300459996   0.242470022   0.999279964    0   0   0
O        0.699540037   0.738270007   0.503499976    0   0   0
O        0.199540020   0.257530010   0.499279976    0   0   0
O        0.800459963   0.761729902   1.003499996    0   0   0
End final coordinates

     A final scf calculation at the relaxed structure.
     The G-vectors are recalculated for the final unit cell
     Results may differ from those at the preceding step.

     bravais-lattice index     =            0
     lattice parameter (alat)  =      13.8397  a.u.
     unit-cell volume          =    2798.7122 (a.u.)^3
     number of atoms/cell      =           32
     number of atomic types    =            2
     number of electrons       =       368.00
     number of Kohn-Sham states=          221
     kinetic-energy cutoff     =     120.0000  Ry
     charge density cutoff     =     480.0000  Ry
     convergence threshold     =      1.0E-10
     mixing beta               =       0.7000
     number of iterations used =            8  plain     mixing
     Exchange-correlation      = SLA PW NOGX NOGC ( 1  4  0  0 0 0)

     celldm(1)=  13.839685  celldm(2)=   0.000000  celldm(3)=   0.000000
     celldm(4)=   0.000000  celldm(5)=   0.000000  celldm(6)=   0.000000

     crystal axes: (cart. coord. in units of alat)
               a(1) = (   1.000354   0.000000   0.000000 )
               a(2) = (   0.000000   1.055048   0.000000 )
               a(3) = (   0.000000   0.000000   1.000354 )

     reciprocal axes: (cart. coord. in units 2 pi/alat)
               b(1) = (  0.999646  0.000000  0.000000 )
               b(2) = (  0.000000  0.947824  0.000000 )
               b(3) = (  0.000000  0.000000  0.999646 )

     PseudoPot. # 1 for W  read from file:
     /cluster/scratch/mnoe/QE/pps/W_ONCV_LDA-4.0.upf
     MD5 check sum: ba0307d5d4cd419d6f1d13dc49d7c13a
     Pseudo is Norm-conserving + core correction, Zval = 28.0
     Generated using ONCVPSP code by D. R. Hamann
     Using radial grid of 1380 points,  8 beta functions with:
                l(1) =   0
                l(2) =   0
                l(3) =   1
                l(4) =   1
                l(5) =   2
                l(6) =   2
                l(7) =   3
                l(8) =   3

     PseudoPot. # 2 for O  read from file:
     /cluster/scratch/mnoe/QE/pps/O_ONCV_LDA-3.0.upf
     MD5 check sum: a1bd6164e7280c17a38c229939bfbd54
     Pseudo is Norm-conserving + core correction, Zval =  6.0
     Generated using ONCVPSP code by D. R. Hamann
     Using radial grid of  926 points,  5 beta functions with:
                l(1) =   0
                l(2) =   0
                l(3) =   1
                l(4) =   1
                l(5) =   2

     atomic species   valence    mass     pseudopotential
        W             28.00   183.84000     W ( 1.00)
        O              6.00    15.99940     O ( 1.00)

      8 Sym. Ops. (no inversion) found ( 4 have fractional translation)

   Cartesian axes

     site n.     atom                  positions (alat units)
         1           W   tau(   1) = (   0.2599820   0.2973758   0.2503786  )
         2           W   tau(   2) = (  -0.2503786   0.7576720  -0.7403720  )
         3           W   tau(   3) = (   0.2401950   0.2301481   0.7505556  )
         4           W   tau(   4) = (   0.7505556   0.8248996   0.7601590  )
         5           W   tau(   5) = (   0.7403720   0.2973758   0.7499754  )
         6           W   tau(   6) = (   0.2503786   0.7576720   0.7403720  )
         7           W   tau(   7) = (  -0.2401950   0.2301481  -0.7505556  )
         8           W   tau(   8) = (   0.2497984   0.8248996   0.2401950  )
         9           O   tau(   9) = (   0.2609623   0.0087780   0.2579813  )
        10           O   tau(  10) = (  -0.2579812   1.0462698  -0.7393917  )
        11           O   tau(  11) = (   0.2392147   0.5187459   0.7581583  )
        12           O   tau(  12) = (   0.7581583   0.5363019   0.7611394  )
        13           O   tau(  13) = (   0.7393917   0.0087780   0.7423727  )
        14           O   tau(  14) = (   0.2579813   1.0462698   0.7393917  )
        15           O   tau(  15) = (  -0.2392147   0.5187459  -0.7581583  )
        16           O   tau(  16) = (   0.2421957   0.5363019   0.2392147  )
        17           O   tau(  17) = (   0.4966758   0.2761377   0.6997877  )
        18           O   tau(  18) = (   0.4994567   0.7833413   0.8007434  )
        19           O   tau(  19) = (  -0.9968528   0.2513863   1.1999647  )
        20           O   tau(  20) = (   0.0007203   0.7992303   0.3005664  )
        21           O   tau(  21) = (   0.5036782   0.2761377   0.3005664  )
        22           O   tau(  22) = (   0.5008973   0.7833413   1.1999647  )
        23           O   tau(  23) = (  -0.0035012   0.2513863   0.8007434  )
        24           O   tau(  24) = (  -1.0010743   0.7992303   0.6997877  )
        25           O   tau(  25) = (   0.6997877   0.2558175   2.0014283  )
        26           O   tau(  26) = (   0.3005664   0.7789101   0.4966758  )
        27           O   tau(  27) = (   0.8007434   0.2717065   0.5008973  )
        28           O   tau(  28) = (   0.1996107   0.8036615   1.9972068  )
        29           O   tau(  29) = (   0.3005664   0.2558175   0.9996337  )
        30           O   tau(  30) = (   0.6997877   0.7789101   0.5036782  )
        31           O   tau(  31) = (   0.1996107   0.2717065   0.4994567  )
        32           O   tau(  32) = (   0.8007434   0.8036615   1.0038553  )

     number of k points=    40  gaussian smearing, width (Ry)=  0.0007
                       cart. coord. in units 2pi/alat
        k(    1) = (   0.0000000   0.0000000   0.0000000), wk =   0.0092593
        k(    2) = (   0.0000000   0.0000000   0.1666077), wk =   0.0370370
        k(    3) = (   0.0000000   0.0000000   0.3332154), wk =   0.0370370
        k(    4) = (   0.0000000   0.0000000  -0.4998230), wk =   0.0185185
        k(    5) = (   0.0000000   0.1579707   0.0000000), wk =   0.0185185
        k(    6) = (   0.0000000   0.1579707   0.1666077), wk =   0.0740741
        k(    7) = (   0.0000000   0.1579707   0.3332154), wk =   0.0740741
        k(    8) = (   0.0000000   0.1579707  -0.4998230), wk =   0.0370370
        k(    9) = (   0.0000000   0.3159415   0.0000000), wk =   0.0185185
        k(   10) = (   0.0000000   0.3159415   0.1666077), wk =   0.0740741
        k(   11) = (   0.0000000   0.3159415   0.3332154), wk =   0.0740741
        k(   12) = (   0.0000000   0.3159415  -0.4998230), wk =   0.0370370
        k(   13) = (   0.0000000  -0.4739122   0.0000000), wk =   0.0092593
        k(   14) = (   0.0000000  -0.4739122   0.1666077), wk =   0.0370370
        k(   15) = (   0.0000000  -0.4739122   0.3332154), wk =   0.0370370
        k(   16) = (   0.0000000  -0.4739122  -0.4998230), wk =   0.0185185
        k(   17) = (   0.1666077   0.0000000   0.1666077), wk =   0.0370370
        k(   18) = (   0.1666077   0.0000000   0.3332154), wk =   0.0740741
        k(   19) = (   0.1666077   0.0000000  -0.4998230), wk =   0.0370370
        k(   20) = (   0.1666077   0.1579707   0.1666077), wk =   0.0740741
        k(   21) = (   0.1666077   0.1579707   0.3332154), wk =   0.1481481
        k(   22) = (   0.1666077   0.1579707  -0.4998230), wk =   0.0740741
        k(   23) = (   0.1666077   0.3159415   0.1666077), wk =   0.0740741
        k(   24) = (   0.1666077   0.3159415   0.3332154), wk =   0.1481481
        k(   25) = (   0.1666077   0.3159415  -0.4998230), wk =   0.0740741
        k(   26) = (   0.1666077  -0.4739122   0.1666077), wk =   0.0370370
        k(   27) = (   0.1666077  -0.4739122   0.3332154), wk =   0.0740741
        k(   28) = (   0.1666077  -0.4739122  -0.4998230), wk =   0.0370370
        k(   29) = (   0.3332154   0.0000000   0.3332154), wk =   0.0370370
        k(   30) = (   0.3332154   0.0000000  -0.4998230), wk =   0.0370370
        k(   31) = (   0.3332154   0.1579707   0.3332154), wk =   0.0740741
        k(   32) = (   0.3332154   0.1579707  -0.4998230), wk =   0.0740741
        k(   33) = (   0.3332154   0.3159415   0.3332154), wk =   0.0740741
        k(   34) = (   0.3332154   0.3159415  -0.4998230), wk =   0.0740741
        k(   35) = (   0.3332154  -0.4739122   0.3332154), wk =   0.0370370
        k(   36) = (   0.3332154  -0.4739122  -0.4998230), wk =   0.0370370
        k(   37) = (  -0.4998230   0.0000000  -0.4998230), wk =   0.0092593
        k(   38) = (  -0.4998230   0.1579707  -0.4998230), wk =   0.0185185
        k(   39) = (  -0.4998230   0.3159415  -0.4998230), wk =   0.0185185
        k(   40) = (  -0.4998230  -0.4739122  -0.4998230), wk =   0.0092593

     Initial potential from superposition of free atoms

     starting charge  367.99656, renormalised to  368.00000
     Starting wfc are  232 randomized atomic wfcs

     Writing output data file Landau_11.save

     Self-consistent Calculation

[...]

     total energy              =   -6261.11057896 Ry
     Harris-Foulkes estimate   =   -6261.11057896 Ry
     estimated scf accuracy    <          4.4E-10 Ry

     iteration # 14     ecut=   120.00 Ry     beta= 0.70
     Davidson diagonalization with overlap
     ethr =  1.19E-13,  avg # of iterations =  3.0

     End of self-consistent calculation

[...]

          k = 0.3332-0.4739-0.4998 ( 62048 PWs)   bands (ev):

[...]

          k =-0.4998-0.4739-0.4998 ( 62144 PWs)   bands (ev):

   -66.1291 -66.1290 -66.1290 -66.1290 -66.1290 -66.1290 -66.1290 -66.1290
   -30.4943 -30.4943 -30.4936 -30.4936 -30.4936 -30.4936 -30.4934 -30.4934
   -30.4350 -30.4350 -30.4350 -30.4350 -30.4349 -30.4349 -30.4342 -30.4342
   -30.4138 -30.4138 -30.4136 -30.4136 -30.4135 -30.4135 -30.4134 -30.4134
   -20.2900 -20.2900 -20.2900 -20.2900 -20.2900 -20.2900 -20.2899 -20.2899
   -20.2693 -20.2693 -20.2693 -20.2693 -20.2692 -20.2692 -20.2692 -20.2692
   -20.2680 -20.2680 -20.2680 -20.2680 -20.2680 -20.2679 -20.2678 -20.2678
   -20.2643 -20.2643 -20.2643 -20.2643 -20.2643 -20.2643 -20.2643 -20.2643
   -20.2547 -20.2547 -20.2547 -20.2547 -20.2546 -20.2546 -20.2546 -20.2546
   -20.2528 -20.2528 -20.2528 -20.2528 -20.2527 -20.2527 -20.2527 -20.2527
   -20.2488 -20.2488 -20.2488 -20.2488 -20.2488 -20.2488 -20.2488 -20.2488
    -8.9166  -8.9166  -8.8971  -8.8971  -8.8971  -8.8971  -8.8970  -8.8970
    -8.4000  -8.4000  -8.3757  -8.3757  -8.3757  -8.3757  -8.3717  -8.3717
    -8.3058  -8.3057  -8.3057  -8.3057  -8.2947  -8.2947  -8.2758  -8.2758
     2.9909   2.9909   2.9945   2.9945   2.9945   2.9945   3.0104   3.0104
     3.1952   3.1952   3.2037   3.2037   3.2037   3.2038   3.2278   3.2278
     3.3851   3.3852   3.4902   3.4902   3.4902   3.4902   3.5467   3.5467
     4.1668   4.1668   4.1899   4.1899   4.1905   4.1905   4.1905   4.1905
     4.4035   4.4035   4.4035   4.4036   4.4172   4.4173   4.4340   4.4340
     4.5062   4.5063   4.5278   4.5279   4.5326   4.5327   4.5327   4.5327
     7.1385   7.1385   7.2225   7.2225   7.2225   7.2225   7.3291   7.3291
     7.3760   7.3761   7.3799   7.3800   7.3800   7.3800   7.3827   7.3828
     7.6040   7.6040   7.6250   7.6250   7.6250   7.6251   7.6590   7.6590
    11.8537  11.8537  11.8543  11.8543  11.8543  11.8543  11.8635  11.8636
    12.2408  12.2408  12.3081  12.3081  12.3081  12.3081  12.4124  12.4125
    12.5377  12.5378  12.5883  12.5883  12.5883  12.5883  12.6124  12.6124
    17.1520  17.1521  17.1814  17.1815  17.1815  17.1815  17.2039  17.2040
    17.3882  17.3882  17.3882  17.3882  17.4321

     the Fermi energy is     8.9781 ev

!    total energy              =   -6261.11057896 Ry
     Harris-Foulkes estimate   =   -6261.11057896 Ry
     estimated scf accuracy    <          7.2E-11 Ry

     The total energy is the sum of the following terms:

     one-electron contribution =   -4710.04633589 Ry
     hartree contribution      =    2592.26638827 Ry
     xc contribution           =    -965.66722424 Ry
     ewald contribution        =   -3177.66340709 Ry
     smearing contrib. (-TS)   =      -0.00000000 Ry

     convergence has been achieved in  14 iterations

     Forces acting on atoms (cartesian axes, Ry/au):

     atom    1 type  1   force =    -0.00025866   -0.00182114    0.00004977
     atom    2 type  1   force =    -0.00004977    0.00182114   -0.00025866
     atom    3 type  1   force =     0.00025866    0.00182114    0.00004977
     atom    4 type  1   force =     0.00004977   -0.00182114   -0.00025866
     atom    5 type  1   force =     0.00025866   -0.00182114   -0.00004977
     atom    6 type  1   force =     0.00004977    0.00182114    0.00025866
     atom    7 type  1   force =    -0.00025866    0.00182114   -0.00004977
     atom    8 type  1   force =    -0.00004977   -0.00182114    0.00025866
     atom    9 type  2   force =     0.00066332    0.00103537   -0.00009197
     atom   10 type  2   force =     0.00009197   -0.00103537    0.00066332
     atom   11 type  2   force =    -0.00066332   -0.00103537   -0.00009197
     atom   12 type  2   force =    -0.00009197    0.00103537    0.00066332
     atom   13 type  2   force =    -0.00066332    0.00103537    0.00009197
     atom   14 type  2   force =    -0.00009197   -0.00103537   -0.00066332
     atom   15 type  2   force =     0.00066332   -0.00103537    0.00009197
     atom   16 type  2   force =     0.00009197    0.00103537   -0.00066332
     atom   17 type  2   force =    -0.00066287    0.00073963    0.00017549
     atom   18 type  2   force =    -0.00022383    0.00122421   -0.00063749
     atom   19 type  2   force =     0.00066287   -0.00073963    0.00017549
     atom   20 type  2   force =     0.00022383   -0.00122421   -0.00063749
     atom   21 type  2   force =     0.00066287    0.00073963   -0.00017549
     atom   22 type  2   force =     0.00022383    0.00122421    0.00063749
     atom   23 type  2   force =    -0.00066287   -0.00073963   -0.00017549
     atom   24 type  2   force =    -0.00022383   -0.00122421    0.00063749
     atom   25 type  2   force =     0.00063749    0.00122421    0.00022383
     atom   26 type  2   force =    -0.00017549   -0.00073963   -0.00066287
     atom   27 type  2   force =    -0.00063749   -0.00122421    0.00022383
     atom   28 type  2   force =     0.00017549    0.00073963   -0.00066287
     atom   29 type  2   force =    -0.00063749    0.00122421   -0.00022383
     atom   30 type  2   force =     0.00017549   -0.00073963    0.00066287
     atom   31 type  2   force =     0.00063749   -0.00122421   -0.00022383
     atom   32 type  2   force =    -0.00017549    0.00073963    0.00066287

     Total force =     0.000000     Total SCF correction =     0.000000

     Computing stress (Cartesian axis) and pressure

          total   stress  (Ry/bohr**3)                   (kbar)     P=   -0.04
  -0.00000011   0.00000000   0.00000000         -0.02      0.00      0.00
   0.00000000  -0.00000063   0.00000000          0.00     -0.09      0.00
   0.00000000   0.00000000  -0.00000011          0.00      0.00     -0.02

     Writing output data file Landau_11.save

     General routines

     Parallel routines

   This run was terminated on:   2:12:26   1May2019

   JOB DONE.