     Program PWSCF v.6.4.1 starts on 19Nov2019 at 18:49:54

     K-points division:     npool     =      40
     Reading input from rscf.in

     Current dimensions of program PWSCF are:
     Max number of different atomic species (ntypx) = 10
     Max number of k-points (npk) =  40000
     Max angular momentum in pseudopotentials (lmaxx) =  3

     Subspace diagonalization in iterative solution of the eigenvalue problem:
     a serial algorithm will be used

     Message from routine setup:
     using ibrav=0 with symmetry is DISCOURAGED, use correct ibrav instead

     bravais-lattice index     =            0
     lattice parameter (alat)  =       9.7849  a.u.
     unit-cell volume          =    1402.1515 (a.u.)^3
     number of atoms/cell      =           16
     number of atomic types    =            2
     number of electrons       =       184.00
     number of Kohn-Sham states=          110
     kinetic-energy cutoff     =     120.0000  Ry
     charge density cutoff     =     480.0000  Ry
     convergence threshold     =      1.0E-08
     mixing beta               =       0.7000
     number of iterations used =            8  plain     mixing
     Exchange-correlation      = SLA PW NOGX NOGC ( 1  4  0  0 0 0)
     nstep                     =           50

     celldm(1)=   9.784926  celldm(2)=   0.000000  celldm(3)=   0.000000
     celldm(4)=   0.000000  celldm(5)=   0.000000  celldm(6)=   0.000000

     crystal axes: (cart. coord. in units of alat)
               a(1) = (   1.000000   0.000000   0.000000 )
               a(2) = (   0.000000   1.000000   0.000000 )
               a(3) = (   0.000000   0.000000   1.496657 )

     reciprocal axes: (cart. coord. in units 2 pi/alat)
               b(1) = (  1.000000  0.000000  0.000000 )
               b(2) = (  0.000000  1.000000  0.000000 )
               b(3) = (  0.000000  0.000000  0.668156 )

     PseudoPot. # 1 for W  read from file:
     /cluster/scratch/mnoe/QE/pps/W_ONCV_LDA-4.0.upf
     MD5 check sum: ba0307d5d4cd419d6f1d13dc49d7c13a
     Pseudo is Norm-conserving + core correction, Zval = 28.0
     Generated using ONCVPSP code by D. R. Hamann
     Using radial grid of 1380 points,  8 beta functions with:
                l(1) =   0
                l(2) =   0
                l(3) =   1
                l(4) =   1
                l(5) =   2
                l(6) =   2
                l(7) =   3
                l(8) =   3

     PseudoPot. # 2 for O  read from file:
     /cluster/scratch/mnoe/QE/pps/O_ONCV_LDA-3.0.upf
     MD5 check sum: b55cdb4f45ae2203d24ad12cf8d61a31
     Pseudo is Norm-conserving + core correction, Zval =  6.0
     Generated using ONCVPSP code by D. R. Hamann
     Using radial grid of  926 points,  5 beta functions with:
                l(1) =   0
                l(2) =   0
                l(3) =   1
                l(4) =   1
                l(5) =   2

     atomic species   valence    mass     pseudopotential
        W             28.00   183.84000     W ( 1.00)
        O              6.00    15.99940     O ( 1.00)

     16 Sym. Ops., with inversion, found (14 have fractional translation)

   Cartesian axes

     site n.     atom                  positions (alat units)
         1           W   tau(   1) = (   0.2500000   0.2500000   0.3106994  )
         2           W   tau(   2) = (   0.7500000   0.7500000   1.1859576  )
         3           W   tau(   3) = (   0.7500000   0.7500000   0.4376291  )
         4           W   tau(   4) = (   0.2500000   0.2500000   1.0590279  )
         5           O   tau(   5) = (   0.2500000   0.2500000   0.7060533  )
         6           O   tau(   6) = (   0.7500000   0.7500000   0.7906037  )
         7           O   tau(   7) = (   0.7500000   0.7500000   0.0422753  )
         8           O   tau(   8) = (   0.2500000   0.2500000   1.4543818  )
         9           O   tau(   9) = (   0.5038278   0.4961722   0.3741643  )
        10           O   tau(  10) = (   0.4961722   0.5038278   1.1224928  )
        11           O   tau(  11) = (  -0.0038278   1.0038278   0.3741643  )
        12           O   tau(  12) = (   1.0038277  -0.0038278   1.1224928  )
        13           O   tau(  13) = (   1.0038278   0.5038278   0.3741643  )
        14           O   tau(  14) = (  -0.0038278   0.4961722   1.1224928  )
        15           O   tau(  15) = (   0.4961722  -0.0038278   0.3741643  )
        16           O   tau(  16) = (   0.5038278   1.0038277   1.1224928  )

     number of k points=    40  gaussian smearing, width (Ry)=  0.0007
                       cart. coord. in units 2pi/alat
        k(    1) = (   0.0000000   0.0000000   0.0000000), wk =   0.0092593
        k(    2) = (   0.0000000   0.0000000   0.1113593), wk =   0.0185185
        k(    3) = (   0.0000000   0.0000000   0.2227186), wk =   0.0185185
        k(    4) = (   0.0000000   0.0000000  -0.3340779), wk =   0.0092593
        k(    5) = (   0.0000000   0.1666667   0.0000000), wk =   0.0370370
        k(    6) = (   0.0000000   0.1666667   0.1113593), wk =   0.0740741
        k(    7) = (   0.0000000   0.1666667   0.2227186), wk =   0.0740741
        k(    8) = (   0.0000000   0.1666667  -0.3340779), wk =   0.0370370
        k(    9) = (   0.0000000   0.3333333   0.0000000), wk =   0.0370370
        k(   10) = (   0.0000000   0.3333333   0.1113593), wk =   0.0740741
        k(   11) = (   0.0000000   0.3333333   0.2227186), wk =   0.0740741
        k(   12) = (   0.0000000   0.3333333  -0.3340779), wk =   0.0370370
        k(   13) = (   0.0000000  -0.5000000   0.0000000), wk =   0.0185185
        k(   14) = (   0.0000000  -0.5000000   0.1113593), wk =   0.0370370
        k(   15) = (   0.0000000  -0.5000000   0.2227186), wk =   0.0370370
        k(   16) = (   0.0000000  -0.5000000  -0.3340779), wk =   0.0185185
        k(   17) = (   0.1666667   0.1666667   0.0000000), wk =   0.0370370
        k(   18) = (   0.1666667   0.1666667   0.1113593), wk =   0.0740741
        k(   19) = (   0.1666667   0.1666667   0.2227186), wk =   0.0740741
        k(   20) = (   0.1666667   0.1666667  -0.3340779), wk =   0.0370370
        k(   21) = (   0.1666667   0.3333333   0.0000000), wk =   0.0740741
        k(   22) = (   0.1666667   0.3333333   0.1113593), wk =   0.1481481
        k(   23) = (   0.1666667   0.3333333   0.2227186), wk =   0.1481481
        k(   24) = (   0.1666667   0.3333333  -0.3340779), wk =   0.0740741
        k(   25) = (   0.1666667  -0.5000000   0.0000000), wk =   0.0370370
        k(   26) = (   0.1666667  -0.5000000   0.1113593), wk =   0.0740741
        k(   27) = (   0.1666667  -0.5000000   0.2227186), wk =   0.0740741
        k(   28) = (   0.1666667  -0.5000000  -0.3340779), wk =   0.0370370
        k(   29) = (   0.3333333   0.3333333   0.0000000), wk =   0.0370370
        k(   30) = (   0.3333333   0.3333333   0.1113593), wk =   0.0740741
        k(   31) = (   0.3333333   0.3333333   0.2227186), wk =   0.0740741
        k(   32) = (   0.3333333   0.3333333  -0.3340779), wk =   0.0370370
        k(   33) = (   0.3333333  -0.5000000   0.0000000), wk =   0.0370370
        k(   34) = (   0.3333333  -0.5000000   0.1113593), wk =   0.0740741
        k(   35) = (   0.3333333  -0.5000000   0.2227186), wk =   0.0740741
        k(   36) = (   0.3333333  -0.5000000  -0.3340779), wk =   0.0370370
        k(   37) = (  -0.5000000  -0.5000000   0.0000000), wk =   0.0092593
        k(   38) = (  -0.5000000  -0.5000000   0.1113593), wk =   0.0185185
        k(   39) = (  -0.5000000  -0.5000000   0.2227186), wk =   0.0185185
        k(   40) = (  -0.5000000  -0.5000000  -0.3340779), wk =   0.0092593

     Initial potential from superposition of free atoms

     starting charge  183.99828, renormalised to  184.00000
     Starting wfcs are  116 randomized atomic wfcs

     Self-consistent Calculation

     iteration #  1     ecut=   120.00 Ry     beta= 0.70
     Davidson diagonalization with overlap
     ethr =  1.00E-02,  avg # of iterations =  4.2

     total energy              =   -3126.82802425 Ry
     Harris-Foulkes estimate   =   -3132.26835941 Ry
     estimated scf accuracy    <       6.88837990 Ry

[...]

     End of self-consistent calculation

          k = 0.0000 0.0000 0.0000 ( 31095 PWs)   bands (ev):

   -66.1676 -66.1672 -66.1660 -66.1656 -30.5674 -30.5674 -30.5640 -30.5640
   -30.4758 -30.4758 -30.4732 -30.4732 -30.4405 -30.4363 -30.3809 -30.3781
   -20.3242 -20.3242 -20.3241 -20.3240 -20.3187 -20.3187 -20.3187 -20.3187
   -20.3161 -20.3161 -20.3161 -20.3161 -20.2968 -20.2967 -20.2964 -20.2963
   -20.2920 -20.2917 -20.2879 -20.2879 -20.2867 -20.2867 -20.2862 -20.2859
   -20.2851 -20.2851 -20.2839 -20.2839 -10.0789  -9.8145  -9.1599  -9.1396
    -8.8550  -8.6246  -7.7717  -7.7717  -7.7532  -7.7532  -7.5925  -7.4499
     0.8674   0.8709   1.2770   1.3333   1.6307   1.7513   2.2590   2.3567
     2.5347   2.5347   3.8788   3.8788   4.9538   5.2211   5.2211   5.6136
     5.6136   5.8565   5.8565   5.9786   6.1968   6.2107   6.2107   6.8145
     6.8145   6.8406   7.0893   7.1494   7.1494   7.2079   7.2079   7.3202
     8.4163   8.4246   8.4727   8.4727   8.9480   8.9562   9.6475   9.6475
    12.3567  12.3567  13.5302  13.6114  13.6114  14.0880  14.1080  14.3178
    14.3178  14.4760  14.4831  14.6643  15.3850  16.6141

[...]

          k =-0.5000-0.5000 0.0000 ( 31144 PWs)   bands (ev):

[...]

     the Fermi energy is     8.6193 ev

!    total energy              =   -3130.47983897 Ry
     Harris-Foulkes estimate   =   -3130.47983897 Ry
     estimated scf accuracy    <          2.6E-09 Ry

     The total energy is the sum of the following terms:

     one-electron contribution =   -2379.85715992 Ry
     hartree contribution      =    1308.46864760 Ry
     xc contribution           =    -483.03985326 Ry
     ewald contribution        =   -1576.05147339 Ry
     smearing contrib. (-TS)   =      -0.00000000 Ry

     convergence has been achieved in  12 iterations

     Forces acting on atoms (cartesian axes, Ry/au):

     atom    1 type  1   force =     0.00000000    0.00000000   -0.06294017
     atom    2 type  1   force =     0.00000000    0.00000000    0.06294017
     atom    3 type  1   force =     0.00000000    0.00000000    0.06294017
     atom    4 type  1   force =     0.00000000    0.00000000   -0.06294017
     atom    5 type  2   force =     0.00000000    0.00000000    0.11895381
     atom    6 type  2   force =     0.00000000    0.00000000   -0.11895381
     atom    7 type  2   force =     0.00000000    0.00000000   -0.11895381
     atom    8 type  2   force =     0.00000000    0.00000000    0.11895381
     atom    9 type  2   force =     0.00097161   -0.00097161    0.00000000
     atom   10 type  2   force =    -0.00097161    0.00097161    0.00000000
     atom   11 type  2   force =    -0.00097161    0.00097161    0.00000000
     atom   12 type  2   force =     0.00097161   -0.00097161    0.00000000
     atom   13 type  2   force =     0.00097161    0.00097161    0.00000000
     atom   14 type  2   force =    -0.00097161   -0.00097161    0.00000000
     atom   15 type  2   force =    -0.00097161   -0.00097161    0.00000000
[...]
   0.00000000   0.00000000  -0.00054698          0.00      0.00    -80.46

     BFGS Geometry Optimization

     number of scf cycles    =   1
     number of bfgs steps    =   0

     enthalpy new            =   -3130.4798389692 Ry

     new trust radius        =       0.1135762816 bohr
     new conv_thr            =       0.0000000100 Ry

     new unit-cell volume =   1425.24341 a.u.^3 (   211.19928 Ang^3 )
     density =      7.29124 g/cm^3

CELL_PARAMETERS (angstrom)
   5.256486894   0.000000000   0.000000000
   0.000000000   5.256486894   0.000000000
   0.000000000   0.000000000   7.643658275

ATOMIC_POSITIONS (crystal)
W        0.250000000   0.250000000   0.207595606    0   0   0
W        0.750000023   0.750000023   0.792404409    0   0   0
W        0.750000023   0.750000023   0.292404409    0   0   0
W        0.250000000   0.250000000   0.707595591    0   0   0
O        0.250000000   0.250000000   0.471753551    0   0   0
O        0.750000023   0.750000023   0.528246449    0   0   0
O        0.750000023   0.750000023   0.028246462    0   0   0
O        0.250000000   0.250000000   0.971753551    0   0   0
O        0.503827786   0.496172168   0.250000000    0   0   0
O        0.496172214   0.503827832   0.750000000    0   0   0
O       -0.003827803   1.003827832   0.250000000    0   0   0
O        1.003827740  -0.003827769   0.750000000    0   0   0
O        1.003827832   0.503827786   0.250000000    0   0   0
O       -0.003827769   0.496172214   0.750000000    0   0   0
O        0.496172168  -0.003827803   0.250000000    0   0   0
O        0.503827832   1.003827740   0.750000000    0   0   0

     Writing output data file Landau_31.save/
     NEW-OLD atomic charge density approx. for the potential
     extrapolated charge  186.98115, renormalised to  184.00000

[...]

     enthalpy old            =   -3130.4798389693 Ry
     enthalpy new            =   -3130.4972043878 Ry

     CASE: enthalpy_new < enthalpy_old

[...]

     number of scf cycles    =   4
     number of bfgs steps    =   3

     enthalpy old            =   -3130.4974313122 Ry
     enthalpy new            =   -3130.4974602793 Ry

     CASE: enthalpy_new < enthalpy_old

     small trust_radius: resetting bfgs history

     new trust radius        =       0.0000864772 bohr
     new conv_thr            =            1.0E-10 Ry

     new unit-cell volume =   1418.95037 a.u.^3 (   210.26675 Ang^3 )
     density =      7.32358 g/cm^3

[...]

ATOMIC_POSITIONS (crystal)
W        0.250000000   0.250000000   0.207595606    0   0   0
W        0.750000023   0.750000023   0.792404409    0   0   0
W        0.750000023   0.750000023   0.292404409    0   0   0
W        0.250000000   0.250000000   0.707595591    0   0   0
O        0.250000000   0.250000000   0.471753551    0   0   0
O        0.750000023   0.750000023   0.528246449    0   0   0
O        0.750000023   0.750000023   0.028246462    0   0   0
O        0.250000000   0.250000000   0.971753551    0   0   0
O        0.503827786   0.496172168   0.250000000    0   0   0
O        0.496172214   0.503827832   0.750000000    0   0   0
O       -0.003827803   1.003827832   0.250000000    0   0   0
O        1.003827740  -0.003827769   0.750000000    0   0   0
O        1.003827832   0.503827786   0.250000000    0   0   0
O       -0.003827769   0.496172214   0.750000000    0   0   0
O        0.496172168  -0.003827803   0.250000000    0   0   0
O        0.503827832   1.003827740   0.750000000    0   0   0

     Writing output data file Landau_31.save/
     NEW-OLD atomic charge density approx. for the potential
     extrapolated charge  184.00033, renormalised to  184.00000

[...]

     Threshold (ethr) on eigenvalues was too large:
     Diagonalizing with lowered threshold

     Davidson diagonalization with overlap
     ethr =  6.58E-12,  avg # of iterations =  3.8

[...]

     bfgs converged in   5 scf cycles and   4 bfgs steps
     (criteria: energy <  1.0E-07 Ry, force <  1.0E-07Ry/Bohr, cell <  5.0E-01kbar)

     End of BFGS Geometry Optimization

     Final enthalpy =   -3130.4974602859 Ry
Begin final coordinates
     new unit-cell volume =   1418.95037 a.u.^3 (   210.26675 Ang^3 )
     density =      7.32358 g/cm^3

CELL_PARAMETERS (angstrom)
   5.249495611   0.000000000   0.000000000
   0.000000000   5.249495611   0.000000000
   0.000000000   0.000000000   7.630191629

ATOMIC_POSITIONS (crystal)
W        0.250000000   0.250000000   0.207595606    0   0   0
W        0.750000023   0.750000023   0.792404409    0   0   0
W        0.750000023   0.750000023   0.292404409    0   0   0
W        0.250000000   0.250000000   0.707595591    0   0   0
O        0.250000000   0.250000000   0.471753551    0   0   0
O        0.750000023   0.750000023   0.528246449    0   0   0
O        0.750000023   0.750000023   0.028246462    0   0   0
O        0.250000000   0.250000000   0.971753551    0   0   0
O        0.503827786   0.496172168   0.250000000    0   0   0
O        0.496172214   0.503827832   0.750000000    0   0   0
O       -0.003827803   1.003827832   0.250000000    0   0   0
O        1.003827740  -0.003827769   0.750000000    0   0   0
O        1.003827832   0.503827786   0.250000000    0   0   0
O       -0.003827769   0.496172214   0.750000000    0   0   0
O        0.496172168  -0.003827803   0.250000000    0   0   0
O        0.503827832   1.003827740   0.750000000    0   0   0
End final coordinates

     Writing output data file Landau_31.save/

     Final scf calculation at the relaxed structure.
     The G-vectors are recalculated for the final unit cell
     Results may differ from those at the preceding step.

     bravais-lattice index     =            0
     lattice parameter (alat)  =       9.7849  a.u.
     unit-cell volume          =    1418.9504 (a.u.)^3
     number of atoms/cell      =           16
     number of atomic types    =            2
     number of electrons       =       184.00
     number of Kohn-Sham states=          110
     kinetic-energy cutoff     =     120.0000  Ry
     charge density cutoff     =     480.0000  Ry
     convergence threshold     =      1.0E-10
     mixing beta               =       0.7000
     number of iterations used =            8  plain     mixing
     Exchange-correlation      = SLA PW NOGX NOGC ( 1  4  0  0 0 0)

     celldm(1)=   9.784926  celldm(2)=   0.000000  celldm(3)=   0.000000
     celldm(4)=   0.000000  celldm(5)=   0.000000  celldm(6)=   0.000000

     crystal axes: (cart. coord. in units of alat)
               a(1) = (   1.013815   0.000000   0.000000 )
               a(2) = (   0.000000   1.013815   0.000000 )
               a(3) = (   0.000000   0.000000   1.473590 )

     reciprocal axes: (cart. coord. in units 2 pi/alat)
               b(1) = (  0.986373  0.000000  0.000000 )
               b(2) = (  0.000000  0.986373  0.000000 )
               b(3) = (  0.000000  0.000000  0.678615 )

     PseudoPot. # 1 for W  read from file:
     /cluster/scratch/mnoe/QE/pps/W_ONCV_LDA-4.0.upf
     MD5 check sum: ba0307d5d4cd419d6f1d13dc49d7c13a
     Pseudo is Norm-conserving + core correction, Zval = 28.0
     Generated using ONCVPSP code by D. R. Hamann
     Using radial grid of 1380 points,  8 beta functions with:
                l(1) =   0
                l(2) =   0
                l(3) =   1
                l(4) =   1
                l(5) =   2
                l(6) =   2
                l(7) =   3
                l(8) =   3

     PseudoPot. # 2 for O  read from file:
     /cluster/scratch/mnoe/QE/pps/O_ONCV_LDA-3.0.upf
     MD5 check sum: b55cdb4f45ae2203d24ad12cf8d61a31
     Pseudo is Norm-conserving + core correction, Zval =  6.0
     Generated using ONCVPSP code by D. R. Hamann
     Using radial grid of  926 points,  5 beta functions with:
                l(1) =   0
                l(2) =   0
                l(3) =   1
                l(4) =   1
                l(5) =   2

     atomic species   valence    mass     pseudopotential
        W             28.00   183.84000     W ( 1.00)
        O              6.00    15.99940     O ( 1.00)

     16 Sym. Ops., with inversion, found (14 have fractional translation)

   Cartesian axes

     site n.     atom                  positions (alat units)
         1           W   tau(   1) = (   0.2534539   0.2534539   0.3059109  )
         2           W   tau(   2) = (   0.7603616   0.7603616   1.1676795  )
         3           W   tau(   3) = (   0.7603616   0.7603616   0.4308843  )
         4           W   tau(   4) = (   0.2534539   0.2534539   1.0427060  )
         5           O   tau(   5) = (   0.2534539   0.2534539   0.6951715  )
         6           O   tau(   6) = (   0.7603616   0.7603616   0.7784189  )
         7           O   tau(   7) = (   0.7603616   0.7603616   0.0416237  )
         8           O   tau(   8) = (   0.2534539   0.2534539   1.4319666  )
         9           O   tau(   9) = (   0.5107884   0.5030270   0.3683976  )
        10           O   tau(  10) = (   0.5030270   0.5107884   1.1051927  )
        11           O   tau(  11) = (  -0.0038807   1.0176961   0.3683976  )
        12           O   tau(  12) = (   1.0176960  -0.0038807   1.1051927  )
        13           O   tau(  13) = (   1.0176961   0.5107884   0.3683976  )
        14           O   tau(  14) = (  -0.0038807   0.5030270   1.1051927  )
        15           O   tau(  15) = (   0.5030270  -0.0038807   0.3683976  )
        16           O   tau(  16) = (   0.5107884   1.0176960   1.1051927  )

     number of k points=    40  gaussian smearing, width (Ry)=  0.0007
                       cart. coord. in units 2pi/alat
        k(    1) = (   0.0000000   0.0000000   0.0000000), wk =   0.0092593
        k(    2) = (   0.0000000   0.0000000   0.1131024), wk =   0.0185185
        k(    3) = (   0.0000000   0.0000000   0.2262049), wk =   0.0185185
        k(    4) = (   0.0000000   0.0000000  -0.3393073), wk =   0.0092593
        k(    5) = (   0.0000000   0.1643955   0.0000000), wk =   0.0370370
        k(    6) = (   0.0000000   0.1643955   0.1131024), wk =   0.0740741
        k(    7) = (   0.0000000   0.1643955   0.2262049), wk =   0.0740741
        k(    8) = (   0.0000000   0.1643955  -0.3393073), wk =   0.0370370
        k(    9) = (   0.0000000   0.3287909   0.0000000), wk =   0.0370370
        k(   10) = (   0.0000000   0.3287909   0.1131024), wk =   0.0740741
        k(   11) = (   0.0000000   0.3287909   0.2262049), wk =   0.0740741
        k(   12) = (   0.0000000   0.3287909  -0.3393073), wk =   0.0370370
        k(   13) = (   0.0000000  -0.4931864   0.0000000), wk =   0.0185185
        k(   14) = (   0.0000000  -0.4931864   0.1131024), wk =   0.0370370
        k(   15) = (   0.0000000  -0.4931864   0.2262049), wk =   0.0370370
        k(   16) = (   0.0000000  -0.4931864  -0.3393073), wk =   0.0185185
        k(   17) = (   0.1643955   0.1643955   0.0000000), wk =   0.0370370
        k(   18) = (   0.1643955   0.1643955   0.1131024), wk =   0.0740741
        k(   19) = (   0.1643955   0.1643955   0.2262049), wk =   0.0740741
        k(   20) = (   0.1643955   0.1643955  -0.3393073), wk =   0.0370370
        k(   21) = (   0.1643955   0.3287909   0.0000000), wk =   0.0740741
        k(   22) = (   0.1643955   0.3287909   0.1131024), wk =   0.1481481
        k(   23) = (   0.1643955   0.3287909   0.2262049), wk =   0.1481481
        k(   24) = (   0.1643955   0.3287909  -0.3393073), wk =   0.0740741
        k(   25) = (   0.1643955  -0.4931864   0.0000000), wk =   0.0370370
        k(   26) = (   0.1643955  -0.4931864   0.1131024), wk =   0.0740741
        k(   27) = (   0.1643955  -0.4931864   0.2262049), wk =   0.0740741
        k(   28) = (   0.1643955  -0.4931864  -0.3393073), wk =   0.0370370
        k(   29) = (   0.3287909   0.3287909   0.0000000), wk =   0.0370370
        k(   30) = (   0.3287909   0.3287909   0.1131024), wk =   0.0740741
        k(   31) = (   0.3287909   0.3287909   0.2262049), wk =   0.0740741
        k(   32) = (   0.3287909   0.3287909  -0.3393073), wk =   0.0370370
        k(   33) = (   0.3287909  -0.4931864   0.0000000), wk =   0.0370370
        k(   34) = (   0.3287909  -0.4931864   0.1131024), wk =   0.0740741
        k(   35) = (   0.3287909  -0.4931864   0.2262049), wk =   0.0740741
        k(   36) = (   0.3287909  -0.4931864  -0.3393073), wk =   0.0370370
        k(   37) = (  -0.4931864  -0.4931864   0.0000000), wk =   0.0092593
        k(   38) = (  -0.4931864  -0.4931864   0.1131024), wk =   0.0185185
        k(   39) = (  -0.4931864  -0.4931864   0.2262049), wk =   0.0185185
        k(   40) = (  -0.4931864  -0.4931864  -0.3393073), wk =   0.0092593

     Initial potential from superposition of free atoms

     starting charge  183.99828, renormalised to  184.00000
     Starting wfcs are  116 randomized atomic wfcs

     Self-consistent Calculation

[...]

     total energy              =   -3130.49763932 Ry
     Harris-Foulkes estimate   =   -3130.49763932 Ry
     estimated scf accuracy    <          1.5E-09 Ry

     iteration # 13     ecut=   120.00 Ry     beta= 0.70
     Davidson diagonalization with overlap
     ethr =  8.27E-13,  avg # of iterations =  3.0

     End of self-consistent calculation

[...]

          k = 0.3288-0.4932-0.3393 ( 31540 PWs)   bands (ev):

[...]

          k =-0.4932-0.4932-0.3393 ( 31624 PWs)   bands (ev):

   -66.3907 -66.3907 -66.3907 -66.3907 -30.7292 -30.7292 -30.7292 -30.7292
   -30.6851 -30.6851 -30.6851 -30.6851 -30.6430 -30.6430 -30.6430 -30.6430
   -20.5600 -20.5600 -20.5600 -20.5600 -20.5582 -20.5582 -20.5582 -20.5582
   -20.5526 -20.5526 -20.5526 -20.5526 -20.5329 -20.5329 -20.5329 -20.5329
   -20.5241 -20.5241 -20.5240 -20.5240 -20.5198 -20.5198 -20.5198 -20.5198
   -20.5173 -20.5173 -20.5173 -20.5173  -9.5170  -9.5170  -9.5170  -9.5170
    -8.5765  -8.5765  -8.5765  -8.5765  -7.9215  -7.9215  -7.9215  -7.9215
     1.1211   1.1211   1.1211   1.1211   2.9342   2.9342   2.9342   2.9342
     3.1975   3.1975   3.1975   3.1975   4.5402   4.5402   4.5402   4.5402
     5.2599   5.2599   5.2599   5.2599   5.8673   5.8673   5.8673   5.8673
     6.1540   6.1540   6.1540   6.1540   6.6192   6.6192   6.6192   6.6192
     7.4660   7.4660   7.4661   7.4661  11.0624  11.0624  11.0624  11.0624
    12.3493  12.3493  12.3493  12.3493  13.4931  13.4931  13.4931  13.4931
    14.8699  14.8699  14.8699  14.8699  17.8953  17.8953

     the Fermi energy is     8.6920 ev

!    total energy              =   -3130.49763932 Ry
     Harris-Foulkes estimate   =   -3130.49763932 Ry
     estimated scf accuracy    <          4.8E-11 Ry

     The total energy is the sum of the following terms:

     one-electron contribution =   -2389.37300281 Ry
     hartree contribution      =    1311.84053750 Ry
     xc contribution           =    -482.86485467 Ry
     ewald contribution        =   -1570.10031934 Ry
     smearing contrib. (-TS)   =      -0.00000000 Ry

     convergence has been achieved in  13 iterations

     Forces acting on atoms (cartesian axes, Ry/au):

     atom    1 type  1   force =     0.00000000    0.00000000   -0.02018173
     atom    2 type  1   force =     0.00000000    0.00000000    0.02018173
     atom    3 type  1   force =     0.00000000    0.00000000    0.02018173
     atom    4 type  1   force =     0.00000000    0.00000000   -0.02018173
     atom    5 type  2   force =     0.00000000    0.00000000    0.09831499
     atom    6 type  2   force =     0.00000000    0.00000000   -0.09831499
     atom    7 type  2   force =     0.00000000    0.00000000   -0.09831499
     atom    8 type  2   force =     0.00000000    0.00000000    0.09831499
     atom    9 type  2   force =     0.00031764   -0.00031764    0.00000000
     atom   10 type  2   force =    -0.00031764    0.00031764    0.00000000
     atom   11 type  2   force =    -0.00031764    0.00031764    0.00000000
     atom   12 type  2   force =     0.00031764   -0.00031764    0.00000000
     atom   13 type  2   force =     0.00031764    0.00031764    0.00000000
     atom   14 type  2   force =    -0.00031764   -0.00031764    0.00000000
     atom   15 type  2   force =    -0.00031764   -0.00031764    0.00000000
     atom   16 type  2   force =     0.00031764    0.00031764    0.00000000

     Total force =     0.000000     Total SCF correction =     0.000000

     Computing stress (Cartesian axis) and pressure

          total   stress  (Ry/bohr**3)                   (kbar)     P=    0.58
   0.00000619   0.00000000   0.00000000          0.91      0.00      0.00
   0.00000000   0.00000619   0.00000000          0.00      0.91      0.00
   0.00000000   0.00000000  -0.00000050          0.00      0.00     -0.07

     Writing output data file Landau_31.save/

     General routines

     Parallel routines

   This run was terminated on:  19: 9:58  19Nov2019

   JOB DONE.