     Program PWSCF v.6.2 (svn rev. 14038) starts on  5Mar2020 at  0:41:24

     K-points division:     npool     =      64
     Reading input from rscf.in

     Current dimensions of program PWSCF are:
     Max number of different atomic species (ntypx) = 10
     Max number of k-points (npk) =  40000
     Max angular momentum in pseudopotentials (lmaxx) =  3

     Subspace diagonalization in iterative solution of the eigenvalue problem:
     a serial algorithm will be used

     Found symmetry operation: I + (  0.5000  0.0000 -0.5000)
     This is a supercell, fractional translations are disabled

     bravais-lattice index     =            0
     lattice parameter (alat)  =      13.8397  a.u.
     unit-cell volume          =    2804.9816 (a.u.)^3
     number of atoms/cell      =           32
     number of atomic types    =            2
     number of electrons       =       368.00
     number of Kohn-Sham states=          221
     kinetic-energy cutoff     =     120.0000  Ry
     charge density cutoff     =     480.0000  Ry
     convergence threshold     =      1.0E-08
     mixing beta               =       0.7000
     number of iterations used =            8  plain     mixing
     Exchange-correlation      = SLA PW NOGX NOGC ( 1  4  0  0 0 0)
     nstep                     =           50

     celldm(1)=  13.839685  celldm(2)=   0.000000  celldm(3)=   0.000000
     celldm(4)=   0.000000  celldm(5)=   0.000000  celldm(6)=   0.000000

     crystal axes: (cart. coord. in units of alat)
               a(1) = (   1.000000   0.000000   0.000000 )
               a(2) = (   0.000000   1.058160   0.000000 )
               a(3) = (   0.000000   0.000000   1.000000 )

     reciprocal axes: (cart. coord. in units 2 pi/alat)
               b(1) = (  1.000000  0.000000  0.000000 )
               b(2) = (  0.000000  0.945037  0.000000 )
               b(3) = (  0.000000  0.000000  1.000000 )

     PseudoPot. # 1 for W  read from file:
     /cluster/scratch/mnoe/QE/pps/W_ONCV_LDA-4.0.upf
     MD5 check sum: ba0307d5d4cd419d6f1d13dc49d7c13a
     Pseudo is Norm-conserving + core correction, Zval = 28.0
     Generated using ONCVPSP code by D. R. Hamann
     Using radial grid of 1380 points,  8 beta functions with:
                l(1) =   0
                l(2) =   0
                l(3) =   1
                l(4) =   1
                l(5) =   2
                l(6) =   2
                l(7) =   3
                l(8) =   3

     PseudoPot. # 2 for O  read from file:
     /cluster/scratch/mnoe/QE/pps/O_ONCV_LDA-3.0.upf
     MD5 check sum: a1bd6164e7280c17a38c229939bfbd54
     Pseudo is Norm-conserving + core correction, Zval =  6.0
     Generated using ONCVPSP code by D. R. Hamann
     Using radial grid of  926 points,  5 beta functions with:
                l(1) =   0
                l(2) =   0
                l(3) =   1
                l(4) =   1
                l(5) =   2

     atomic species   valence    mass     pseudopotential
        W             28.00   183.84000     W ( 1.00)
        O              6.00    15.99940     O ( 1.00)

      2 Sym. Ops., with inversion, found

   Cartesian axes

     site n.     atom                  positions (alat units)
         1           W   tau(   1) = (   0.2500000   0.2851980   0.0000000  )
         2           W   tau(   2) = (   0.7499999   0.7729621   0.0000000  )
         3           W   tau(   3) = (   0.2500000   0.2438821   0.5000000  )
         4           W   tau(   4) = (   0.7499999   0.8142782   0.5000000  )
         5           W   tau(   5) = (   0.7499999   0.2851980   0.5000000  )
         6           W   tau(   6) = (   0.2500000   0.7729621   0.5000000  )
         7           W   tau(   7) = (   0.7499999   0.2438821   0.0000000  )
         8           W   tau(   8) = (   0.2500000   0.8142782   0.0000000  )
         9           O   tau(   9) = (   0.2500000   0.0052473   0.0000000  )
        10           O   tau(  10) = (   0.7499999   1.0529127   0.0000000  )
        11           O   tau(  11) = (   0.2500000   0.5238328   0.5000000  )
        12           O   tau(  12) = (   0.7499999   0.5343274   0.5000000  )
        13           O   tau(  13) = (   0.7499999   0.0052473   0.5000000  )
        14           O   tau(  14) = (   0.2500000   1.0529127   0.5000000  )
        15           O   tau(  15) = (   0.7499999   0.5238328   0.0000000  )
        16           O   tau(  16) = (   0.2500000   0.5343274   0.0000000  )
        17           O   tau(  17) = (   0.5000000   0.2645400   0.4797075  )
        18           O   tau(  18) = (   0.5000000   0.7936201   0.5202926  )
        19           O   tau(  19) = (   0.0000000   0.2645400   0.9797075  )
        20           O   tau(  20) = (   0.0000000   0.7936201   0.0202924  )
        21           O   tau(  21) = (   0.5000000   0.2645400   0.0202924  )
        22           O   tau(  22) = (   0.5000000   0.7936201   0.9797075  )
        23           O   tau(  23) = (   0.0000000   0.2645400   0.5202926  )
        24           O   tau(  24) = (   0.0000000   0.7936201   0.4797075  )
        25           O   tau(  25) = (   0.7297075   0.2645400   0.7499999  )
        26           O   tau(  26) = (   0.2702924   0.7936201   0.2500000  )
        27           O   tau(  27) = (   0.7702927   0.2645400   0.2500000  )
        28           O   tau(  28) = (   0.2297075   0.7936201   0.7499999  )
        29           O   tau(  29) = (   0.2702924   0.2645400   0.7499999  )
        30           O   tau(  30) = (   0.7297075   0.7936201   0.2500000  )
        31           O   tau(  31) = (   0.2297075   0.2645400   0.2500000  )
        32           O   tau(  32) = (   0.7702927   0.7936201   0.7499999  )

     number of k points=   112  gaussian smearing, width (Ry)=  0.0007

     Number of k-points >= 100: set verbosity='high' to print them.

     Initial potential from superposition of free atoms

     starting charge  367.99656, renormalised to  368.00000
     Starting wfc are  232 randomized atomic wfcs

     Self-consistent Calculation

     iteration #  1     ecut=   120.00 Ry     beta= 0.70
     Davidson diagonalization with overlap
     ethr =  1.00E-02,  avg # of iterations =  5.4

     total energy              =   -6254.02298121 Ry
     Harris-Foulkes estimate   =   -6264.53343534 Ry
     estimated scf accuracy    <      13.34917903 Ry

[...]

     End of self-consistent calculation

     Number of k-points >= 100: set verbosity='high' to print the bands.

     the Fermi energy is     8.6151 ev

!    total energy              =   -6261.00115785 Ry
     Harris-Foulkes estimate   =   -6261.00115785 Ry
     estimated scf accuracy    <          2.0E-09 Ry

     The total energy is the sum of the following terms:

     one-electron contribution =   -4804.46067215 Ry
     hartree contribution      =    2639.10358392 Ry
     xc contribution           =    -966.58354602 Ry
     ewald contribution        =   -3129.06052361 Ry
     smearing contrib. (-TS)   =      -0.00000000 Ry

     convergence has been achieved in  14 iterations

     Forces acting on atoms (cartesian axes, Ry/au):

     atom    1 type  1   force =     0.00002956    0.06464194    0.00002471
     atom    2 type  1   force =    -0.00002956   -0.06464194   -0.00002471
     atom    3 type  1   force =     0.00004986   -0.06465514   -0.00002236
     atom    4 type  1   force =    -0.00004986    0.06465514    0.00002236
     atom    5 type  1   force =    -0.00003843    0.06470310   -0.00000741
     atom    6 type  1   force =     0.00003843   -0.06470310    0.00000741
     atom    7 type  1   force =    -0.00002830   -0.06472216    0.00000820
     atom    8 type  1   force =     0.00002830    0.06472216   -0.00000820
     atom    9 type  2   force =     0.00000099   -0.03193931    0.00000017
     atom   10 type  2   force =    -0.00000099    0.03193931   -0.00000017
     atom   11 type  2   force =     0.00000074    0.03193965   -0.00000012
     atom   12 type  2   force =    -0.00000074   -0.03193965    0.00000012
     atom   13 type  2   force =     0.00000082   -0.03194213   -0.00000015
     atom   14 type  2   force =    -0.00000082    0.03194213    0.00000015
     atom   15 type  2   force =     0.00000021    0.03194284    0.00000016
     atom   16 type  2   force =    -0.00000021   -0.03194284   -0.00000016
     atom   17 type  2   force =    -0.00000143    0.00000037   -0.01049721
     atom   18 type  2   force =     0.00000143   -0.00000037    0.01049721
     atom   19 type  2   force =     0.00000022    0.00000068   -0.01049759
     atom   20 type  2   force =    -0.00000022   -0.00000068    0.01049759
     atom   21 type  2   force =    -0.00000164   -0.00000033    0.01049712
     atom   22 type  2   force =     0.00000164    0.00000033   -0.01049712
     atom   23 type  2   force =     0.00000167   -0.00000045    0.01049708
     atom   24 type  2   force =    -0.00000167    0.00000045   -0.01049708
     atom   25 type  2   force =    -0.01049610   -0.00000015    0.00000064
     atom   26 type  2   force =     0.01049610    0.00000015   -0.00000064
     atom   27 type  2   force =     0.01049730   -0.00000013   -0.00000068
     atom   28 type  2   force =    -0.01049730    0.00000013    0.00000068
     atom   29 type  2   force =     0.01049565    0.00000002   -0.00000026
     atom   30 type  2   force =    -0.01049565   -0.00000002    0.00000026
     atom   31 type  2   force =    -0.01049704   -0.00000003    0.00000022
     atom   32 type  2   force =     0.01049704    0.00000003   -0.00000022

     Total force =     0.000000     Total SCF correction =     0.000000

     Computing stress (Cartesian axis) and pressure

          total   stress  (Ry/bohr**3)                   (kbar)     P=   86.56
   0.00116802   0.00000000  -0.00000000        171.82      0.00     -0.00
   0.00000000  -0.00057078  -0.00000000          0.00    -83.96     -0.00
  -0.00000000  -0.00000000   0.00116803         -0.00     -0.00    171.82

     BFGS Geometry Optimization

     number of scf cycles    =   1
     number of bfgs steps    =   0

     enthalpy new            =   -6261.0011578506 Ry

     new trust radius        =       0.3093066591 bohr
     new conv_thr            =       0.0000000100 Ry

     new unit-cell volume =   2928.79102 a.u.^3 (   434.00205 Ang^3 )
     density =      7.09630 g/cm^3

CELL_PARAMETERS (angstrom)
   7.537500566   0.000000144  -0.000000001
   0.000000152   7.639008099  -0.000000277
  -0.000000001  -0.000000262   7.537502155

ATOMIC_POSITIONS (crystal)
W        0.250000000   0.269522554   0.000000000    0   0   0
W        0.749999934   0.730477446  -0.000000000    0   0   0
W        0.250000000   0.230477465   0.500000000    0   0   0
W        0.749999934   0.769522651   0.500000000    0   0   0
W        0.749999934   0.269522554   0.500000000    0   0   0
W        0.250000000   0.730477446   0.500000000    0   0   0
W        0.749999934   0.230477465   0.000000000    0   0   0
W        0.250000000   0.769522651   0.000000000    0   0   0
O        0.250000000   0.004958913  -0.000000000    0   0   0
O        0.749999934   0.995041024   0.000000000    0   0   0
[...]
O        0.749999934   0.495041120  -0.000000000    0   0   0
O        0.250000000   0.504958976   0.000000000    0   0   0
O        0.500000000   0.250000000   0.479707493    0   0   0
O        0.500000000   0.750000046   0.520292609    0   0   0
O       -0.000000000   0.250000000   0.979707526    0   0   0
O        0.000000000   0.750000046   0.020292408    0   0   0
O        0.500000000   0.250000000   0.020292408    0   0   0
O        0.500000000   0.750000046   0.979707526    0   0   0
O       -0.000000000   0.250000000   0.520292609    0   0   0
O        0.000000000   0.750000046   0.479707493    0   0   0
O        0.729707457   0.250000000   0.749999934    0   0   0
O        0.270292441   0.750000046   0.250000000    0   0   0
O        0.770292675   0.250000000   0.250000000    0   0   0
O        0.229707509   0.750000046   0.749999934    0   0   0
O        0.270292441   0.250000000   0.749999934    0   0   0
O        0.729707457   0.750000046   0.250000000    0   0   0
O        0.229707509   0.250000000   0.250000000    0   0   0
O        0.770292675   0.750000046   0.749999934    0   0   0

     Writing output data file Landau_31.save
     NEW-OLD atomic charge density approx. for the potential
     extrapolated charge  383.55639, renormalised to  368.00000

[...]

     enthalpy old            =   -6261.0011578506 Ry
     enthalpy new            =   -6261.0782183390 Ry

     CASE: enthalpy_new < enthalpy_old

[...]

     Threshold (ethr) on eigenvalues was too large:
     Diagonalizing with lowered threshold

     Davidson diagonalization with overlap
     ethr =  1.44E-08,  avg # of iterations =  3.0

[...]

     number of scf cycles    =   5
     number of bfgs steps    =   4

     enthalpy old            =   -6261.0854005094 Ry
     enthalpy new            =   -6261.0854067301 Ry

     CASE: enthalpy_new < enthalpy_old

     small trust_radius: resetting bfgs history

     new trust radius        =       0.0000137127 bohr
     new conv_thr            =            1.0E-10 Ry

     new unit-cell volume =   2883.38430 a.u.^3 (   427.27347 Ang^3 )
     density =      7.20806 g/cm^3

[...]

ATOMIC_POSITIONS (crystal)
W        0.250000000   0.269522554   0.000000000    0   0   0
W        0.749999934   0.730477446  -0.000000000    0   0   0
W        0.250000000   0.230477465   0.500000000    0   0   0
W        0.749999934   0.769522651   0.500000000    0   0   0
W        0.749999934   0.269522554   0.500000000    0   0   0
W        0.250000000   0.730477446   0.500000000    0   0   0
W        0.749999934   0.230477465  -0.000000000    0   0   0
W        0.250000000   0.769522651   0.000000000    0   0   0
O        0.250000000   0.004958913   0.000000000    0   0   0
O        0.749999934   0.995041024  -0.000000000    0   0   0
O        0.250000000   0.495041120   0.500000000    0   0   0
O        0.749999934   0.504958976   0.500000000    0   0   0
O        0.749999934   0.004958913   0.500000000    0   0   0
O        0.250000000   0.995041024   0.500000000    0   0   0
O        0.749999934   0.495041120  -0.000000000    0   0   0
O        0.250000000   0.504958976  -0.000000000    0   0   0
O        0.500000000   0.250000000   0.479707493    0   0   0
O        0.500000000   0.750000046   0.520292609    0   0   0
O        0.000000000   0.250000000   0.979707526    0   0   0
O        0.000000000   0.750000046   0.020292408    0   0   0
O        0.500000000   0.250000000   0.020292408    0   0   0
O        0.500000000   0.750000046   0.979707526    0   0   0
O       -0.000000000   0.250000000   0.520292609    0   0   0
O        0.000000000   0.750000046   0.479707493    0   0   0
O        0.729707457   0.250000000   0.749999934    0   0   0
O        0.270292441   0.750000046   0.250000000    0   0   0
O        0.770292675   0.250000000   0.250000000    0   0   0
O        0.229707509   0.750000046   0.749999934    0   0   0
O        0.270292441   0.250000000   0.749999934    0   0   0
O        0.729707457   0.750000046   0.250000000    0   0   0
O        0.229707509   0.250000000   0.250000000    0   0   0
O        0.770292675   0.750000046   0.749999934    0   0   0

     Writing output data file Landau_31.save
     NEW-OLD atomic charge density approx. for the potential
     extrapolated charge  367.99993, renormalised to  368.00000

[...]

     Threshold (ethr) on eigenvalues was too large:
     Diagonalizing with lowered threshold

     Davidson diagonalization with overlap
     ethr =  8.50E-14,  avg # of iterations =  3.1

[...]

     bfgs converged in   6 scf cycles and   5 bfgs steps
     (criteria: energy <  1.0E-07 Ry, force <  1.0E-07Ry/Bohr, cell <  5.0E-01kbar)

     End of BFGS Geometry Optimization

     Final enthalpy =   -6261.0854067302 Ry
Begin final coordinates
     new unit-cell volume =   2883.38430 a.u.^3 (   427.27347 Ang^3 )
     density =      7.20806 g/cm^3

CELL_PARAMETERS (angstrom)
   7.487045957   0.000000048  -0.000000005
   0.000000049   7.622280422  -0.000000101
  -0.000000005  -0.000000098   7.487046008

ATOMIC_POSITIONS (crystal)
W        0.250000000   0.269522554   0.000000000    0   0   0
W        0.749999934   0.730477446  -0.000000000    0   0   0
W        0.250000000   0.230477465   0.500000000    0   0   0
W        0.749999934   0.769522651   0.500000000    0   0   0
W        0.749999934   0.269522554   0.500000000    0   0   0
W        0.250000000   0.730477446   0.500000000    0   0   0
W        0.749999934   0.230477465  -0.000000000    0   0   0
W        0.250000000   0.769522651   0.000000000    0   0   0
O        0.250000000   0.004958913   0.000000000    0   0   0
O        0.749999934   0.995041024  -0.000000000    0   0   0
O        0.250000000   0.495041120   0.500000000    0   0   0
O        0.749999934   0.504958976   0.500000000    0   0   0
O        0.749999934   0.004958913   0.500000000    0   0   0
O        0.250000000   0.995041024   0.500000000    0   0   0
O        0.749999934   0.495041120  -0.000000000    0   0   0
O        0.250000000   0.504958976  -0.000000000    0   0   0
O        0.500000000   0.250000000   0.479707493    0   0   0
O        0.500000000   0.750000046   0.520292609    0   0   0
O        0.000000000   0.250000000   0.979707526    0   0   0
O        0.000000000   0.750000046   0.020292408    0   0   0
O        0.500000000   0.250000000   0.020292408    0   0   0
O        0.500000000   0.750000046   0.979707526    0   0   0
O       -0.000000000   0.250000000   0.520292609    0   0   0
O       -0.000000000   0.750000046   0.479707493    0   0   0
O        0.729707457   0.250000000   0.749999934    0   0   0
O        0.270292441   0.750000046   0.250000000    0   0   0
O        0.770292675   0.250000000   0.250000000    0   0   0
O        0.229707509   0.750000046   0.749999934    0   0   0
O        0.270292441   0.250000000   0.749999934    0   0   0
O        0.729707457   0.750000046   0.250000000    0   0   0
O        0.229707509   0.250000000   0.250000000    0   0   0
O        0.770292675   0.750000046   0.749999934    0   0   0
End final coordinates

     A final scf calculation at the relaxed structure.
     The G-vectors are recalculated for the final unit cell
     Results may differ from those at the preceding step.

     bravais-lattice index     =            0
     lattice parameter (alat)  =      13.8397  a.u.
     unit-cell volume          =    2883.3843 (a.u.)^3
     number of atoms/cell      =           32
     number of atomic types    =            2
     number of electrons       =       368.00
     number of Kohn-Sham states=          221
     kinetic-energy cutoff     =     120.0000  Ry
     charge density cutoff     =     480.0000  Ry
     convergence threshold     =      1.0E-10
     mixing beta               =       0.7000
     number of iterations used =            8  plain     mixing
     Exchange-correlation      = SLA PW NOGX NOGC ( 1  4  0  0 0 0)

     celldm(1)=  13.839685  celldm(2)=   0.000000  celldm(3)=   0.000000
     celldm(4)=   0.000000  celldm(5)=   0.000000  celldm(6)=   0.000000

     crystal axes: (cart. coord. in units of alat)
               a(1) = (   1.022311   0.000000  -0.000000 )
               a(2) = (   0.000000   1.040777  -0.000000 )
               a(3) = (  -0.000000  -0.000000   1.022311 )

     reciprocal axes: (cart. coord. in units 2 pi/alat)
               b(1) = (  0.978176 -0.000000  0.000000 )
               b(2) = ( -0.000000  0.960821  0.000000 )
               b(3) = (  0.000000  0.000000  0.978176 )

     PseudoPot. # 1 for W  read from file:
     /cluster/scratch/mnoe/QE/pps/W_ONCV_LDA-4.0.upf
     MD5 check sum: ba0307d5d4cd419d6f1d13dc49d7c13a
     Pseudo is Norm-conserving + core correction, Zval = 28.0
     Generated using ONCVPSP code by D. R. Hamann
     Using radial grid of 1380 points,  8 beta functions with:
                l(1) =   0
                l(2) =   0
                l(3) =   1
                l(4) =   1
                l(5) =   2
                l(6) =   2
                l(7) =   3
                l(8) =   3

     PseudoPot. # 2 for O  read from file:
     /cluster/scratch/mnoe/QE/pps/O_ONCV_LDA-3.0.upf
     MD5 check sum: a1bd6164e7280c17a38c229939bfbd54
     Pseudo is Norm-conserving + core correction, Zval =  6.0
     Generated using ONCVPSP code by D. R. Hamann
     Using radial grid of  926 points,  5 beta functions with:
                l(1) =   0
                l(2) =   0
                l(3) =   1
                l(4) =   1
                l(5) =   2

     atomic species   valence    mass     pseudopotential
        W             28.00   183.84000     W ( 1.00)
        O              6.00    15.99940     O ( 1.00)

      2 Sym. Ops., with inversion, found

   Cartesian axes

     site n.     atom                  positions (alat units)
         1           W   tau(   1) = (   0.2555778   0.2805128  -0.0000000  )
         2           W   tau(   2) = (   0.7667334   0.7602639  -0.0000000  )
         3           W   tau(   3) = (   0.2555778   0.2398756   0.5111556  )
         4           W   tau(   4) = (   0.7667334   0.8009013   0.5111556  )
         5           W   tau(   5) = (   0.7667334   0.2805128   0.5111556  )
         6           W   tau(   6) = (   0.2555778   0.7602639   0.5111556  )
         7           W   tau(   7) = (   0.7667334   0.2398756  -0.0000000  )
         8           W   tau(   8) = (   0.2555778   0.8009013  -0.0000000  )
         9           O   tau(   9) = (   0.2555778   0.0051611  -0.0000000  )
        10           O   tau(  10) = (   0.7667334   1.0356155  -0.0000000  )
        11           O   tau(  11) = (   0.2555778   0.5152273   0.5111556  )
        12           O   tau(  12) = (   0.7667334   0.5255496   0.5111556  )
        13           O   tau(  13) = (   0.7667334   0.0051611   0.5111556  )
        14           O   tau(  14) = (   0.2555778   1.0356155   0.5111556  )
        15           O   tau(  15) = (   0.7667334   0.5152273  -0.0000000  )
        16           O   tau(  16) = (   0.2555778   0.5255496  -0.0000000  )
        17           O   tau(  17) = (   0.5111556   0.2601942   0.4904104  )
        18           O   tau(  18) = (   0.5111556   0.7805826   0.5319010  )
        19           O   tau(  19) = (   0.0000000   0.2601942   1.0015661  )
        20           O   tau(  20) = (   0.0000000   0.7805826   0.0207451  )
        21           O   tau(  21) = (   0.5111556   0.2601942   0.0207452  )
        22           O   tau(  22) = (   0.5111556   0.7805826   1.0015660  )
        23           O   tau(  23) = (   0.0000000   0.2601942   0.5319010  )
        24           O   tau(  24) = (   0.0000000   0.7805826   0.4904104  )
        25           O   tau(  25) = (   0.7459882   0.2601942   0.7667334  )
        26           O   tau(  26) = (   0.2763230   0.7805826   0.2555778  )
        27           O   tau(  27) = (   0.7874789   0.2601942   0.2555778  )
        28           O   tau(  28) = (   0.2348326   0.7805826   0.7667334  )
        29           O   tau(  29) = (   0.2763230   0.2601942   0.7667334  )
        30           O   tau(  30) = (   0.7459882   0.7805826   0.2555778  )
        31           O   tau(  31) = (   0.2348326   0.2601942   0.2555778  )
        32           O   tau(  32) = (   0.7874789   0.7805826   0.7667334  )

     number of k points=   112  gaussian smearing, width (Ry)=  0.0007

     Number of k-points >= 100: set verbosity='high' to print them.

     Initial potential from superposition of free atoms

     starting charge  367.99656, renormalised to  368.00000
     Starting wfc are  232 randomized atomic wfcs

     Writing output data file Landau_31.save

     Self-consistent Calculation

[...]

     total energy              =   -6261.08644703 Ry
     Harris-Foulkes estimate   =   -6261.08644703 Ry
     estimated scf accuracy    <          2.6E-10 Ry

     iteration # 17     ecut=   120.00 Ry     beta= 0.70
     Davidson diagonalization with overlap
     ethr =  1.00E-13,  avg # of iterations =  2.0

     End of self-consistent calculation

     Number of k-points >= 100: set verbosity='high' to print the bands.

     the Fermi energy is     8.4482 ev

!    total energy              =   -6261.08644703 Ry
     Harris-Foulkes estimate   =   -6261.08644703 Ry
     estimated scf accuracy    <          5.0E-11 Ry

     The total energy is the sum of the following terms:

     one-electron contribution =   -4842.33406947 Ry
     hartree contribution      =    2651.52817949 Ry
     xc contribution           =    -965.67802879 Ry
     ewald contribution        =   -3104.60252825 Ry
     smearing contrib. (-TS)   =      -0.00000000 Ry

     convergence has been achieved in  17 iterations

     Forces acting on atoms (cartesian axes, Ry/au):

     atom    1 type  1   force =    -0.00000174    0.02101224    0.00000447
     atom    2 type  1   force =     0.00000174   -0.02101224   -0.00000447
     atom    3 type  1   force =     0.00000052   -0.02102139   -0.00000291
     atom    4 type  1   force =    -0.00000052    0.02102139    0.00000291
     atom    5 type  1   force =    -0.00000162    0.02101161   -0.00000067
     atom    6 type  1   force =     0.00000162   -0.02101161    0.00000067
     atom    7 type  1   force =     0.00000133   -0.02102106    0.00000068
     atom    8 type  1   force =    -0.00000133    0.02102106   -0.00000068
     atom    9 type  2   force =    -0.00000002   -0.01149356    0.00000001
     atom   10 type  2   force =     0.00000002    0.01149356   -0.00000001
     atom   11 type  2   force =    -0.00000000    0.01149429   -0.00000002
     atom   12 type  2   force =     0.00000000   -0.01149429    0.00000002
     atom   13 type  2   force =    -0.00000004   -0.01149335    0.00000004
     atom   14 type  2   force =     0.00000004    0.01149335   -0.00000004
     atom   15 type  2   force =    -0.00000007    0.01149381    0.00000005
     atom   16 type  2   force =     0.00000007   -0.01149381   -0.00000005
     atom   17 type  2   force =     0.00000020    0.00000009   -0.00126111
     atom   18 type  2   force =    -0.00000020   -0.00000009    0.00126111
     atom   19 type  2   force =     0.00000017    0.00000000   -0.00126137
     atom   20 type  2   force =    -0.00000017   -0.00000000    0.00126137
     atom   21 type  2   force =    -0.00000021    0.00000007    0.00126146
     atom   22 type  2   force =     0.00000021   -0.00000007   -0.00126146
     atom   23 type  2   force =    -0.00000031    0.00000005    0.00126112
     atom   24 type  2   force =     0.00000031   -0.00000005   -0.00126112
     atom   25 type  2   force =    -0.00126122    0.00000005   -0.00000015
     atom   26 type  2   force =     0.00126122   -0.00000005    0.00000015
     atom   27 type  2   force =     0.00126103    0.00000002    0.00000010
     atom   28 type  2   force =    -0.00126103   -0.00000002   -0.00000010
     atom   29 type  2   force =     0.00126127    0.00000008    0.00000044
     atom   30 type  2   force =    -0.00126127   -0.00000008   -0.00000044
     atom   31 type  2   force =    -0.00126103    0.00000005   -0.00000052
     atom   32 type  2   force =     0.00126103   -0.00000005    0.00000052

     Total force =     0.000000     Total SCF correction =     0.000000

     Computing stress (Cartesian axis) and pressure

          total   stress  (Ry/bohr**3)                   (kbar)     P=    1.57
   0.00001518  -0.00000000   0.00000000          2.23     -0.00      0.00
  -0.00000000   0.00000164   0.00000000         -0.00      0.24      0.00
   0.00000000   0.00000000   0.00001518          0.00      0.00      2.23

     Writing output data file Landau_31.save

     General routines

     Parallel routines

   This run was terminated on:   5:18: 5   5Mar2020

   JOB DONE.