     Program PWSCF v.6.2 (svn rev. 14038) starts on 28Feb2020 at 18: 2:41

     K-points division:     npool     =      40
     Reading input from rscf.in

     Current dimensions of program PWSCF are:
     Max number of different atomic species (ntypx) = 10
     Max number of k-points (npk) =  40000
     Max angular momentum in pseudopotentials (lmaxx) =  3

     Subspace diagonalization in iterative solution of the eigenvalue problem:
     a serial algorithm will be used

     bravais-lattice index     =            0
     lattice parameter (alat)  =      13.8397  a.u.
     unit-cell volume          =    2804.9816 (a.u.)^3
     number of atoms/cell      =           32
     number of atomic types    =            2
     number of electrons       =       368.00
     number of Kohn-Sham states=          221
     kinetic-energy cutoff     =     120.0000  Ry
     charge density cutoff     =     480.0000  Ry
     convergence threshold     =      1.0E-08
     mixing beta               =       0.7000
     number of iterations used =            8  plain     mixing
     Exchange-correlation      = SLA PW NOGX NOGC ( 1  4  0  0 0 0)
     nstep                     =           50

     celldm(1)=  13.839685  celldm(2)=   0.000000  celldm(3)=   0.000000
     celldm(4)=   0.000000  celldm(5)=   0.000000  celldm(6)=   0.000000

     crystal axes: (cart. coord. in units of alat)
               a(1) = (   1.000000   0.000000   0.000000 )
               a(2) = (   0.000000   1.058160   0.000000 )
               a(3) = (   0.000000   0.000000   1.000000 )

     reciprocal axes: (cart. coord. in units 2 pi/alat)
               b(1) = (  1.000000  0.000000  0.000000 )
               b(2) = (  0.000000  0.945037  0.000000 )
               b(3) = (  0.000000  0.000000  1.000000 )

     PseudoPot. # 1 for W  read from file:
     /cluster/scratch/mnoe/QE/pps/W_ONCV_LDA-4.0.upf
     MD5 check sum: ba0307d5d4cd419d6f1d13dc49d7c13a
     Pseudo is Norm-conserving + core correction, Zval = 28.0
     Generated using ONCVPSP code by D. R. Hamann
     Using radial grid of 1380 points,  8 beta functions with:
                l(1) =   0
                l(2) =   0
                l(3) =   1
                l(4) =   1
                l(5) =   2
                l(6) =   2
                l(7) =   3
                l(8) =   3

     PseudoPot. # 2 for O  read from file:
     /cluster/scratch/mnoe/QE/pps/O_ONCV_LDA-3.0.upf
     MD5 check sum: a1bd6164e7280c17a38c229939bfbd54
     Pseudo is Norm-conserving + core correction, Zval =  6.0
     Generated using ONCVPSP code by D. R. Hamann
     Using radial grid of  926 points,  5 beta functions with:
                l(1) =   0
                l(2) =   0
                l(3) =   1
                l(4) =   1
                l(5) =   2

     atomic species   valence    mass     pseudopotential
        W             28.00   183.84000     W ( 1.00)
        O              6.00    15.99940     O ( 1.00)

      8 Sym. Ops. (no inversion) found ( 4 have fractional translation)

   Cartesian axes

     site n.     atom                  positions (alat units)
         1           W   tau(   1) = (   0.2724800   0.3072368   0.2506400  )
         2           W   tau(   2) = (  -0.2506400   0.7509233  -0.7275201  )
         3           W   tau(   3) = (   0.2275200   0.2218433   0.7506400  )
         4           W   tau(   4) = (   0.7506400   0.8363168   0.7724800  )
         5           W   tau(   5) = (   0.7275200   0.3072368   0.7493600  )
         6           W   tau(   6) = (   0.2506400   0.7509233   0.7275200  )
         7           W   tau(   7) = (  -0.2275201   0.2218433  -0.7506400  )
         8           W   tau(   8) = (   0.2493600   0.8363168   0.2275200  )
         9           O   tau(   9) = (   0.2747300   0.0258032   0.2679300  )
        10           O   tau(  10) = (  -0.2679300   1.0323569  -0.7252700  )
        11           O   tau(  11) = (   0.2252700   0.5032768   0.7679300  )
        12           O   tau(  12) = (   0.7679300   0.5548833   0.7747300  )
        13           O   tau(  13) = (   0.7252700   0.0258032   0.7320700  )
        14           O   tau(  14) = (   0.2679300   1.0323569   0.7252700  )
        15           O   tau(  15) = (  -0.2252700   0.5032768  -0.7679300  )
        16           O   tau(  16) = (   0.2320700   0.5548833   0.2252700  )
        17           O   tau(  17) = (   0.4920500   0.2927506   0.7434225  )
        18           O   tau(  18) = (   0.4983700   0.7755254   0.7565775  )
        19           O   tau(  19) = (  -0.9920499   0.2363295   1.2434225  )
        20           O   tau(  20) = (   0.0016301   0.8117146   0.2565775  )
        21           O   tau(  21) = (   0.5079500   0.2927506   0.2565775  )
        22           O   tau(  22) = (   0.5016300   0.7755254   1.2434225  )
        23           O   tau(  23) = (  -0.0079500   0.2363295   0.7565775  )
        24           O   tau(  24) = (  -1.0016300   0.8117146   0.7434225  )
        25           O   tau(  25) = (   0.7434226   0.2464455   2.0016300  )
        26           O   tau(  26) = (   0.2565775   0.7654094   0.4920500  )
        27           O   tau(  27) = (   0.7565775   0.2826346   0.5016301  )
        28           O   tau(  28) = (   0.2434226   0.8218305   1.9920500  )
        29           O   tau(  29) = (   0.2565775   0.2464455   0.9983700  )
        30           O   tau(  30) = (   0.7434226   0.7654094   0.5079501  )
        31           O   tau(  31) = (   0.2434226   0.2826346   0.4983700  )
        32           O   tau(  32) = (   0.7565775   0.8218305   1.0079500  )

     number of k points=    40  gaussian smearing, width (Ry)=  0.0007
                       cart. coord. in units 2pi/alat
        k(    1) = (   0.0000000   0.0000000   0.0000000), wk =   0.0092593
        k(    2) = (   0.0000000   0.0000000   0.1666667), wk =   0.0370370
        k(    3) = (   0.0000000   0.0000000   0.3333333), wk =   0.0370370
        k(    4) = (   0.0000000   0.0000000  -0.5000000), wk =   0.0185185
        k(    5) = (   0.0000000   0.1575061   0.0000000), wk =   0.0185185
        k(    6) = (   0.0000000   0.1575061   0.1666667), wk =   0.0740741
        k(    7) = (   0.0000000   0.1575061   0.3333333), wk =   0.0740741
        k(    8) = (   0.0000000   0.1575061  -0.5000000), wk =   0.0370370
        k(    9) = (   0.0000000   0.3150122   0.0000000), wk =   0.0185185
        k(   10) = (   0.0000000   0.3150122   0.1666667), wk =   0.0740741
        k(   11) = (   0.0000000   0.3150122   0.3333333), wk =   0.0740741
        k(   12) = (   0.0000000   0.3150122  -0.5000000), wk =   0.0370370
        k(   13) = (   0.0000000  -0.4725183   0.0000000), wk =   0.0092593
        k(   14) = (   0.0000000  -0.4725183   0.1666667), wk =   0.0370370
        k(   15) = (   0.0000000  -0.4725183   0.3333333), wk =   0.0370370
        k(   16) = (   0.0000000  -0.4725183  -0.5000000), wk =   0.0185185
        k(   17) = (   0.1666667   0.0000000   0.1666667), wk =   0.0370370
        k(   18) = (   0.1666667   0.0000000   0.3333333), wk =   0.0740741
        k(   19) = (   0.1666667   0.0000000  -0.5000000), wk =   0.0370370
        k(   20) = (   0.1666667   0.1575061   0.1666667), wk =   0.0740741
        k(   21) = (   0.1666667   0.1575061   0.3333333), wk =   0.1481481
        k(   22) = (   0.1666667   0.1575061  -0.5000000), wk =   0.0740741
        k(   23) = (   0.1666667   0.3150122   0.1666667), wk =   0.0740741
        k(   24) = (   0.1666667   0.3150122   0.3333333), wk =   0.1481481
        k(   25) = (   0.1666667   0.3150122  -0.5000000), wk =   0.0740741
        k(   26) = (   0.1666667  -0.4725183   0.1666667), wk =   0.0370370
        k(   27) = (   0.1666667  -0.4725183   0.3333333), wk =   0.0740741
        k(   28) = (   0.1666667  -0.4725183  -0.5000000), wk =   0.0370370
        k(   29) = (   0.3333333   0.0000000   0.3333333), wk =   0.0370370
        k(   30) = (   0.3333333   0.0000000  -0.5000000), wk =   0.0370370
        k(   31) = (   0.3333333   0.1575061   0.3333333), wk =   0.0740741
        k(   32) = (   0.3333333   0.1575061  -0.5000000), wk =   0.0740741
        k(   33) = (   0.3333333   0.3150122   0.3333333), wk =   0.0740741
        k(   34) = (   0.3333333   0.3150122  -0.5000000), wk =   0.0740741
        k(   35) = (   0.3333333  -0.4725183   0.3333333), wk =   0.0370370
        k(   36) = (   0.3333333  -0.4725183  -0.5000000), wk =   0.0370370
        k(   37) = (  -0.5000000   0.0000000  -0.5000000), wk =   0.0092593
        k(   38) = (  -0.5000000   0.1575061  -0.5000000), wk =   0.0185185
        k(   39) = (  -0.5000000   0.3150122  -0.5000000), wk =   0.0185185
        k(   40) = (  -0.5000000  -0.4725183  -0.5000000), wk =   0.0092593

     Initial potential from superposition of free atoms

     starting charge  367.99656, renormalised to  368.00000
     Starting wfc are  232 randomized atomic wfcs

     Self-consistent Calculation

     iteration #  1     ecut=   120.00 Ry     beta= 0.70
     Davidson diagonalization with overlap
     ethr =  1.00E-02,  avg # of iterations =  5.2

     total energy              =   -6253.79848969 Ry
     Harris-Foulkes estimate   =   -6264.45884296 Ry
     estimated scf accuracy    <      13.50937431 Ry

[...]

     End of self-consistent calculation

          k = 0.0000 0.0000 0.0000 ( 62239 PWs)   bands (ev):

   -66.1224 -66.1220 -66.1216 -66.1216 -66.1212 -66.1211 -66.1207 -66.1203
   -30.6600 -30.6598 -30.6554 -30.6554 -30.5626 -30.5626 -30.5588 -30.5588
   -30.5038 -30.5037 -30.4979 -30.4979 -30.4105 -30.4105 -30.4056 -30.4055
   -30.3519 -30.3493 -30.3493 -30.3469 -30.2957 -30.2940 -30.2940 -30.2923
   -20.2772 -20.2771 -20.2764 -20.2764 -20.2753 -20.2753 -20.2746 -20.2745
   -20.2671 -20.2670 -20.2663 -20.2663 -20.2641 -20.2641 -20.2637 -20.2636
   -20.2510 -20.2508 -20.2508 -20.2508 -20.2497 -20.2495 -20.2484 -20.2484
   -20.2480 -20.2480 -20.2479 -20.2479 -20.2477 -20.2476 -20.2467 -20.2465
   -20.2321 -20.2320 -20.2320 -20.2320 -20.2316 -20.2314 -20.2314 -20.2313
   -20.2276 -20.2276 -20.2274 -20.2274 -20.2269 -20.2267 -20.2267 -20.2265
   -20.2231 -20.2227 -20.2227 -20.2225 -20.2220 -20.2217 -20.2217 -20.2214
   -10.0974  -9.8864  -9.7109  -9.7109  -9.4088  -9.4088  -9.1525  -9.1380
    -8.6045  -8.4848  -8.4848  -8.4590  -8.0713  -8.0333  -7.9857  -7.9857
    -7.8047  -7.8008  -7.7510  -7.7510  -7.4592  -7.3917  -7.3917  -7.3288
     0.8729   0.8770   1.0121   1.0121   1.1956   1.1956   1.3284   1.3551
     1.9585   1.9740   1.9740   2.0048   2.1287   2.2313   2.5547   2.6080
     2.6383   2.6383   3.9310   3.9310   4.0749   4.1287   4.2733   4.2733
     4.4663   4.4663   4.9057   5.1609   5.2330   5.3249   5.3249   5.5038
     5.5038   5.5364   5.5764   5.6029   5.6029   5.6236   5.7499   5.7499
     5.7938   5.8811   5.9141   5.9764   5.9764   6.0414   6.0537   6.1958
     6.3647   6.3651   6.5819   6.6316   6.6316   6.7353   6.7353   6.8010
     7.0035   7.0041   7.0041   7.0981   7.1363   7.1363   7.1466   7.2267
     7.2267   7.2299   8.2128   8.2227   8.2478   8.3458   8.3458   8.3600
     9.5573   9.5595   9.9010   9.9010   9.9606  10.1476  12.4482  12.4533
[...]
W        0.227520019   0.209650010   0.750640017    0   0   0
W        0.750639966   0.790349963   0.772479981    0   0   0
W        0.727520034   0.290349994   0.749359983    0   0   0
W        0.250640017   0.709650006   0.727520019    0   0   0
W       -0.227520052   0.209650010  -0.750639984    0   0   0
W        0.249359983   0.790349963   0.227520034    0   0   0
O        0.274730020   0.024385001   0.267930007    0   0   0
O       -0.267929994   0.975615043  -0.725269980    0   0   0
O        0.225269980   0.475614988   0.767929994    0   0   0
O        0.767930007   0.524385004   0.774730020    0   0   0
O        0.725269993   0.024385001   0.732070006    0   0   0
O        0.267929994   0.975615043   0.725269980    0   0   0
O       -0.225269980   0.475614988  -0.767929994    0   0   0
O        0.232070006   0.524385004   0.225269993    0   0   0
O        0.492049967   0.276659994   0.743422534    0   0   0
O        0.498369989   0.732899892   0.756577482    0   0   0
O       -0.992049918   0.223340006   1.243422531    0   0   0
O        0.001630071   0.767099956   0.256577515    0   0   0
O        0.507950033   0.276659994   0.256577515    0   0   0
O        0.501630011   0.732899892   1.243422531    0   0   0
O       -0.007950006   0.223340006   0.756577482    0   0   0
O       -1.001629995   0.767099956   0.743422534    0   0   0
O        0.743422592   0.232899984   2.001630011    0   0   0
O        0.256577502   0.723339915   0.492049983    0   0   0
O        0.756577457   0.267100016   0.501630060    0   0   0
O        0.243422551   0.776659933   1.992049967    0   0   0
O        0.256577502   0.232899984   0.998369978    0   0   0
O        0.743422592   0.723339915   0.507950082    0   0   0
O        0.243422551   0.267100016   0.498370005    0   0   0
O        0.756577457   0.776659933   1.007950022    0   0   0
End final coordinates

     A final scf calculation at the relaxed structure.
     The G-vectors are recalculated for the final unit cell
     Results may differ from those at the preceding step.

     bravais-lattice index     =            0
     lattice parameter (alat)  =      13.8397  a.u.
     unit-cell volume          =    2829.6655 (a.u.)^3
     number of atoms/cell      =           32
     number of atomic types    =            2
     number of electrons       =       368.00
     number of Kohn-Sham states=          221
     kinetic-energy cutoff     =     120.0000  Ry
     charge density cutoff     =     480.0000  Ry
     convergence threshold     =      1.0E-10
     mixing beta               =       0.7000
     number of iterations used =            8  plain     mixing
     Exchange-correlation      = SLA PW NOGX NOGC ( 1  4  0  0 0 0)

     celldm(1)=  13.839685  celldm(2)=   0.000000  celldm(3)=   0.000000
     celldm(4)=   0.000000  celldm(5)=   0.000000  celldm(6)=   0.000000

     crystal axes: (cart. coord. in units of alat)
               a(1) = (   1.017776   0.000000   0.000000 )
               a(2) = (   0.000000   1.030510   0.000000 )
               a(3) = (   0.000000   0.000000   1.017776 )

     reciprocal axes: (cart. coord. in units 2 pi/alat)
               b(1) = (  0.982535  0.000000  0.000000 )
               b(2) = (  0.000000  0.970393  0.000000 )
               b(3) = (  0.000000  0.000000  0.982535 )

     PseudoPot. # 1 for W  read from file:
     /cluster/scratch/mnoe/QE/pps/W_ONCV_LDA-4.0.upf
     MD5 check sum: ba0307d5d4cd419d6f1d13dc49d7c13a
     Pseudo is Norm-conserving + core correction, Zval = 28.0
     Generated using ONCVPSP code by D. R. Hamann
     Using radial grid of 1380 points,  8 beta functions with:
                l(1) =   0
                l(2) =   0
                l(3) =   1
                l(4) =   1
                l(5) =   2
                l(6) =   2
                l(7) =   3
                l(8) =   3

     PseudoPot. # 2 for O  read from file:
     /cluster/scratch/mnoe/QE/pps/O_ONCV_LDA-3.0.upf
     MD5 check sum: a1bd6164e7280c17a38c229939bfbd54
     Pseudo is Norm-conserving + core correction, Zval =  6.0
     Generated using ONCVPSP code by D. R. Hamann
     Using radial grid of  926 points,  5 beta functions with:
                l(1) =   0
                l(2) =   0
                l(3) =   1
                l(4) =   1
                l(5) =   2

     atomic species   valence    mass     pseudopotential
        W             28.00   183.84000     W ( 1.00)
        O              6.00    15.99940     O ( 1.00)

      8 Sym. Ops. (no inversion) found ( 4 have fractional translation)

   Cartesian axes

     site n.     atom                  positions (alat units)
         1           W   tau(   1) = (   0.2773235   0.2992086   0.2550953  )
         2           W   tau(   2) = (  -0.2550953   0.7313016  -0.7404522  )
         3           W   tau(   3) = (   0.2315643   0.2160465   0.7639832  )
         4           W   tau(   4) = (   0.7639831   0.8144637   0.7862113  )
         5           W   tau(   5) = (   0.7404522   0.2992086   0.7626804  )
         6           W   tau(   6) = (   0.2550953   0.7313016   0.7404522  )
         7           W   tau(   7) = (  -0.2315644   0.2160465  -0.7639831  )
         8           W   tau(   8) = (   0.2537925   0.8144637   0.2315644  )
         9           O   tau(   9) = (   0.2796135   0.0251290   0.2726926  )
        10           O   tau(  10) = (  -0.2726926   1.0053813  -0.7381621  )
        11           O   tau(  11) = (   0.2292743   0.4901261   0.7815805  )
        12           O   tau(  12) = (   0.7815805   0.5403841   0.7885014  )
        13           O   tau(  13) = (   0.7381622   0.0251290   0.7450830  )
        14           O   tau(  14) = (   0.2726926   1.0053813   0.7381621  )
        15           O   tau(  15) = (  -0.2292743   0.4901261  -0.7815805  )
        16           O   tau(  16) = (   0.2361952   0.5403841   0.2292743  )
        17           O   tau(  17) = (   0.5007965   0.2851010   0.7566374  )
        18           O   tau(  18) = (   0.5072289   0.7552609   0.7700262  )
        19           O   tau(  19) = (  -1.0096843   0.2301542   1.2655252  )
        20           O   tau(  20) = (   0.0016590   0.7905044   0.2611384  )
        21           O   tau(  21) = (   0.5169792   0.2851010   0.2611384  )
        22           O   tau(  22) = (   0.5105468   0.7552609   1.2655252  )
        23           O   tau(  23) = (  -0.0080913   0.2301542   0.7700262  )
        24           O   tau(  24) = (  -1.0194346   0.7905044   0.7566374  )
        25           O   tau(  25) = (   0.7566374   0.2400058   2.0372103  )
        26           O   tau(  26) = (   0.2611383   0.7454092   0.5007965  )
        27           O   tau(  27) = (   0.7700261   0.2752493   0.5105469  )
        28           O   tau(  28) = (   0.2477496   0.8003560   2.0274600  )
        29           O   tau(  29) = (   0.2611383   0.2400058   1.0161167  )
        30           O   tau(  30) = (   0.7566374   0.7454092   0.5169792  )
        31           O   tau(  31) = (   0.2477496   0.2752493   0.5072289  )
        32           O   tau(  32) = (   0.7700261   0.8003560   1.0258670  )

     number of k points=    40  gaussian smearing, width (Ry)=  0.0007
                       cart. coord. in units 2pi/alat
        k(    1) = (   0.0000000   0.0000000   0.0000000), wk =   0.0092593
        k(    2) = (   0.0000000   0.0000000   0.1637558), wk =   0.0370370
        k(    3) = (   0.0000000   0.0000000   0.3275116), wk =   0.0370370
        k(    4) = (   0.0000000   0.0000000  -0.4912674), wk =   0.0185185
        k(    5) = (   0.0000000   0.1617322   0.0000000), wk =   0.0185185
        k(    6) = (   0.0000000   0.1617322   0.1637558), wk =   0.0740741
        k(    7) = (   0.0000000   0.1617322   0.3275116), wk =   0.0740741
        k(    8) = (   0.0000000   0.1617322  -0.4912674), wk =   0.0370370
        k(    9) = (   0.0000000   0.3234644   0.0000000), wk =   0.0185185
        k(   10) = (   0.0000000   0.3234644   0.1637558), wk =   0.0740741
        k(   11) = (   0.0000000   0.3234644   0.3275116), wk =   0.0740741
        k(   12) = (   0.0000000   0.3234644  -0.4912674), wk =   0.0370370
        k(   13) = (   0.0000000  -0.4851965   0.0000000), wk =   0.0092593
        k(   14) = (   0.0000000  -0.4851965   0.1637558), wk =   0.0370370
        k(   15) = (   0.0000000  -0.4851965   0.3275116), wk =   0.0370370
        k(   16) = (   0.0000000  -0.4851965  -0.4912674), wk =   0.0185185
        k(   17) = (   0.1637558   0.0000000   0.1637558), wk =   0.0370370
        k(   18) = (   0.1637558   0.0000000   0.3275116), wk =   0.0740741
        k(   19) = (   0.1637558   0.0000000  -0.4912674), wk =   0.0370370
        k(   20) = (   0.1637558   0.1617322   0.1637558), wk =   0.0740741
        k(   21) = (   0.1637558   0.1617322   0.3275116), wk =   0.1481481
        k(   22) = (   0.1637558   0.1617322  -0.4912674), wk =   0.0740741
        k(   23) = (   0.1637558   0.3234644   0.1637558), wk =   0.0740741
        k(   24) = (   0.1637558   0.3234644   0.3275116), wk =   0.1481481
        k(   25) = (   0.1637558   0.3234644  -0.4912674), wk =   0.0740741
        k(   26) = (   0.1637558  -0.4851965   0.1637558), wk =   0.0370370
        k(   27) = (   0.1637558  -0.4851965   0.3275116), wk =   0.0740741
        k(   28) = (   0.1637558  -0.4851965  -0.4912674), wk =   0.0370370
        k(   29) = (   0.3275116   0.0000000   0.3275116), wk =   0.0370370
        k(   30) = (   0.3275116   0.0000000  -0.4912674), wk =   0.0370370
        k(   31) = (   0.3275116   0.1617322   0.3275116), wk =   0.0740741
        k(   32) = (   0.3275116   0.1617322  -0.4912674), wk =   0.0740741
        k(   33) = (   0.3275116   0.3234644   0.3275116), wk =   0.0740741
        k(   34) = (   0.3275116   0.3234644  -0.4912674), wk =   0.0740741
        k(   35) = (   0.3275116  -0.4851965   0.3275116), wk =   0.0370370
        k(   36) = (   0.3275116  -0.4851965  -0.4912674), wk =   0.0370370
        k(   37) = (  -0.4912674   0.0000000  -0.4912674), wk =   0.0092593
        k(   38) = (  -0.4912674   0.1617322  -0.4912674), wk =   0.0185185
        k(   39) = (  -0.4912674   0.3234644  -0.4912674), wk =   0.0185185
        k(   40) = (  -0.4912674  -0.4851965  -0.4912674), wk =   0.0092593

     Initial potential from superposition of free atoms

     starting charge  367.99656, renormalised to  368.00000
     Starting wfc are  232 randomized atomic wfcs

     Writing output data file Landau_25.save

     Self-consistent Calculation

[...]

     total energy              =   -6261.02638894 Ry
     Harris-Foulkes estimate   =   -6261.02638894 Ry
     estimated scf accuracy    <          1.5E-09 Ry

     iteration # 14     ecut=   120.00 Ry     beta= 0.70
     Davidson diagonalization with overlap
     ethr =  4.14E-13,  avg # of iterations =  2.0

     End of self-consistent calculation

[...]

          k = 0.3275-0.4852-0.4913 ( 62784 PWs)   bands (ev):

[...]

          k =-0.4913-0.4852-0.4913 ( 62768 PWs)   bands (ev):

   -66.2875 -66.2875 -66.2875 -66.2875 -66.2875 -66.2875 -66.2874 -66.2874
   -30.6882 -30.6882 -30.6877 -30.6877 -30.6877 -30.6877 -30.6873 -30.6873
   -30.5757 -30.5757 -30.5755 -30.5755 -30.5755 -30.5755 -30.5745 -30.5745
   -30.5513 -30.5513 -30.5499 -30.5499 -30.5499 -30.5499 -30.5491 -30.5491
   -20.4589 -20.4588 -20.4588 -20.4588 -20.4588 -20.4588 -20.4587 -20.4587
   -20.4490 -20.4490 -20.4490 -20.4490 -20.4489 -20.4488 -20.4488 -20.4488
   -20.4269 -20.4268 -20.4268 -20.4268 -20.4268 -20.4268 -20.4268 -20.4268
   -20.4239 -20.4239 -20.4239 -20.4238 -20.4237 -20.4237 -20.4237 -20.4237
   -20.4087 -20.4087 -20.4083 -20.4083 -20.4083 -20.4083 -20.4081 -20.4081
   -20.4050 -20.4050 -20.4049 -20.4048 -20.4048 -20.4048 -20.4044 -20.4044
   -20.3968 -20.3968 -20.3968 -20.3968 -20.3968 -20.3967 -20.3967 -20.3967
    -9.1493  -9.1493  -9.1124  -9.1124  -9.1124  -9.1124  -9.0861  -9.0861
    -8.5650  -8.5650  -8.5223  -8.5223  -8.5223  -8.5223  -8.4773  -8.4772
    -8.3634  -8.3634  -8.3499  -8.3499  -8.3499  -8.3499  -8.3265  -8.3264
     2.6439   2.6440   2.6440   2.6440   2.6756   2.6756   2.7073   2.7073
     3.0232   3.0232   3.0550   3.0550   3.0550   3.0550   3.0601   3.0601
     3.0788   3.0788   3.3101   3.3101   3.3101   3.3101   3.3953   3.3953
     4.0044   4.0044   4.0671   4.0671   4.0671   4.0672   4.0745   4.0745
     4.2187   4.2187   4.2588   4.2588   4.2588   4.2588   4.3156   4.3156
     4.4619   4.4620   4.4820   4.4820   4.4820   4.4820   4.5478   4.5478
     7.0212   7.0212   7.1044   7.1044   7.1044   7.1044   7.1732   7.1732
     7.2528   7.2528   7.2528   7.2528   7.2705   7.2705   7.4169   7.4169
     7.5424   7.5424   7.5787   7.5787   7.5787   7.5787   7.6021   7.6021
    11.8431  11.8431  11.8558  11.8558  11.8651  11.8651  11.8651  11.8651
    12.0393  12.0393  12.1291  12.1291  12.1291  12.1291  12.1598  12.1598
    12.3428  12.3429  12.3840  12.3840  12.3840  12.3840  12.4129  12.4129
    16.7197  16.7198  16.7561  16.7561  16.7561  16.7561  17.0563  17.0563
    17.2088  17.2088  17.3047  17.3047  17.3047

     the Fermi energy is     8.7032 ev

!    total energy              =   -6261.02638894 Ry
     Harris-Foulkes estimate   =   -6261.02638894 Ry
     estimated scf accuracy    <          9.6E-11 Ry

     The total energy is the sum of the following terms:

     one-electron contribution =   -4750.10668285 Ry
     hartree contribution      =    2610.29557480 Ry
     xc contribution           =    -965.69233336 Ry
     ewald contribution        =   -3155.52294753 Ry
     smearing contrib. (-TS)   =      -0.00000000 Ry

     convergence has been achieved in  14 iterations

     Forces acting on atoms (cartesian axes, Ry/au):

     atom    1 type  1   force =    -0.03024296    0.00545037   -0.00138128
     atom    2 type  1   force =     0.00138128   -0.00545037   -0.03024296
     atom    3 type  1   force =     0.03024296   -0.00545037   -0.00138128
     atom    4 type  1   force =    -0.00138128    0.00545037   -0.03024296
     atom    5 type  1   force =     0.03024296    0.00545037    0.00138128
     atom    6 type  1   force =    -0.00138128   -0.00545037    0.03024296
     atom    7 type  1   force =    -0.03024296   -0.00545037    0.00138128
     atom    8 type  1   force =     0.00138128    0.00545037    0.03024296
     atom    9 type  2   force =    -0.00064336   -0.07193951   -0.00953857
     atom   10 type  2   force =     0.00953857    0.07193951   -0.00064336
     atom   11 type  2   force =     0.00064336    0.07193951   -0.00953857
     atom   12 type  2   force =    -0.00953857   -0.07193951   -0.00064336
     atom   13 type  2   force =     0.00064336   -0.07193951    0.00953857
     atom   14 type  2   force =    -0.00953857    0.07193951    0.00064336
     atom   15 type  2   force =    -0.00064336    0.07193951    0.00953857
     atom   16 type  2   force =     0.00953857   -0.07193951    0.00064336
     atom   17 type  2   force =    -0.01941226    0.00272969    0.00148881
     atom   18 type  2   force =     0.00508203   -0.00656485    0.00347247
     atom   19 type  2   force =     0.01941226   -0.00272969    0.00148881
     atom   20 type  2   force =    -0.00508203    0.00656485    0.00347247
     atom   21 type  2   force =     0.01941226    0.00272969   -0.00148881
     atom   22 type  2   force =    -0.00508203   -0.00656485   -0.00347247
     atom   23 type  2   force =    -0.01941226   -0.00272969   -0.00148881
     atom   24 type  2   force =     0.00508203    0.00656485   -0.00347247
     atom   25 type  2   force =    -0.00347247   -0.00656485   -0.00508203
     atom   26 type  2   force =    -0.00148881   -0.00272969   -0.01941226
     atom   27 type  2   force =     0.00347247    0.00656485   -0.00508203
     atom   28 type  2   force =     0.00148881    0.00272969   -0.01941226
     atom   29 type  2   force =     0.00347247   -0.00656485    0.00508203
     atom   30 type  2   force =     0.00148881   -0.00272969    0.01941226
     atom   31 type  2   force =    -0.00347247    0.00656485    0.00508203
     atom   32 type  2   force =    -0.00148881    0.00272969    0.01941226

     Total force =     0.000000     Total SCF correction =     0.000000

     Computing stress (Cartesian axis) and pressure

          total   stress  (Ry/bohr**3)                   (kbar)     P=    0.82
   0.00000879   0.00000000   0.00000000          1.29      0.00      0.00
   0.00000000  -0.00000084   0.00000000          0.00     -0.12      0.00
   0.00000000   0.00000000   0.00000879          0.00      0.00      1.29

     Writing output data file Landau_25.save

     General routines

     Parallel routines

   This run was terminated on:  20:22:12  28Feb2020

   JOB DONE.