     Program PWSCF v.6.2 (svn rev. 14038) starts on 28Aug2019 at 13: 3: 4

     K-points division:     npool     =      40
     Reading input from scf.in

     Current dimensions of program PWSCF are:
     Max number of different atomic species (ntypx) = 10
     Max number of k-points (npk) =  40000
     Max angular momentum in pseudopotentials (lmaxx) =  3

     Subspace diagonalization in iterative solution of the eigenvalue problem:
     a serial algorithm will be used

     bravais-lattice index     =            0
     lattice parameter (alat)  =      13.8467  a.u.
     unit-cell volume          =    2796.3335 (a.u.)^3
     number of atoms/cell      =           32
     number of atomic types    =            2
     number of electrons       =       368.00
     number of Kohn-Sham states=          221
     kinetic-energy cutoff     =     120.0000  Ry
     charge density cutoff     =     480.0000  Ry
     convergence threshold     =      1.0E-08
     mixing beta               =       0.7000
     number of iterations used =            8  plain     mixing
     Exchange-correlation      = SLA PW NOGX NOGC ( 1  4  0  0 0 0)

     celldm(1)=  13.846710  celldm(2)=   0.000000  celldm(3)=   0.000000
     celldm(4)=   0.000000  celldm(5)=   0.000000  celldm(6)=   0.000000

     crystal axes: (cart. coord. in units of alat)
               a(1) = (   1.000000   0.000000   0.000000 )
               a(2) = (   0.000000   1.053293   0.000000 )
               a(3) = (   0.000000   0.000000   1.000000 )

     reciprocal axes: (cart. coord. in units 2 pi/alat)
               b(1) = (  1.000000  0.000000  0.000000 )
               b(2) = (  0.000000  0.949404  0.000000 )
               b(3) = (  0.000000  0.000000  1.000000 )

     PseudoPot. # 1 for W  read from file:
     /cluster/scratch/mnoe/QE/pps/W_ONCV_LDA-4.0.upf
     MD5 check sum: ba0307d5d4cd419d6f1d13dc49d7c13a
     Pseudo is Norm-conserving + core correction, Zval = 28.0
     Generated using ONCVPSP code by D. R. Hamann
     Using radial grid of 1380 points,  8 beta functions with:
                l(1) =   0
                l(2) =   0
                l(3) =   1
                l(4) =   1
                l(5) =   2
                l(6) =   2
                l(7) =   3
                l(8) =   3

     PseudoPot. # 2 for O  read from file:
     /cluster/scratch/mnoe/QE/pps/O_ONCV_LDA-3.0.upf
     MD5 check sum: b55cdb4f45ae2203d24ad12cf8d61a31
     Pseudo is Norm-conserving + core correction, Zval =  6.0
     Generated using ONCVPSP code by D. R. Hamann
     Using radial grid of  926 points,  5 beta functions with:
                l(1) =   0
                l(2) =   0
                l(3) =   1
                l(4) =   1
                l(5) =   2

     atomic species   valence    mass     pseudopotential
        W             28.00   183.84000     W ( 1.00)
        O              6.00    15.99940     O ( 1.00)

      8 Sym. Ops. (no inversion) found ( 4 have fractional translation)

   Cartesian axes

     site n.     atom                  positions (alat units)
         1           W   tau(   1) = (   0.2616900   0.2968811   0.2503300  )
         2           W   tau(   2) = (  -0.2503300   0.7564118  -0.7383099  )
         3           W   tau(   3) = (   0.2383100   0.2297653   0.7503300  )
         4           W   tau(   4) = (   0.7503300   0.8235276   0.7616900  )
         5           W   tau(   5) = (   0.7383100   0.2968811   0.7496700  )
         6           W   tau(   6) = (   0.2503300   0.7564118   0.7383100  )
         7           W   tau(   7) = (  -0.2383099   0.2297653  -0.7503300  )
         8           W   tau(   8) = (   0.2496700   0.8235276   0.2383100  )
         9           O   tau(   9) = (   0.2628600   0.0087634   0.2593200  )
        10           O   tau(  10) = (  -0.2593200   1.0445296  -0.7371400  )
        11           O   tau(  11) = (   0.2371400   0.5178831   0.7593199  )
        12           O   tau(  12) = (   0.7593200   0.5354098   0.7628600  )
        13           O   tau(  13) = (   0.7371400   0.0087634   0.7406800  )
        14           O   tau(  14) = (   0.2593200   1.0445296   0.7371400  )
        15           O   tau(  15) = (  -0.2371400   0.5178831  -0.7593200  )
        16           O   tau(  16) = (   0.2406800   0.5354098   0.2371400  )
        17           O   tau(  17) = (   0.4958700   0.2779219   0.6995400  )
        18           O   tau(  18) = (   0.4991500   0.7805953   0.8004600  )
        19           O   tau(  19) = (  -0.9958699   0.2487246   1.1995400  )
        20           O   tau(  20) = (   0.0008500   0.7993439   0.3004600  )
        21           O   tau(  21) = (   0.5041300   0.2779219   0.3004600  )
        22           O   tau(  22) = (   0.5008500   0.7805953   1.1995400  )
        23           O   tau(  23) = (  -0.0041301   0.2487246   0.8004600  )
        24           O   tau(  24) = (  -1.0008499   0.7993439   0.6995400  )
        25           O   tau(  25) = (   0.6995400   0.2539489   2.0008500  )
        26           O   tau(  26) = (   0.3004600   0.7753709   0.4958700  )
        27           O   tau(  27) = (   0.8004600   0.2726975   0.5008500  )
        28           O   tau(  28) = (   0.1995400   0.8045683   1.9958700  )
        29           O   tau(  29) = (   0.3004600   0.2539489   0.9991501  )
        30           O   tau(  30) = (   0.6995400   0.7753709   0.5041300  )
        31           O   tau(  31) = (   0.1995400   0.2726975   0.4991500  )
        32           O   tau(  32) = (   0.8004600   0.8045683   1.0041301  )

     number of k points=    40  gaussian smearing, width (Ry)=  0.0007
                       cart. coord. in units 2pi/alat
        k(    1) = (   0.0000000   0.0000000   0.0000000), wk =   0.0092593
        k(    2) = (   0.0000000   0.0000000   0.1666667), wk =   0.0370370
        k(    3) = (   0.0000000   0.0000000   0.3333333), wk =   0.0370370
        k(    4) = (   0.0000000   0.0000000  -0.5000000), wk =   0.0185185
        k(    5) = (   0.0000000   0.1582339   0.0000000), wk =   0.0185185
        k(    6) = (   0.0000000   0.1582339   0.1666667), wk =   0.0740741
        k(    7) = (   0.0000000   0.1582339   0.3333333), wk =   0.0740741
        k(    8) = (   0.0000000   0.1582339  -0.5000000), wk =   0.0370370
        k(    9) = (   0.0000000   0.3164678   0.0000000), wk =   0.0185185
        k(   10) = (   0.0000000   0.3164678   0.1666667), wk =   0.0740741
        k(   11) = (   0.0000000   0.3164678   0.3333333), wk =   0.0740741
        k(   12) = (   0.0000000   0.3164678  -0.5000000), wk =   0.0370370
        k(   13) = (   0.0000000  -0.4747018   0.0000000), wk =   0.0092593
        k(   14) = (   0.0000000  -0.4747018   0.1666667), wk =   0.0370370
        k(   15) = (   0.0000000  -0.4747018   0.3333333), wk =   0.0370370
        k(   16) = (   0.0000000  -0.4747018  -0.5000000), wk =   0.0185185
        k(   17) = (   0.1666667   0.0000000   0.1666667), wk =   0.0370370
        k(   18) = (   0.1666667   0.0000000   0.3333333), wk =   0.0740741
        k(   19) = (   0.1666667   0.0000000  -0.5000000), wk =   0.0370370
        k(   20) = (   0.1666667   0.1582339   0.1666667), wk =   0.0740741
        k(   21) = (   0.1666667   0.1582339   0.3333333), wk =   0.1481481
        k(   22) = (   0.1666667   0.1582339  -0.5000000), wk =   0.0740741
        k(   23) = (   0.1666667   0.3164678   0.1666667), wk =   0.0740741
        k(   24) = (   0.1666667   0.3164678   0.3333333), wk =   0.1481481
        k(   25) = (   0.1666667   0.3164678  -0.5000000), wk =   0.0740741
        k(   26) = (   0.1666667  -0.4747018   0.1666667), wk =   0.0370370
        k(   27) = (   0.1666667  -0.4747018   0.3333333), wk =   0.0740741
        k(   28) = (   0.1666667  -0.4747018  -0.5000000), wk =   0.0370370
        k(   29) = (   0.3333333   0.0000000   0.3333333), wk =   0.0370370
        k(   30) = (   0.3333333   0.0000000  -0.5000000), wk =   0.0370370
        k(   31) = (   0.3333333   0.1582339   0.3333333), wk =   0.0740741
        k(   32) = (   0.3333333   0.1582339  -0.5000000), wk =   0.0740741
        k(   33) = (   0.3333333   0.3164678   0.3333333), wk =   0.0740741
        k(   34) = (   0.3333333   0.3164678  -0.5000000), wk =   0.0740741
        k(   35) = (   0.3333333  -0.4747018   0.3333333), wk =   0.0370370
        k(   36) = (   0.3333333  -0.4747018  -0.5000000), wk =   0.0370370
        k(   37) = (  -0.5000000   0.0000000  -0.5000000), wk =   0.0092593
        k(   38) = (  -0.5000000   0.1582339  -0.5000000), wk =   0.0185185
        k(   39) = (  -0.5000000   0.3164678  -0.5000000), wk =   0.0185185
        k(   40) = (  -0.5000000  -0.4747018  -0.5000000), wk =   0.0092593

     Initial potential from superposition of free atoms

     starting charge  367.99656, renormalised to  368.00000
     Starting wfc are  232 randomized atomic wfcs

     Self-consistent Calculation

     iteration #  1     ecut=   120.00 Ry     beta= 0.70
     Davidson diagonalization with overlap
     ethr =  1.00E-02,  avg # of iterations =  5.0

     total energy              =   -6253.99958140 Ry
     Harris-Foulkes estimate   =   -6264.57513671 Ry
     estimated scf accuracy    <      13.39243140 Ry

[...]

     total energy              =   -6261.11056331 Ry
     Harris-Foulkes estimate   =   -6261.11056332 Ry
     estimated scf accuracy    <       0.00000002 Ry

     iteration # 13     ecut=   120.00 Ry     beta= 0.70
     Davidson diagonalization with overlap
     ethr =  5.39E-12,  avg # of iterations =  3.0

     End of self-consistent calculation

          k = 0.0000 0.0000 0.0000 ( 62079 PWs)   bands (ev):

   -66.1132 -66.1127 -66.1122 -66.1121 -66.1117 -66.1117 -66.1111 -66.1107
   -30.5129 -30.5060 -30.5060 -30.4991 -30.4873 -30.4748 -30.4748 -30.4717
   -30.4473 -30.4457 -30.4438 -30.4438 -30.4411 -30.4356 -30.4356 -30.4343
   -30.3763 -30.3763 -30.3754 -30.3720 -30.3489 -30.3489 -30.3446 -30.3434
   -20.2730 -20.2729 -20.2728 -20.2728 -20.2726 -20.2726 -20.2725 -20.2724
   -20.2535 -20.2533 -20.2529 -20.2529 -20.2528 -20.2527 -20.2527 -20.2524
   -20.2522 -20.2522 -20.2522 -20.2516 -20.2494 -20.2486 -20.2486 -20.2482
   -20.2477 -20.2470 -20.2470 -20.2463 -20.2456 -20.2450 -20.2450 -20.2446
   -20.2408 -20.2405 -20.2402 -20.2402 -20.2382 -20.2379 -20.2378 -20.2378
   -20.2336 -20.2334 -20.2334 -20.2331 -20.2331 -20.2330 -20.2323 -20.2323
   -20.2320 -20.2318 -20.2315 -20.2315 -20.2284 -20.2284 -20.2281 -20.2277
    -9.9021  -9.6185  -9.4586  -9.4586  -9.1783  -9.1783  -9.0192  -8.9850
    -8.9740  -8.8207  -8.7913  -8.7913  -7.8311  -7.7660  -7.7444  -7.7403
    -7.7403  -7.7069  -7.6946  -7.6796  -7.6129  -7.6129  -7.5504  -7.5504
     1.2638   1.2674   1.3327   1.3327   1.3827   1.3827   1.4353   1.6841
     1.6899   1.6899   1.7051   1.9242   2.4314   2.5114   2.6070   2.6423
     2.7747   2.7747   4.1860   4.1860   4.4244   4.4277   4.8073   4.8589
     4.8589   4.8866   4.8909   4.8909   5.1031   5.1031   5.1857   5.4907
     5.4921   5.5511   5.5511   5.5994   5.5994   5.6908   5.6908   5.8723
     5.8723   5.9072   5.9156   5.9399   6.0132   6.0227   6.0417   6.1478
     6.1547   6.2996   6.3114   6.5984   6.5984   6.8604   6.8687   6.8687
     6.8943   6.8993   7.0244   7.0633   7.1078   7.1078   7.3543   7.3543
     7.4701   7.4701   7.8032   7.8187   8.1037   8.1037   8.1440   8.1956
     9.4123   9.4172  10.0787  10.0898  10.1170  10.1170  12.2803  12.2803
    12.3290  12.3290  12.4472  12.4472  12.5692  12.6350  12.7447  12.8501
    13.2362  13.3485  13.4124  13.4124  13.7666  14.0609  14.0609  14.1651
    14.3207  14.5397  14.5397  14.9740  15.4575  15.4669  15.5452  16.0663
    16.0663  16.8278  17.0677  17.0677  17.5690

[...]

          k = 0.3333-0.4747-0.5000 ( 61996 PWs)   bands (ev):

[...]

          k =-0.5000 0.0000-0.5000 ( 62180 PWs)   bands (ev):

[...]

          k =-0.5000-0.4747-0.5000 ( 62064 PWs)   bands (ev):

   -66.1120 -66.1120 -66.1120 -66.1120 -66.1119 -66.1119 -66.1119 -66.1119
   -30.4782 -30.4782 -30.4773 -30.4773 -30.4773 -30.4773 -30.4771 -30.4770
   -30.4227 -30.4227 -30.4227 -30.4227 -30.4227 -30.4226 -30.4217 -30.4217
   -30.3943 -30.3943 -30.3941 -30.3941 -30.3940 -30.3940 -30.3940 -30.3940
   -20.2727 -20.2727 -20.2727 -20.2727 -20.2727 -20.2727 -20.2727 -20.2727
   -20.2528 -20.2528 -20.2528 -20.2528 -20.2528 -20.2527 -20.2527 -20.2527
   -20.2503 -20.2502 -20.2502 -20.2502 -20.2502 -20.2502 -20.2501 -20.2501
   -20.2465 -20.2465 -20.2465 -20.2465 -20.2465 -20.2464 -20.2464 -20.2464
   -20.2373 -20.2373 -20.2372 -20.2372 -20.2372 -20.2372 -20.2372 -20.2371
   -20.2348 -20.2348 -20.2348 -20.2348 -20.2348 -20.2347 -20.2347 -20.2347
   -20.2303 -20.2303 -20.2303 -20.2302 -20.2302 -20.2302 -20.2302 -20.2302
    -8.9080  -8.9080  -8.8847  -8.8846  -8.8830  -8.8830  -8.8829  -8.8829
    -8.3908  -8.3908  -8.3598  -8.3598  -8.3598  -8.3598  -8.3553  -8.3553
    -8.2919  -8.2919  -8.2919  -8.2918  -8.2748  -8.2748  -8.2542  -8.2541
     2.9950   2.9950   2.9970   2.9971   2.9971   2.9971   3.0152   3.0152
     3.2207   3.2207   3.2260   3.2260   3.2261   3.2261   3.2526   3.2526
     3.3803   3.3803   3.5066   3.5066   3.5066   3.5066   3.5679   3.5680
     4.1765   4.1765   4.2004   4.2005   4.2056   4.2056   4.2056   4.2056
     4.4152   4.4153   4.4153   4.4153   4.4305   4.4306   4.4556   4.4556
     4.5289   4.5290   4.5465   4.5465   4.5570   4.5570   4.5570   4.5570
     7.1333   7.1333   7.2285   7.2285   7.2285   7.2285   7.3470   7.3470
     7.3965   7.3965   7.3965   7.3966   7.3990   7.3990   7.4016   7.4016
     7.6097   7.6097   7.6338   7.6338   7.6339   7.6339   7.6751   7.6751
    11.8774  11.8774  11.8774  11.8774  11.8779  11.8779  11.8877  11.8877
    12.2450  12.2450  12.3178  12.3178  12.3179  12.3179  12.4417  12.4418
    12.5486  12.5486  12.6097  12.6097  12.6097  12.6097  12.6355  12.6355
    17.1550  17.1550  17.1844  17.1845  17.1845  17.1845  17.2110  17.2110
    17.3973  17.3973  17.3973  17.3974  17.4518

     the Fermi energy is     8.9867 ev

!    total energy              =   -6261.11056331 Ry
     Harris-Foulkes estimate   =   -6261.11056331 Ry
     estimated scf accuracy    <          3.0E-10 Ry

     The total energy is the sum of the following terms:

     one-electron contribution =   -4705.50427277 Ry
     hartree contribution      =    2590.20183203 Ry
     xc contribution           =    -965.66601433 Ry
     ewald contribution        =   -3180.14210824 Ry
     smearing contrib. (-TS)   =      -0.00000000 Ry

     convergence has been achieved in  13 iterations

     Writing output data file chempot_0.save

     General routines

     Parallel routines

   This run was terminated on:  13:13: 1  28Aug2019

   JOB DONE.