     Program PWSCF v.6.2 (svn rev. 14038) starts on 19Mar2020 at  4: 0:30

     K-points division:     npool     =      40
     Reading input from scf.in

     Current dimensions of program PWSCF are:
     Max number of different atomic species (ntypx) = 10
     Max number of k-points (npk) =  40000
     Max angular momentum in pseudopotentials (lmaxx) =  3

     Subspace diagonalization in iterative solution of the eigenvalue problem:
     a serial algorithm will be used

     bravais-lattice index     =            0
     lattice parameter (alat)  =      13.8868  a.u.
     unit-cell volume          =    2816.5645 (a.u.)^3
     number of atoms/cell      =           32
     number of atomic types    =            2
     number of electrons       =       368.20
     number of Kohn-Sham states=          221
     kinetic-energy cutoff     =     120.0000  Ry
     charge density cutoff     =     480.0000  Ry
     convergence threshold     =      1.0E-08
     mixing beta               =       0.7000
     number of iterations used =            8  plain     mixing
     Exchange-correlation      = SLA PW NOGX NOGC ( 1  4  0  0 0 0)

     celldm(1)=  13.886801  celldm(2)=   0.000000  celldm(3)=   0.000000
     celldm(4)=   0.000000  celldm(5)=   0.000000  celldm(6)=   0.000000

     crystal axes: (cart. coord. in units of alat)
               a(1) = (   1.000000   0.000000   0.000000 )
               a(2) = (   0.000000   1.051569   0.000000 )
               a(3) = (   0.000000   0.000000   1.000173 )

     reciprocal axes: (cart. coord. in units 2 pi/alat)
               b(1) = (  1.000000  0.000000  0.000000 )
               b(2) = (  0.000000  0.950960  0.000000 )
               b(3) = (  0.000000  0.000000  0.999827 )

     PseudoPot. # 1 for W  read from file:
     /cluster/scratch/mnoe/QE/pps/W_ONCV_LDA-4.0.upf
     MD5 check sum: ba0307d5d4cd419d6f1d13dc49d7c13a
     Pseudo is Norm-conserving + core correction, Zval = 28.0
     Generated using ONCVPSP code by D. R. Hamann
     Using radial grid of 1380 points,  8 beta functions with:
                l(1) =   0
                l(2) =   0
                l(3) =   1
                l(4) =   1
                l(5) =   2
                l(6) =   2
                l(7) =   3
                l(8) =   3

     PseudoPot. # 2 for O  read from file:
     /cluster/scratch/mnoe/QE/pps/O_ONCV_LDA-3.0.upf
     MD5 check sum: a1bd6164e7280c17a38c229939bfbd54
     Pseudo is Norm-conserving + core correction, Zval =  6.0
     Generated using ONCVPSP code by D. R. Hamann
     Using radial grid of  926 points,  5 beta functions with:
                l(1) =   0
                l(2) =   0
                l(3) =   1
                l(4) =   1
                l(5) =   2

     atomic species   valence    mass     pseudopotential
        W             28.00   183.84000     W ( 1.00)
        O              6.00    15.99940     O ( 1.00)

      8 Sym. Ops., with inversion, found ( 6 have fractional translation)

   Cartesian axes

     site n.     atom                  positions (alat units)
         1           W   tau(   1) = (   0.2472300   0.2948330   0.0026205  )
         2           W   tau(   2) = (   0.7527700   0.7567364   0.9975525  )
         3           W   tau(   3) = (   0.2527700   0.2309517   0.5027069  )
         4           W   tau(   4) = (   0.7472300   0.8206178   0.4974660  )
         5           W   tau(   5) = (   0.7527700   0.2948330   0.4974660  )
         6           W   tau(   6) = (   0.2472300   0.7567364   0.5027069  )
         7           W   tau(   7) = (   0.7472300   0.2309517   0.9975525  )
         8           W   tau(   8) = (   0.2527700   0.8206178   0.0026205  )
         9           O   tau(   9) = (   0.2448800   0.0083234   0.0008201  )
        10           O   tau(  10) = (   0.7551200   1.0432460   0.9993529  )
        11           O   tau(  11) = (   0.2551200   0.5174613   0.5009066  )
        12           O   tau(  12) = (   0.7448800   0.5341081   0.4992663  )
        13           O   tau(  13) = (   0.7551200   0.0083234   0.4992663  )
        14           O   tau(  14) = (   0.2448800   1.0432460   0.5009066  )
        15           O   tau(  15) = (   0.7448800   0.5174613   0.9993529  )
        16           O   tau(  16) = (   0.2551200   0.5341081   0.0008201  )
        17           O   tau(  17) = (   0.5007600   0.2573716   0.4532512  )
        18           O   tau(  18) = (   0.4992400   0.7941978   0.5469217  )
        19           O   tau(  19) = (   0.9992399   0.2684131   0.9533378  )
        20           O   tau(  20) = (   0.0007601   0.7831564   0.0468352  )
        21           O   tau(  21) = (   0.4992400   0.2573716   0.0468352  )
        22           O   tau(  22) = (   0.5007600   0.7941978   0.9533378  )
        23           O   tau(  23) = (   0.0007601   0.2684131   0.5469217  )
        24           O   tau(  24) = (   0.9992399   0.7831564   0.4532512  )
        25           O   tau(  25) = (   0.7031729   0.2616831   0.7489795  )
        26           O   tau(  26) = (   0.2968271   0.7898864   0.2511934  )
        27           O   tau(  27) = (   0.7968271   0.2641017   0.2488930  )
        28           O   tau(  28) = (   0.2031729   0.7874678   0.7512799  )
        29           O   tau(  29) = (   0.2968271   0.2616831   0.7512799  )
        30           O   tau(  30) = (   0.7031729   0.7898864   0.2488930  )
        31           O   tau(  31) = (   0.2031729   0.2641017   0.2511934  )
        32           O   tau(  32) = (   0.7968271   0.7874678   0.7489795  )

     number of k points=    64  gaussian smearing, width (Ry)=  0.0007
                       cart. coord. in units 2pi/alat
        k(    1) = (   0.0000000   0.0000000   0.0000000), wk =   0.0092593
        k(    2) = (   0.0000000   0.0000000   0.1666378), wk =   0.0185185
        k(    3) = (   0.0000000   0.0000000   0.3332757), wk =   0.0185185
        k(    4) = (   0.0000000   0.0000000  -0.4999135), wk =   0.0092593
        k(    5) = (   0.0000000   0.1584933   0.0000000), wk =   0.0185185
        k(    6) = (   0.0000000   0.1584933   0.1666378), wk =   0.0370370
        k(    7) = (   0.0000000   0.1584933   0.3332757), wk =   0.0370370
        k(    8) = (   0.0000000   0.1584933  -0.4999135), wk =   0.0185185
        k(    9) = (   0.0000000   0.3169865   0.0000000), wk =   0.0185185
        k(   10) = (   0.0000000   0.3169865   0.1666378), wk =   0.0370370
        k(   11) = (   0.0000000   0.3169865   0.3332757), wk =   0.0370370
        k(   12) = (   0.0000000   0.3169865  -0.4999135), wk =   0.0185185
        k(   13) = (   0.0000000  -0.4754798   0.0000000), wk =   0.0092593
        k(   14) = (   0.0000000  -0.4754798   0.1666378), wk =   0.0185185
        k(   15) = (   0.0000000  -0.4754798   0.3332757), wk =   0.0185185
        k(   16) = (   0.0000000  -0.4754798  -0.4999135), wk =   0.0092593
        k(   17) = (   0.1666667   0.0000000   0.0000000), wk =   0.0185185
        k(   18) = (   0.1666667   0.0000000   0.1666378), wk =   0.0370370
        k(   19) = (   0.1666667   0.0000000   0.3332757), wk =   0.0370370
        k(   20) = (   0.1666667   0.0000000  -0.4999135), wk =   0.0185185
        k(   21) = (   0.1666667   0.1584933   0.0000000), wk =   0.0370370
        k(   22) = (   0.1666667   0.1584933   0.1666378), wk =   0.0740741
        k(   23) = (   0.1666667   0.1584933   0.3332757), wk =   0.0740741
        k(   24) = (   0.1666667   0.1584933  -0.4999135), wk =   0.0370370
        k(   25) = (   0.1666667   0.3169865   0.0000000), wk =   0.0370370
        k(   26) = (   0.1666667   0.3169865   0.1666378), wk =   0.0740741
        k(   27) = (   0.1666667   0.3169865   0.3332757), wk =   0.0740741
        k(   28) = (   0.1666667   0.3169865  -0.4999135), wk =   0.0370370
        k(   29) = (   0.1666667  -0.4754798   0.0000000), wk =   0.0185185
        k(   30) = (   0.1666667  -0.4754798   0.1666378), wk =   0.0370370
        k(   31) = (   0.1666667  -0.4754798   0.3332757), wk =   0.0370370
        k(   32) = (   0.1666667  -0.4754798  -0.4999135), wk =   0.0185185
        k(   33) = (   0.3333333   0.0000000   0.0000000), wk =   0.0185185
        k(   34) = (   0.3333333   0.0000000   0.1666378), wk =   0.0370370
        k(   35) = (   0.3333333   0.0000000   0.3332757), wk =   0.0370370
        k(   36) = (   0.3333333   0.0000000  -0.4999135), wk =   0.0185185
        k(   37) = (   0.3333333   0.1584933   0.0000000), wk =   0.0370370
        k(   38) = (   0.3333333   0.1584933   0.1666378), wk =   0.0740741
        k(   39) = (   0.3333333   0.1584933   0.3332757), wk =   0.0740741
        k(   40) = (   0.3333333   0.1584933  -0.4999135), wk =   0.0370370
        k(   41) = (   0.3333333   0.3169865   0.0000000), wk =   0.0370370
        k(   42) = (   0.3333333   0.3169865   0.1666378), wk =   0.0740741
        k(   43) = (   0.3333333   0.3169865   0.3332757), wk =   0.0740741
        k(   44) = (   0.3333333   0.3169865  -0.4999135), wk =   0.0370370
        k(   45) = (   0.3333333  -0.4754798   0.0000000), wk =   0.0185185
        k(   46) = (   0.3333333  -0.4754798   0.1666378), wk =   0.0370370
        k(   47) = (   0.3333333  -0.4754798   0.3332757), wk =   0.0370370
        k(   48) = (   0.3333333  -0.4754798  -0.4999135), wk =   0.0185185
        k(   49) = (  -0.5000000   0.0000000   0.0000000), wk =   0.0092593
        k(   50) = (  -0.5000000   0.0000000   0.1666378), wk =   0.0185185
        k(   51) = (  -0.5000000   0.0000000   0.3332757), wk =   0.0185185
        k(   52) = (  -0.5000000   0.0000000  -0.4999135), wk =   0.0092593
        k(   53) = (  -0.5000000   0.1584933   0.0000000), wk =   0.0185185
        k(   54) = (  -0.5000000   0.1584933   0.1666378), wk =   0.0370370
        k(   55) = (  -0.5000000   0.1584933   0.3332757), wk =   0.0370370
        k(   56) = (  -0.5000000   0.1584933  -0.4999135), wk =   0.0185185
        k(   57) = (  -0.5000000   0.3169865   0.0000000), wk =   0.0185185
        k(   58) = (  -0.5000000   0.3169865   0.1666378), wk =   0.0370370
        k(   59) = (  -0.5000000   0.3169865   0.3332757), wk =   0.0370370
        k(   60) = (  -0.5000000   0.3169865  -0.4999135), wk =   0.0185185
        k(   61) = (  -0.5000000  -0.4754798   0.0000000), wk =   0.0092593
        k(   62) = (  -0.5000000  -0.4754798   0.1666378), wk =   0.0185185
        k(   63) = (  -0.5000000  -0.4754798   0.3332757), wk =   0.0185185
        k(   64) = (  -0.5000000  -0.4754798  -0.4999135), wk =   0.0092593

     Initial potential from superposition of free atoms

     starting charge  367.99656, renormalised to  368.20000
     Starting wfc are  232 randomized atomic wfcs

     Self-consistent Calculation

     iteration #  1     ecut=   120.00 Ry     beta= 0.70
     Davidson diagonalization with overlap
     ethr =  1.00E-02,  avg # of iterations =  5.0

     total energy              =   -6253.79724583 Ry
     Harris-Foulkes estimate   =   -6264.49046126 Ry
     estimated scf accuracy    <      13.51619065 Ry

[...]

     iteration #  7     ecut=   120.00 Ry     beta= 0.70
     Davidson diagonalization with overlap
     c_bands:  1 eigenvalues not converged
     ethr =  1.82E-06,  avg # of iterations =  6.0

[...]

     total energy              =   -6260.97226483 Ry
     Harris-Foulkes estimate   =   -6260.97226487 Ry
     estimated scf accuracy    <       0.00000006 Ry

     iteration # 13     ecut=   120.00 Ry     beta= 0.70
     Davidson diagonalization with overlap
     ethr =  1.70E-11,  avg # of iterations =  2.8

     End of self-consistent calculation

          k = 0.0000 0.0000 0.0000 ( 62495 PWs)   bands (ev):

   -66.2027 -66.2022 -66.2017 -66.2017 -66.2013 -66.2013 -66.2007 -66.2003
   -30.6085 -30.6049 -30.6048 -30.6014 -30.5508 -30.5461 -30.5457 -30.5441
   -30.5441 -30.5412 -30.5411 -30.5389 -30.5377 -30.5372 -30.5360 -30.5335
   -30.4459 -30.4455 -30.4431 -30.4426 -30.4416 -30.4412 -30.4388 -30.4382
   -20.3603 -20.3603 -20.3602 -20.3602 -20.3602 -20.3601 -20.3601 -20.3601
   -20.3488 -20.3485 -20.3485 -20.3483 -20.3432 -20.3429 -20.3429 -20.3425
   -20.3398 -20.3396 -20.3394 -20.3391 -20.3389 -20.3389 -20.3385 -20.3384
   -20.3380 -20.3377 -20.3375 -20.3374 -20.3373 -20.3370 -20.3368 -20.3366
   -20.3307 -20.3305 -20.3302 -20.3301 -20.3297 -20.3296 -20.3293 -20.3292
   -20.3239 -20.3238 -20.3233 -20.3233 -20.3226 -20.3226 -20.3221 -20.3220
   -20.3166 -20.3164 -20.3164 -20.3162 -20.3154 -20.3153 -20.3152 -20.3151
    -9.9984  -9.7136  -9.5752  -9.5752  -9.3005  -9.2992  -9.1586  -9.0991
    -9.0856  -8.9532  -8.9273  -8.9271  -7.9087  -7.8499  -7.8488  -7.8172
    -7.8158  -7.7981  -7.7895  -7.7895  -7.6813  -7.6806  -7.6582  -7.6579
     1.1252   1.1259   1.2049   1.2064   1.2292   1.2321   1.2843   1.5308
     1.5410   1.5430   1.5571   1.7742   2.3667   2.4450   2.5191   2.5205
     2.6611   2.6634   4.1107   4.1143   4.3188   4.3249   4.7564   4.7604
     4.7634   4.7655   4.7922   4.7930   4.9434   4.9437   5.0247   5.4018
     5.4062   5.4303   5.4395   5.4860   5.4863   5.5207   5.5289   5.7808
     5.7858   5.7993   5.7998   5.8605   5.9106   6.0250   6.0266   6.0596
     6.0606   6.2230   6.2258   6.4853   6.4863   6.7626   6.7679   6.7999
     6.8031   6.8147   6.9709   6.9794   7.0347   7.0374   7.3100   7.3139
     7.3417   7.3453   7.8046   7.8186   8.0236   8.0297   8.0941   8.1002
     9.1805   9.1811   9.8639   9.8659   9.8890   9.8915  12.2186  12.2350
    12.2458  12.2693  12.2935  12.3011  12.4537  12.4574  12.8837  12.9115
    13.1404  13.1576  13.3014  13.3067  13.7595  14.0604  14.0929  14.1006
    14.1150  14.3015  14.3384  14.8247  15.3062  15.3176  15.4419  15.9818
    15.9858  16.7950  17.0115  17.0165  17.4227

[...]

          k = 0.3333-0.4755-0.4999 ( 62476 PWs)   bands (ev):

[...]

          k =-0.5000 0.0000 0.0000 ( 62524 PWs)   bands (ev):

[...]

          k =-0.5000-0.4755-0.4999 ( 62472 PWs)   bands (ev):

   -66.2015 -66.2015 -66.2015 -66.2015 -66.2015 -66.2015 -66.2015 -66.2015
   -30.5758 -30.5758 -30.5758 -30.5758 -30.5756 -30.5756 -30.5756 -30.5756
   -30.4928 -30.4928 -30.4928 -30.4927 -30.4916 -30.4916 -30.4916 -30.4916
   -30.4901 -30.4901 -30.4901 -30.4901 -30.4889 -30.4889 -30.4889 -30.4889
   -20.3602 -20.3602 -20.3602 -20.3602 -20.3602 -20.3602 -20.3602 -20.3602
   -20.3459 -20.3459 -20.3459 -20.3459 -20.3459 -20.3459 -20.3459 -20.3459
   -20.3385 -20.3385 -20.3385 -20.3385 -20.3383 -20.3383 -20.3383 -20.3383
   -20.3379 -20.3379 -20.3379 -20.3379 -20.3377 -20.3377 -20.3377 -20.3377
   -20.3300 -20.3300 -20.3300 -20.3300 -20.3300 -20.3300 -20.3300 -20.3300
   -20.3197 -20.3197 -20.3197 -20.3197 -20.3197 -20.3197 -20.3197 -20.3197
   -20.3193 -20.3193 -20.3192 -20.3192 -20.3192 -20.3192 -20.3192 -20.3192
    -8.9879  -8.9879  -8.9879  -8.9879  -8.9832  -8.9832  -8.9832  -8.9832
    -8.4719  -8.4719  -8.4719  -8.4719  -8.4654  -8.4654  -8.4653  -8.4653
    -8.4066  -8.4066  -8.4066  -8.4066  -8.4010  -8.4010  -8.4010  -8.4010
     2.9488   2.9488   2.9488   2.9488   2.9639   2.9639   2.9639   2.9639
     3.0818   3.0818   3.0818   3.0818   3.1031   3.1031   3.1031   3.1031
     3.3688   3.3688   3.3688   3.3688   3.4140   3.4140   3.4140   3.4140
     4.0953   4.0953   4.0953   4.0953   4.1039   4.1039   4.1039   4.1039
     4.2985   4.2985   4.2985   4.2985   4.3042   4.3042   4.3042   4.3042
     4.3881   4.3881   4.3881   4.3881   4.4020   4.4020   4.4020   4.4020
     7.1274   7.1275   7.1275   7.1275   7.1792   7.1792   7.1792   7.1792
     7.2808   7.2808   7.2808   7.2808   7.2859   7.2859   7.2859   7.2859
     7.5442   7.5442   7.5442   7.5442   7.5582   7.5582   7.5582   7.5582
    11.7676  11.7676  11.7676  11.7676  11.7716  11.7716  11.7716  11.7716
    12.1785  12.1785  12.1785  12.1785  12.2270  12.2270  12.2270  12.2270
    12.4351  12.4351  12.4351  12.4351  12.4566  12.4566  12.4566  12.4567
    17.1161  17.1161  17.1161  17.1161  17.1415  17.1415  17.1415  17.1415
    17.3507  17.3507  17.3508  17.3508  17.3610

     the Fermi energy is     9.5395 ev

!    total energy              =   -6260.97226485 Ry
     Harris-Foulkes estimate   =   -6260.97226485 Ry
     estimated scf accuracy    <          6.9E-10 Ry

     The total energy is the sum of the following terms:

     one-electron contribution =   -4739.38888229 Ry
     hartree contribution      =    2606.04649511 Ry
     xc contribution           =    -965.88918107 Ry
     ewald contribution        =   -3161.74066198 Ry
     smearing contrib. (-TS)   =      -0.00003463 Ry

     convergence has been achieved in  13 iterations

     Writing output data file Landau_3.save

     General routines

     Parallel routines

   This run was terminated on:   4:20:44  19Mar2020

   JOB DONE.