     Program PWSCF v.6.2 (svn rev. 14038) starts on 25Mar2020 at  4: 0:19

     K-points division:     npool     =      40
     Reading input from scf.in

     Current dimensions of program PWSCF are:
     Max number of different atomic species (ntypx) = 10
     Max number of k-points (npk) =  40000
     Max angular momentum in pseudopotentials (lmaxx) =  3

     Subspace diagonalization in iterative solution of the eigenvalue problem:
     a serial algorithm will be used

     bravais-lattice index     =            0
     lattice parameter (alat)  =      13.9374  a.u.
     unit-cell volume          =    2829.7153 (a.u.)^3
     number of atoms/cell      =           32
     number of atomic types    =            2
     number of electrons       =       368.20
     number of Kohn-Sham states=          221
     kinetic-energy cutoff     =     120.0000  Ry
     charge density cutoff     =     480.0000  Ry
     convergence threshold     =      1.0E-08
     mixing beta               =       0.7000
     number of iterations used =            8  plain     mixing
     Exchange-correlation      = SLA PW NOGX NOGC ( 1  4  0  0 0 0)

     celldm(1)=  13.937433  celldm(2)=   0.000000  celldm(3)=   0.000000
     celldm(4)=   0.000000  celldm(5)=   0.000000  celldm(6)=   0.000000

     crystal axes: (cart. coord. in units of alat)
               a(1) = (   1.000000   0.000000   0.000000 )
               a(2) = (   0.000000   1.045277   0.000000 )
               a(3) = (   0.000000   0.000000   0.999915 )

     reciprocal axes: (cart. coord. in units 2 pi/alat)
               b(1) = (  1.000000  0.000000  0.000000 )
               b(2) = (  0.000000  0.956684  0.000000 )
               b(3) = (  0.000000  0.000000  1.000085 )

     PseudoPot. # 1 for W  read from file:
     /cluster/scratch/mnoe/QE/pps/W_ONCV_LDA-4.0.upf
     MD5 check sum: ba0307d5d4cd419d6f1d13dc49d7c13a
     Pseudo is Norm-conserving + core correction, Zval = 28.0
     Generated using ONCVPSP code by D. R. Hamann
     Using radial grid of 1380 points,  8 beta functions with:
                l(1) =   0
                l(2) =   0
                l(3) =   1
                l(4) =   1
                l(5) =   2
                l(6) =   2
                l(7) =   3
                l(8) =   3

     PseudoPot. # 2 for O  read from file:
     /cluster/scratch/mnoe/QE/pps/O_ONCV_LDA-3.0.upf
     MD5 check sum: a1bd6164e7280c17a38c229939bfbd54
     Pseudo is Norm-conserving + core correction, Zval =  6.0
     Generated using ONCVPSP code by D. R. Hamann
     Using radial grid of  926 points,  5 beta functions with:
                l(1) =   0
                l(2) =   0
                l(3) =   1
                l(4) =   1
                l(5) =   2

     atomic species   valence    mass     pseudopotential
        W             28.00   183.84000     W ( 1.00)
        O              6.00    15.99940     O ( 1.00)

      4 Sym. Ops. (no inversion) found ( 3 have fractional translation)

   Cartesian axes

     site n.     atom                  positions (alat units)
         1           W   tau(   1) = (   0.2469827   0.2913814  -0.0013445  )
         2           W   tau(   2) = (   0.7488302   0.7538955  -0.0030890  )
         3           W   tau(   3) = (   0.2530173   0.2312571   0.4986129  )
         4           W   tau(   4) = (   0.7511698   0.8140198   0.4968684  )
         5           W   tau(   5) = (   0.7530173   0.2913814   0.5013020  )
         6           W   tau(   6) = (   0.2511698   0.7538955   0.5030464  )
         7           W   tau(   7) = (   0.7469827   0.2312571   0.0013445  )
         8           W   tau(   8) = (   0.2488302   0.8140198   0.0030890  )
         9           O   tau(   9) = (   0.2476451   0.0078139  -0.0038186  )
        10           O   tau(  10) = (   0.7510534  -0.0078139  -0.0043608  )
        11           O   tau(  11) = (   0.2523549   0.5148245   0.4961389  )
        12           O   tau(  12) = (   0.7489465   0.5304524   0.4955966  )
        13           O   tau(  13) = (   0.7523549   0.0078139   0.5037760  )
        14           O   tau(  14) = (   0.2489465  -0.0078139   0.5043182  )
        15           O   tau(  15) = (   0.7476451   0.5148245   0.0038185  )
        16           O   tau(  16) = (   0.2510535   0.5304524   0.0043608  )
        17           O   tau(  17) = (   0.5011718   0.2585350   0.4570812  )
        18           O   tau(  18) = (   0.5006665   0.7848279   0.5428336  )
        19           O   tau(  19) = (  -0.0011718   0.2641035   0.9570387  )
        20           O   tau(  20) = (  -0.0006665   0.7830874   0.0428762  )
        21           O   tau(  21) = (   0.4988282   0.2585350   0.0428762  )
        22           O   tau(  22) = (   0.4993335   0.7848279   0.9570387  )
        23           O   tau(  23) = (   0.0011718   0.2641035   0.5428336  )
        24           O   tau(  24) = (   0.0006665   0.7830874   0.4570812  )
        25           O   tau(  25) = (   0.7071202   0.2653059   0.7501595  )
        26           O   tau(  26) = (   0.2928798   0.7887418   0.2509680  )
        27           O   tau(  27) = (   0.7928799   0.2573325   0.2502021  )
        28           O   tau(  28) = (   0.2071202   0.7791735   0.7509254  )
        29           O   tau(  29) = (   0.2928798   0.2653059   0.7497127  )
        30           O   tau(  30) = (   0.7071202   0.7887418   0.2489894  )
        31           O   tau(  31) = (   0.2071202   0.2573325   0.2497553  )
        32           O   tau(  32) = (   0.7928799   0.7791735   0.7489468  )

     number of k points=    64  gaussian smearing, width (Ry)=  0.0007
                       cart. coord. in units 2pi/alat
        k(    1) = (   0.0000000   0.0000000   0.0000000), wk =   0.0092593
        k(    2) = (   0.0000000   0.0000000   0.1666809), wk =   0.0185185
        k(    3) = (   0.0000000   0.0000000   0.3333617), wk =   0.0185185
        k(    4) = (   0.0000000   0.0000000  -0.5000426), wk =   0.0092593
        k(    5) = (   0.0000000   0.1594474   0.0000000), wk =   0.0185185
        k(    6) = (   0.0000000   0.1594474   0.1666809), wk =   0.0370370
        k(    7) = (   0.0000000   0.1594474   0.3333617), wk =   0.0370370
        k(    8) = (   0.0000000   0.1594474  -0.5000426), wk =   0.0185185
        k(    9) = (   0.0000000   0.3188948   0.0000000), wk =   0.0185185
        k(   10) = (   0.0000000   0.3188948   0.1666809), wk =   0.0370370
        k(   11) = (   0.0000000   0.3188948   0.3333617), wk =   0.0370370
        k(   12) = (   0.0000000   0.3188948  -0.5000426), wk =   0.0185185
        k(   13) = (   0.0000000  -0.4783422   0.0000000), wk =   0.0092593
        k(   14) = (   0.0000000  -0.4783422   0.1666809), wk =   0.0185185
        k(   15) = (   0.0000000  -0.4783422   0.3333617), wk =   0.0185185
        k(   16) = (   0.0000000  -0.4783422  -0.5000426), wk =   0.0092593
        k(   17) = (   0.1666667   0.0000000   0.0000000), wk =   0.0185185
        k(   18) = (   0.1666667   0.0000000   0.1666809), wk =   0.0370370
        k(   19) = (   0.1666667   0.0000000   0.3333617), wk =   0.0370370
        k(   20) = (   0.1666667   0.0000000  -0.5000426), wk =   0.0185185
        k(   21) = (   0.1666667   0.1594474   0.0000000), wk =   0.0370370
        k(   22) = (   0.1666667   0.1594474   0.1666809), wk =   0.0740741
        k(   23) = (   0.1666667   0.1594474   0.3333617), wk =   0.0740741
        k(   24) = (   0.1666667   0.1594474  -0.5000426), wk =   0.0370370
        k(   25) = (   0.1666667   0.3188948   0.0000000), wk =   0.0370370
        k(   26) = (   0.1666667   0.3188948   0.1666809), wk =   0.0740741
        k(   27) = (   0.1666667   0.3188948   0.3333617), wk =   0.0740741
        k(   28) = (   0.1666667   0.3188948  -0.5000426), wk =   0.0370370
        k(   29) = (   0.1666667  -0.4783422   0.0000000), wk =   0.0185185
        k(   30) = (   0.1666667  -0.4783422   0.1666809), wk =   0.0370370
        k(   31) = (   0.1666667  -0.4783422   0.3333617), wk =   0.0370370
        k(   32) = (   0.1666667  -0.4783422  -0.5000426), wk =   0.0185185
        k(   33) = (   0.3333333   0.0000000   0.0000000), wk =   0.0185185
        k(   34) = (   0.3333333   0.0000000   0.1666809), wk =   0.0370370
        k(   35) = (   0.3333333   0.0000000   0.3333617), wk =   0.0370370
        k(   36) = (   0.3333333   0.0000000  -0.5000426), wk =   0.0185185
        k(   37) = (   0.3333333   0.1594474   0.0000000), wk =   0.0370370
        k(   38) = (   0.3333333   0.1594474   0.1666809), wk =   0.0740741
        k(   39) = (   0.3333333   0.1594474   0.3333617), wk =   0.0740741
        k(   40) = (   0.3333333   0.1594474  -0.5000426), wk =   0.0370370
        k(   41) = (   0.3333333   0.3188948   0.0000000), wk =   0.0370370
        k(   42) = (   0.3333333   0.3188948   0.1666809), wk =   0.0740741
        k(   43) = (   0.3333333   0.3188948   0.3333617), wk =   0.0740741
        k(   44) = (   0.3333333   0.3188948  -0.5000426), wk =   0.0370370
        k(   45) = (   0.3333333  -0.4783422   0.0000000), wk =   0.0185185
        k(   46) = (   0.3333333  -0.4783422   0.1666809), wk =   0.0370370
        k(   47) = (   0.3333333  -0.4783422   0.3333617), wk =   0.0370370
        k(   48) = (   0.3333333  -0.4783422  -0.5000426), wk =   0.0185185
        k(   49) = (  -0.5000000   0.0000000   0.0000000), wk =   0.0092593
        k(   50) = (  -0.5000000   0.0000000   0.1666809), wk =   0.0185185
        k(   51) = (  -0.5000000   0.0000000   0.3333617), wk =   0.0185185
        k(   52) = (  -0.5000000   0.0000000  -0.5000426), wk =   0.0092593
        k(   53) = (  -0.5000000   0.1594474   0.0000000), wk =   0.0185185
        k(   54) = (  -0.5000000   0.1594474   0.1666809), wk =   0.0370370
        k(   55) = (  -0.5000000   0.1594474   0.3333617), wk =   0.0370370
        k(   56) = (  -0.5000000   0.1594474  -0.5000426), wk =   0.0185185
        k(   57) = (  -0.5000000   0.3188948   0.0000000), wk =   0.0185185
        k(   58) = (  -0.5000000   0.3188948   0.1666809), wk =   0.0370370
        k(   59) = (  -0.5000000   0.3188948   0.3333617), wk =   0.0370370
        k(   60) = (  -0.5000000   0.3188948  -0.5000426), wk =   0.0185185
        k(   61) = (  -0.5000000  -0.4783422   0.0000000), wk =   0.0092593
        k(   62) = (  -0.5000000  -0.4783422   0.1666809), wk =   0.0185185
        k(   63) = (  -0.5000000  -0.4783422   0.3333617), wk =   0.0185185
        k(   64) = (  -0.5000000  -0.4783422  -0.5000426), wk =   0.0092593

     Initial potential from superposition of free atoms

     starting charge  367.99656, renormalised to  368.20000
     Starting wfc are  232 randomized atomic wfcs

     Self-consistent Calculation

     iteration #  1     ecut=   120.00 Ry     beta= 0.70
     Davidson diagonalization with overlap
     ethr =  1.00E-02,  avg # of iterations =  5.1

     total energy              =   -6253.78516495 Ry
     Harris-Foulkes estimate   =   -6264.50182783 Ry
     estimated scf accuracy    <      13.54531048 Ry

[...]

     total energy              =   -6260.97219074 Ry
     Harris-Foulkes estimate   =   -6260.97219080 Ry
     estimated scf accuracy    <       0.00000049 Ry

     iteration # 14     ecut=   120.00 Ry     beta= 0.70
     Davidson diagonalization with overlap
     ethr =  1.33E-10,  avg # of iterations =  1.0

     End of self-consistent calculation

          k = 0.0000 0.0000 0.0000 ( 62887 PWs)   bands (ev):

   -66.2883 -66.2878 -66.2873 -66.2873 -66.2869 -66.2869 -66.2864 -66.2860
   -30.6881 -30.6845 -30.6844 -30.6809 -30.6307 -30.6282 -30.6261 -30.6253
   -30.6251 -30.6240 -30.6219 -30.6201 -30.6197 -30.6187 -30.6185 -30.6165
   -30.5316 -30.5314 -30.5283 -30.5281 -30.5276 -30.5269 -30.5242 -30.5236
   -20.4479 -20.4478 -20.4478 -20.4478 -20.4478 -20.4477 -20.4477 -20.4477
   -20.4352 -20.4349 -20.4349 -20.4345 -20.4294 -20.4291 -20.4290 -20.4286
   -20.4268 -20.4267 -20.4265 -20.4264 -20.4259 -20.4259 -20.4256 -20.4254
   -20.4250 -20.4248 -20.4245 -20.4245 -20.4242 -20.4240 -20.4237 -20.4235
   -20.4185 -20.4184 -20.4179 -20.4178 -20.4177 -20.4175 -20.4171 -20.4170
   -20.4110 -20.4109 -20.4107 -20.4107 -20.4097 -20.4096 -20.4094 -20.4094
   -20.4039 -20.4038 -20.4037 -20.4036 -20.4027 -20.4026 -20.4026 -20.4024
   -10.0649  -9.7761  -9.6591  -9.6590  -9.3813  -9.3807  -9.2543  -9.1706
    -9.1557  -9.0444  -9.0207  -9.0206  -7.9698  -7.9128  -7.9122  -7.8747
    -7.8738  -7.8625  -7.8460  -7.8445  -7.7568  -7.7565  -7.7317  -7.7316
     1.0281   1.0300   1.1085   1.1093   1.1403   1.1418   1.1771   1.4104
     1.4374   1.4384   1.4463   1.6687   2.3227   2.4050   2.4474   2.4494
     2.5830   2.5843   4.0751   4.0771   4.2672   4.2704   4.6560   4.6573
     4.6726   4.6795   4.6916   4.6918   4.8332   4.8334   4.9603   5.3331
     5.3370   5.3587   5.3608   5.4266   5.4271   5.4481   5.4513   5.7030
     5.7036   5.7419   5.7445   5.7724   5.8484   5.9880   5.9885   5.9977
     5.9988   6.1906   6.1922   6.3840   6.3843   6.7144   6.7170   6.7354
     6.7570   6.7587   6.9125   6.9289   6.9733   6.9748   7.2150   7.2168
     7.2361   7.2378   7.8115   7.8247   7.9690   7.9723   8.0381   8.0424
     9.0634   9.0708   9.7035   9.7050   9.7157   9.7170  12.1826  12.1904
    12.2027  12.2137  12.2543  12.2571  12.3819  12.3858  12.8938  12.9354
    13.0233  13.0591  13.1740  13.1768  13.7323  13.9917  14.0097  14.0148
    14.0304  14.2299  14.2511  14.7391  15.1524  15.1628  15.3958  15.8857
    15.8880  16.7600  16.9562  16.9588  17.2005

[...]

          k = 0.3333-0.4783-0.5000 ( 62780 PWs)   bands (ev):

[...]

          k =-0.5000 0.0000 0.0000 ( 62864 PWs)   bands (ev):

[...]

          k =-0.5000-0.4783-0.5000 ( 62712 PWs)   bands (ev):

   -66.2871 -66.2871 -66.2871 -66.2871 -66.2871 -66.2871 -66.2871 -66.2871
   -30.6543 -30.6543 -30.6543 -30.6543 -30.6542 -30.6542 -30.6541 -30.6541
   -30.5771 -30.5771 -30.5770 -30.5770 -30.5766 -30.5766 -30.5765 -30.5765
   -30.5743 -30.5743 -30.5743 -30.5743 -30.5738 -30.5738 -30.5737 -30.5737
   -20.4478 -20.4478 -20.4478 -20.4478 -20.4478 -20.4478 -20.4478 -20.4478
   -20.4322 -20.4321 -20.4321 -20.4321 -20.4321 -20.4321 -20.4321 -20.4321
   -20.4255 -20.4255 -20.4255 -20.4255 -20.4254 -20.4254 -20.4254 -20.4254
   -20.4249 -20.4249 -20.4248 -20.4248 -20.4248 -20.4248 -20.4248 -20.4248
   -20.4178 -20.4178 -20.4178 -20.4178 -20.4178 -20.4178 -20.4178 -20.4178
   -20.4070 -20.4070 -20.4070 -20.4070 -20.4069 -20.4069 -20.4069 -20.4069
   -20.4066 -20.4066 -20.4066 -20.4066 -20.4066 -20.4066 -20.4066 -20.4066
    -9.0579  -9.0579  -9.0559  -9.0559  -9.0539  -9.0538  -9.0529  -9.0529
    -8.5455  -8.5455  -8.5421  -8.5420  -8.5392  -8.5392  -8.5383  -8.5383
    -8.4889  -8.4889  -8.4886  -8.4886  -8.4863  -8.4863  -8.4829  -8.4829
     2.8916   2.8916   2.8931   2.8932   2.9016   2.9017   2.9045   2.9045
     3.0052   3.0053   3.0097   3.0097   3.0217   3.0217   3.0273   3.0273
     3.2901   3.2901   3.3073   3.3073   3.3287   3.3287   3.3421   3.3421
     4.0208   4.0209   4.0249   4.0249   4.0295   4.0295   4.0318   4.0318
     4.2033   4.2033   4.2053   4.2053   4.2063   4.2063   4.2091   4.2091
     4.2944   4.2945   4.3006   4.3006   4.3079   4.3079   4.3104   4.3104
     7.0634   7.0634   7.0786   7.0786   7.1011   7.1011   7.1189   7.1189
     7.2149   7.2149   7.2157   7.2157   7.2172   7.2172   7.2179   7.2179
     7.4739   7.4739   7.4777   7.4777   7.4841   7.4841   7.4890   7.4890
    11.6990  11.6990  11.6996  11.6996  11.7017  11.7017  11.7032  11.7032
    12.0678  12.0678  12.0822  12.0822  12.1042  12.1042  12.1213  12.1213
    12.3106  12.3106  12.3190  12.3190  12.3292  12.3292  12.3353  12.3353
    17.0590  17.0590  17.0675  17.0675  17.0801  17.0801  17.0890  17.0891
    17.3267  17.3278  17.3278  17.3296  17.3329

     the Fermi energy is     9.4324 ev

!    total energy              =   -6260.97219077 Ry
     Harris-Foulkes estimate   =   -6260.97219077 Ry
     estimated scf accuracy    <          5.8E-09 Ry

     The total energy is the sum of the following terms:

     one-electron contribution =   -4759.28292453 Ry
     hartree contribution      =    2614.91754291 Ry
     xc contribution           =    -965.88908487 Ry
     ewald contribution        =   -3150.71767818 Ry
     smearing contrib. (-TS)   =      -0.00004609 Ry

     convergence has been achieved in  14 iterations

     Writing output data file Landau_4.save

     General routines

     Parallel routines

   This run was terminated on:   4:36:33  25Mar2020

   JOB DONE.