     Program PWSCF v.6.2 (svn rev. 14038) starts on  4Mar2020 at 21:57:36

     K-points division:     npool     =      64
     Reading input from rscf.in

     Current dimensions of program PWSCF are:
     Max number of different atomic species (ntypx) = 10
     Max number of k-points (npk) =  40000
     Max angular momentum in pseudopotentials (lmaxx) =  3

     Subspace diagonalization in iterative solution of the eigenvalue problem:
     a serial algorithm will be used

     Found symmetry operation: I + (  0.5000  0.0000 -0.5000)
     This is a supercell, fractional translations are disabled

     bravais-lattice index     =            0
     lattice parameter (alat)  =      13.8397  a.u.
     unit-cell volume          =    2804.9816 (a.u.)^3
     number of atoms/cell      =           32
     number of atomic types    =            2
     number of electrons       =       368.00
     number of Kohn-Sham states=          221
     kinetic-energy cutoff     =     120.0000  Ry
     charge density cutoff     =     480.0000  Ry
     convergence threshold     =      1.0E-08
     mixing beta               =       0.7000
     number of iterations used =            8  plain     mixing
     Exchange-correlation      = SLA PW NOGX NOGC ( 1  4  0  0 0 0)
     nstep                     =           50

     celldm(1)=  13.839685  celldm(2)=   0.000000  celldm(3)=   0.000000
     celldm(4)=   0.000000  celldm(5)=   0.000000  celldm(6)=   0.000000

     crystal axes: (cart. coord. in units of alat)
               a(1) = (   1.000000   0.000000   0.000000 )
               a(2) = (   0.000000   1.058160   0.000000 )
               a(3) = (   0.000000   0.000000   1.000000 )

     reciprocal axes: (cart. coord. in units 2 pi/alat)
               b(1) = (  1.000000  0.000000  0.000000 )
               b(2) = (  0.000000  0.945037  0.000000 )
               b(3) = (  0.000000  0.000000  1.000000 )

     PseudoPot. # 1 for W  read from file:
     /cluster/scratch/mnoe/QE/pps/W_ONCV_LDA-4.0.upf
     MD5 check sum: ba0307d5d4cd419d6f1d13dc49d7c13a
     Pseudo is Norm-conserving + core correction, Zval = 28.0
     Generated using ONCVPSP code by D. R. Hamann
     Using radial grid of 1380 points,  8 beta functions with:
                l(1) =   0
                l(2) =   0
                l(3) =   1
                l(4) =   1
                l(5) =   2
                l(6) =   2
                l(7) =   3
                l(8) =   3

     PseudoPot. # 2 for O  read from file:
     /cluster/scratch/mnoe/QE/pps/O_ONCV_LDA-3.0.upf
     MD5 check sum: a1bd6164e7280c17a38c229939bfbd54
     Pseudo is Norm-conserving + core correction, Zval =  6.0
     Generated using ONCVPSP code by D. R. Hamann
     Using radial grid of  926 points,  5 beta functions with:
                l(1) =   0
                l(2) =   0
                l(3) =   1
                l(4) =   1
                l(5) =   2

     atomic species   valence    mass     pseudopotential
        W             28.00   183.84000     W ( 1.00)
        O              6.00    15.99940     O ( 1.00)

      2 Sym. Ops., with inversion, found

   Cartesian axes

     site n.     atom                  positions (alat units)
         1           W   tau(   1) = (   0.2500000   0.2957262   0.0000000  )
         2           W   tau(   2) = (   0.7500000   0.7624339   0.0000000  )
         3           W   tau(   3) = (   0.2500000   0.2333538   0.5000000  )
         4           W   tau(   4) = (   0.7500000   0.8248063   0.5000000  )
         5           W   tau(   5) = (   0.7500000   0.2957262   0.5000000  )
         6           W   tau(   6) = (   0.2500000   0.7624339   0.5000000  )
         7           W   tau(   7) = (   0.7500000   0.2333538   0.0000000  )
         8           W   tau(   8) = (   0.2500000   0.8248063   0.0000000  )
         9           O   tau(   9) = (   0.2500000   0.0081155   0.0000000  )
        10           O   tau(  10) = (   0.7500000   1.0500446   0.0000000  )
        11           O   tau(  11) = (   0.2500000   0.5209645   0.5000000  )
        12           O   tau(  12) = (   0.7500000   0.5371956   0.5000000  )
        13           O   tau(  13) = (   0.7500000   0.0081155   0.5000000  )
        14           O   tau(  14) = (   0.2500000   1.0500446   0.5000000  )
        15           O   tau(  15) = (   0.7500000   0.5209645   0.0000000  )
        16           O   tau(  16) = (   0.2500000   0.5371956   0.0000000  )
        17           O   tau(  17) = (   0.5000000   0.2645400   0.4553789  )
        18           O   tau(  18) = (   0.5000000   0.7936201   0.5446211  )
        19           O   tau(  19) = (   0.0000000   0.2645400   0.9553789  )
        20           O   tau(  20) = (   0.0000000   0.7936201   0.0446211  )
        21           O   tau(  21) = (   0.5000000   0.2645400   0.0446211  )
        22           O   tau(  22) = (   0.5000000   0.7936201   0.9553789  )
        23           O   tau(  23) = (   0.0000000   0.2645400   0.5446211  )
        24           O   tau(  24) = (   0.0000000   0.7936201   0.4553789  )
        25           O   tau(  25) = (   0.7053789   0.2645400   0.7500000  )
        26           O   tau(  26) = (   0.2946211   0.7936201   0.2500000  )
        27           O   tau(  27) = (   0.7946211   0.2645400   0.2500000  )
        28           O   tau(  28) = (   0.2053789   0.7936201   0.7500000  )
        29           O   tau(  29) = (   0.2946211   0.2645400   0.7500000  )
        30           O   tau(  30) = (   0.7053789   0.7936201   0.2500000  )
        31           O   tau(  31) = (   0.2053789   0.2645400   0.2500000  )
        32           O   tau(  32) = (   0.7946211   0.7936201   0.7500000  )

     number of k points=   112  gaussian smearing, width (Ry)=  0.0007

     Number of k-points >= 100: set verbosity='high' to print them.

     Initial potential from superposition of free atoms

     starting charge  367.99656, renormalised to  368.00000
     Starting wfc are  232 randomized atomic wfcs

     Self-consistent Calculation

     iteration #  1     ecut=   120.00 Ry     beta= 0.70
     Davidson diagonalization with overlap
     ethr =  1.00E-02,  avg # of iterations =  5.1

     total energy              =   -6254.02022995 Ry
     Harris-Foulkes estimate   =   -6264.58823033 Ry
     estimated scf accuracy    <      13.39150580 Ry

[...]

     End of self-consistent calculation

     Number of k-points >= 100: set verbosity='high' to print the bands.

     the Fermi energy is     8.9941 ev

!    total energy              =   -6261.10325645 Ry
     Harris-Foulkes estimate   =   -6261.10325645 Ry
     estimated scf accuracy    <          5.8E-09 Ry

     The total energy is the sum of the following terms:

     one-electron contribution =   -4741.87224169 Ry
     hartree contribution      =    2607.66044641 Ry
     xc contribution           =    -965.88782547 Ry
     ewald contribution        =   -3161.00363569 Ry
     smearing contrib. (-TS)   =      -0.00000000 Ry

     convergence has been achieved in  14 iterations

     Forces acting on atoms (cartesian axes, Ry/au):

     atom    1 type  1   force =    -0.00000309    0.02031056    0.00000051
     atom    2 type  1   force =     0.00000309   -0.02031056   -0.00000051
     atom    3 type  1   force =     0.00000210   -0.02029695   -0.00000003
     atom    4 type  1   force =    -0.00000210    0.02029695    0.00000003
     atom    5 type  1   force =     0.00000305    0.02031113    0.00000603
     atom    6 type  1   force =    -0.00000305   -0.02031113   -0.00000603
     atom    7 type  1   force =    -0.00000140   -0.02030096   -0.00000631
     atom    8 type  1   force =     0.00000140    0.02030096    0.00000631
     atom    9 type  2   force =    -0.00000029   -0.01016637    0.00000061
     atom   10 type  2   force =     0.00000029    0.01016637   -0.00000061
     atom   11 type  2   force =    -0.00000077    0.01017180   -0.00000079
     atom   12 type  2   force =     0.00000077   -0.01017180    0.00000079
     atom   13 type  2   force =     0.00000020   -0.01016921    0.00000039
     atom   14 type  2   force =    -0.00000020    0.01016921   -0.00000039
     atom   15 type  2   force =     0.00000039    0.01016723   -0.00000062
     atom   16 type  2   force =    -0.00000039   -0.01016723    0.00000062
     atom   17 type  2   force =     0.00000061   -0.00000004   -0.00527296
     atom   18 type  2   force =    -0.00000061    0.00000004    0.00527296
     atom   19 type  2   force =    -0.00000273   -0.00000167   -0.00527364
     atom   20 type  2   force =     0.00000273    0.00000167    0.00527364
     atom   21 type  2   force =     0.00000193   -0.00000095    0.00527296
     atom   22 type  2   force =    -0.00000193    0.00000095   -0.00527296
     atom   23 type  2   force =    -0.00000075   -0.00000020    0.00527367
     atom   24 type  2   force =     0.00000075    0.00000020   -0.00527367
     atom   25 type  2   force =    -0.00527284   -0.00000057    0.00000241
     atom   26 type  2   force =     0.00527284    0.00000057   -0.00000241
     atom   27 type  2   force =     0.00527275   -0.00000059   -0.00000160
     atom   28 type  2   force =    -0.00527275    0.00000059    0.00000160
     atom   29 type  2   force =     0.00527316   -0.00000006    0.00000022
     atom   30 type  2   force =    -0.00527316    0.00000006   -0.00000022
     atom   31 type  2   force =    -0.00527435   -0.00000031   -0.00000036
     atom   32 type  2   force =     0.00527435    0.00000031    0.00000036

     Total force =     0.000000     Total SCF correction =     0.000000

     Computing stress (Cartesian axis) and pressure

          total   stress  (Ry/bohr**3)                   (kbar)     P=   19.39
   0.00026212   0.00000000   0.00000000         38.56      0.00      0.00
   0.00000000  -0.00012888   0.00000001          0.00    -18.96      0.00
   0.00000000   0.00000001   0.00026218          0.00      0.00     38.57

     BFGS Geometry Optimization

     number of scf cycles    =   1
     number of bfgs steps    =   0

     enthalpy new            =   -6261.1032564490 Ry

     new trust radius        =       0.0694288159 bohr
     new conv_thr            =       0.0000000100 Ry

     new unit-cell volume =   2832.71230 a.u.^3 (   419.76465 Ang^3 )
     density =      7.33699 g/cm^3

CELL_PARAMETERS (angstrom)
   7.371637467   0.000000197   0.000000102
   0.000000208   7.724621629   0.000001534
   0.000000102   0.000001450   7.371649480

ATOMIC_POSITIONS (crystal)
W        0.250000000   0.279472110   0.000000000    0   0   0
W        0.749999987   0.720527890   0.000000000    0   0   0
W        0.250000000   0.220527906   0.500000000    0   0   0
W        0.749999987   0.779472103   0.500000000    0   0   0
W        0.749999987   0.279472110   0.500000000    0   0   0
W        0.250000000   0.720527890   0.500000000    0   0   0
W        0.749999987   0.220527906   0.000000000    0   0   0
W        0.250000000   0.779472103   0.000000000    0   0   0
O        0.250000000   0.007669467   0.000000000    0   0   0
O        0.749999987   0.992330539   0.000000000    0   0   0
O        0.250000000   0.492330533   0.500000000    0   0   0
O        0.749999987   0.507669461   0.500000000    0   0   0
O        0.749999987   0.007669467   0.500000000    0   0   0
O        0.250000000   0.992330539   0.500000000    0   0   0
O        0.749999987   0.492330533   0.000000000    0   0   0
O        0.250000000   0.507669461   0.000000000    0   0   0
O        0.500000000   0.250000000   0.455378873    0   0   0
O        0.500000000   0.749999997   0.544621120    0   0   0
O        0.000000000   0.250000000   0.955378906    0   0   0
O        0.000000000   0.749999997   0.044621121    0   0   0
O        0.500000000   0.250000000   0.044621121    0   0   0
O        0.500000000   0.749999997   0.955378906    0   0   0
O        0.000000000   0.250000000   0.544621120    0   0   0
O       -0.000000000   0.749999997   0.455378873    0   0   0
O        0.705378892   0.250000000   0.749999987    0   0   0
O        0.294621114   0.749999997   0.250000000    0   0   0
O        0.794621133   0.250000000   0.250000000    0   0   0
O        0.205378889   0.749999997   0.749999987    0   0   0
O        0.294621114   0.250000000   0.749999987    0   0   0
O        0.705378892   0.749999997   0.250000000    0   0   0
O        0.205378889   0.250000000   0.250000000    0   0   0
O        0.794621133   0.749999997   0.749999987    0   0   0

     Writing output data file Landau_6.save
     NEW-OLD atomic charge density approx. for the potential
     extrapolated charge  371.60248, renormalised to  368.00000

[...]

     enthalpy old            =   -6261.1032564490 Ry
     enthalpy new            =   -6261.1077184840 Ry

     CASE: enthalpy_new < enthalpy_old

[...]

     number of scf cycles    =   4
     number of bfgs steps    =   3

     enthalpy old            =   -6261.1079208193 Ry
     enthalpy new            =   -6261.1079247556 Ry

     CASE: enthalpy_new < enthalpy_old

     new trust radius        =       0.0002298305 bohr
     new conv_thr            =            1.0E-10 Ry

     new unit-cell volume =   2824.85348 a.u.^3 (   418.60009 Ang^3 )
     density =      7.35741 g/cm^3

[...]

ATOMIC_POSITIONS (crystal)
W        0.250000000   0.279472110   0.000000000    0   0   0
W        0.749999987   0.720527890   0.000000000    0   0   0
W        0.250000000   0.220527906   0.500000000    0   0   0
W        0.749999987   0.779472103   0.500000000    0   0   0
W        0.749999987   0.279472110   0.500000000    0   0   0
W        0.250000000   0.720527890   0.500000000    0   0   0
W        0.749999987   0.220527906   0.000000000    0   0   0
W        0.250000000   0.779472103  -0.000000000    0   0   0
O        0.250000000   0.007669467   0.000000000    0   0   0
O        0.749999987   0.992330539   0.000000000    0   0   0
O        0.250000000   0.492330533   0.500000000    0   0   0
O        0.749999987   0.507669461   0.500000000    0   0   0
O        0.749999987   0.007669467   0.500000000    0   0   0
O        0.250000000   0.992330539   0.500000000    0   0   0
O        0.749999987   0.492330533   0.000000000    0   0   0
O        0.250000000   0.507669461   0.000000000    0   0   0
O        0.500000000   0.250000000   0.455378873    0   0   0
O        0.500000000   0.749999997   0.544621120    0   0   0
O       -0.000000000   0.250000000   0.955378906    0   0   0
O       -0.000000000   0.749999997   0.044621121    0   0   0
O        0.500000000   0.250000000   0.044621121    0   0   0
O        0.500000000   0.749999997   0.955378906    0   0   0
O        0.000000000   0.250000000   0.544621120    0   0   0
O       -0.000000000   0.749999997   0.455378873    0   0   0
O        0.705378892   0.250000000   0.749999987    0   0   0
O        0.294621114   0.749999997   0.250000000    0   0   0
O        0.794621133   0.250000000   0.250000000    0   0   0
O        0.205378889   0.749999997   0.749999987    0   0   0
O        0.294621114   0.250000000   0.749999987    0   0   0
O        0.705378892   0.749999997   0.250000000    0   0   0
O        0.205378889   0.250000000   0.250000000    0   0   0
O        0.794621133   0.749999997   0.749999987    0   0   0

     Writing output data file Landau_6.save
     NEW-OLD atomic charge density approx. for the potential
     extrapolated charge  368.00026, renormalised to  368.00000

[...]

     Threshold (ethr) on eigenvalues was too large:
     Diagonalizing with lowered threshold

     Davidson diagonalization with overlap
     ethr =  3.52E-12,  avg # of iterations =  4.0

[...]

     bfgs converged in   5 scf cycles and   4 bfgs steps
     (criteria: energy <  1.0E-07 Ry, force <  1.0E-07Ry/Bohr, cell <  5.0E-01kbar)

     End of BFGS Geometry Optimization

     Final enthalpy =   -6261.1079247969 Ry
Begin final coordinates
     new unit-cell volume =   2824.85348 a.u.^3 (   418.60009 Ang^3 )
     density =      7.35741 g/cm^3

CELL_PARAMETERS (angstrom)
   7.363583512   0.000000798   0.000000011
   0.000000852   7.720064227   0.000000587
   0.000000011   0.000000563   7.363583056

ATOMIC_POSITIONS (crystal)
W        0.250000000   0.279472110   0.000000000    0   0   0
W        0.749999987   0.720527890   0.000000000    0   0   0
W        0.250000000   0.220527906   0.500000000    0   0   0
W        0.749999987   0.779472103   0.500000000    0   0   0
W        0.749999987   0.279472110   0.500000000    0   0   0
W        0.250000000   0.720527890   0.500000000    0   0   0
W        0.749999987   0.220527906   0.000000000    0   0   0
W        0.250000000   0.779472103  -0.000000000    0   0   0
O        0.250000000   0.007669467   0.000000000    0   0   0
O        0.749999987   0.992330539   0.000000000    0   0   0
O        0.250000000   0.492330533   0.500000000    0   0   0
O        0.749999987   0.507669461   0.500000000    0   0   0
O        0.749999987   0.007669467   0.500000000    0   0   0
O        0.250000000   0.992330539   0.500000000    0   0   0
O        0.749999987   0.492330533   0.000000000    0   0   0
O        0.250000000   0.507669461   0.000000000    0   0   0
O        0.500000000   0.250000000   0.455378873    0   0   0
O        0.500000000   0.749999997   0.544621120    0   0   0
O       -0.000000000   0.250000000   0.955378906    0   0   0
O       -0.000000000   0.749999997   0.044621121    0   0   0
O        0.500000000   0.250000000   0.044621121    0   0   0
O        0.500000000   0.749999997   0.955378906    0   0   0
O        0.000000000   0.250000000   0.544621120    0   0   0
O        0.000000000   0.749999997   0.455378873    0   0   0
O        0.705378892   0.250000000   0.749999987    0   0   0
O        0.294621114   0.749999997   0.250000000    0   0   0
O        0.794621133   0.250000000   0.250000000    0   0   0
O        0.205378889   0.749999997   0.749999987    0   0   0
O        0.294621114   0.250000000   0.749999987    0   0   0
O        0.705378892   0.749999997   0.250000000    0   0   0
O        0.205378889   0.250000000   0.250000000    0   0   0
O        0.794621133   0.749999997   0.749999987    0   0   0
End final coordinates

     A final scf calculation at the relaxed structure.
     The G-vectors are recalculated for the final unit cell
     Results may differ from those at the preceding step.

     bravais-lattice index     =            0
     lattice parameter (alat)  =      13.8397  a.u.
     unit-cell volume          =    2824.8535 (a.u.)^3
     number of atoms/cell      =           32
     number of atomic types    =            2
     number of electrons       =       368.00
     number of Kohn-Sham states=          221
     kinetic-energy cutoff     =     120.0000  Ry
     charge density cutoff     =     480.0000  Ry
     convergence threshold     =      1.0E-10
     mixing beta               =       0.7000
     number of iterations used =            8  plain     mixing
     Exchange-correlation      = SLA PW NOGX NOGC ( 1  4  0  0 0 0)

     celldm(1)=  13.839685  celldm(2)=   0.000000  celldm(3)=   0.000000
     celldm(4)=   0.000000  celldm(5)=   0.000000  celldm(6)=   0.000000

     crystal axes: (cart. coord. in units of alat)
               a(1) = (   1.005453   0.000000   0.000000 )
               a(2) = (   0.000000   1.054129   0.000000 )
               a(3) = (   0.000000   0.000000   1.005453 )

     reciprocal axes: (cart. coord. in units 2 pi/alat)
               b(1) = (  0.994576 -0.000000 -0.000000 )
               b(2) = ( -0.000000  0.948651 -0.000000 )
               b(3) = ( -0.000000 -0.000000  0.994576 )

     PseudoPot. # 1 for W  read from file:
     /cluster/scratch/mnoe/QE/pps/W_ONCV_LDA-4.0.upf
     MD5 check sum: ba0307d5d4cd419d6f1d13dc49d7c13a
     Pseudo is Norm-conserving + core correction, Zval = 28.0
     Generated using ONCVPSP code by D. R. Hamann
     Using radial grid of 1380 points,  8 beta functions with:
                l(1) =   0
                l(2) =   0
                l(3) =   1
                l(4) =   1
                l(5) =   2
                l(6) =   2
                l(7) =   3
                l(8) =   3

     PseudoPot. # 2 for O  read from file:
     /cluster/scratch/mnoe/QE/pps/O_ONCV_LDA-3.0.upf
     MD5 check sum: a1bd6164e7280c17a38c229939bfbd54
     Pseudo is Norm-conserving + core correction, Zval =  6.0
     Generated using ONCVPSP code by D. R. Hamann
     Using radial grid of  926 points,  5 beta functions with:
                l(1) =   0
                l(2) =   0
                l(3) =   1
                l(4) =   1
                l(5) =   2

     atomic species   valence    mass     pseudopotential
        W             28.00   183.84000     W ( 1.00)
        O              6.00    15.99940     O ( 1.00)

      2 Sym. Ops., with inversion, found

   Cartesian axes

     site n.     atom                  positions (alat units)
         1           W   tau(   1) = (   0.2513633   0.2945996   0.0000000  )
         2           W   tau(   2) = (   0.7540900   0.7595291   0.0000001  )
         3           W   tau(   3) = (   0.2513633   0.2324648   0.5027266  )
         4           W   tau(   4) = (   0.7540900   0.8216639   0.5027266  )
         5           W   tau(   5) = (   0.7540899   0.2945996   0.5027266  )
         6           W   tau(   6) = (   0.2513634   0.7595291   0.5027266  )
         7           W   tau(   7) = (   0.7540899   0.2324648   0.0000000  )
         8           W   tau(   8) = (   0.2513634   0.8216638   0.0000001  )
         9           O   tau(   9) = (   0.2513633   0.0080846   0.0000000  )
        10           O   tau(  10) = (   0.7540900   1.0460440   0.0000001  )
        11           O   tau(  11) = (   0.2513634   0.5189797   0.5027266  )
        12           O   tau(  12) = (   0.7540900   0.5351490   0.5027266  )
        13           O   tau(  13) = (   0.7540899   0.0080847   0.5027266  )
        14           O   tau(  14) = (   0.2513634   1.0460440   0.5027267  )
        15           O   tau(  15) = (   0.7540900   0.5189797   0.0000000  )
        16           O   tau(  16) = (   0.2513634   0.5351489   0.0000000  )
        17           O   tau(  17) = (   0.5027266   0.2635322   0.4578621  )
        18           O   tau(  18) = (   0.5027267   0.7905965   0.5475911  )
        19           O   tau(  19) = (   0.0000000   0.2635322   0.9605888  )
        20           O   tau(  20) = (   0.0000001   0.7905964   0.0448645  )
        21           O   tau(  21) = (   0.5027266   0.2635322   0.0448645  )
        22           O   tau(  22) = (   0.5027267   0.7905965   0.9605888  )
        23           O   tau(  23) = (   0.0000000   0.2635322   0.5475910  )
        24           O   tau(  24) = (   0.0000001   0.7905964   0.4578622  )
        25           O   tau(  25) = (   0.7092255   0.2635323   0.7540899  )
        26           O   tau(  26) = (   0.2962278   0.7905964   0.2513633  )
        27           O   tau(  27) = (   0.7989544   0.2635322   0.2513633  )
        28           O   tau(  28) = (   0.2064990   0.7905965   0.7540899  )
        29           O   tau(  29) = (   0.2962278   0.2635322   0.7540899  )
        30           O   tau(  30) = (   0.7092256   0.7905965   0.2513634  )
        31           O   tau(  31) = (   0.2064989   0.2635322   0.2513633  )
        32           O   tau(  32) = (   0.7989545   0.7905965   0.7540899  )

     number of k points=   112  gaussian smearing, width (Ry)=  0.0007

     Number of k-points >= 100: set verbosity='high' to print them.

     Initial potential from superposition of free atoms

     starting charge  367.99656, renormalised to  368.00000
     Starting wfc are  232 randomized atomic wfcs

     Writing output data file Landau_6.save

     Self-consistent Calculation

[...]

     total energy              =   -6261.10803574 Ry
     Harris-Foulkes estimate   =   -6261.10803574 Ry
     estimated scf accuracy    <          2.9E-10 Ry

     iteration # 17     ecut=   120.00 Ry     beta= 0.70
     Davidson diagonalization with overlap
     ethr =  1.00E-13,  avg # of iterations =  2.0

     End of self-consistent calculation

     Number of k-points >= 100: set verbosity='high' to print the bands.

     the Fermi energy is     8.8566 ev

!    total energy              =   -6261.10803574 Ry
     Harris-Foulkes estimate   =   -6261.10803574 Ry
     estimated scf accuracy    <          4.5E-11 Ry

     The total energy is the sum of the following terms:

     one-electron contribution =   -4751.65194702 Ry
     hartree contribution      =    2610.88137782 Ry
     xc contribution           =    -965.66906838 Ry
     ewald contribution        =   -3154.66839816 Ry
     smearing contrib. (-TS)   =      -0.00000000 Ry

     convergence has been achieved in  17 iterations

     Forces acting on atoms (cartesian axes, Ry/au):

     atom    1 type  1   force =     0.00000075    0.00598407   -0.00000130
     atom    2 type  1   force =    -0.00000075   -0.00598407    0.00000130
     atom    3 type  1   force =    -0.00000115   -0.00598212    0.00000282
     atom    4 type  1   force =     0.00000115    0.00598212   -0.00000282
     atom    5 type  1   force =     0.00000093    0.00598431    0.00000284
     atom    6 type  1   force =    -0.00000093   -0.00598431   -0.00000284
     atom    7 type  1   force =    -0.00000227   -0.00598565   -0.00000330
     atom    8 type  1   force =     0.00000227    0.00598565    0.00000330
     atom    9 type  2   force =    -0.00000000   -0.00303203   -0.00000001
     atom   10 type  2   force =     0.00000000    0.00303203    0.00000001
     atom   11 type  2   force =     0.00000004    0.00303202    0.00000002
     atom   12 type  2   force =    -0.00000004   -0.00303202   -0.00000002
     atom   13 type  2   force =    -0.00000005   -0.00303187   -0.00000000
     atom   14 type  2   force =     0.00000005    0.00303187    0.00000000
     atom   15 type  2   force =     0.00000003    0.00303207    0.00000002
     atom   16 type  2   force =    -0.00000003   -0.00303207   -0.00000002
     atom   17 type  2   force =     0.00000022   -0.00000001   -0.00097027
     atom   18 type  2   force =    -0.00000022    0.00000001    0.00097027
     atom   19 type  2   force =     0.00000033    0.00000014   -0.00097030
     atom   20 type  2   force =    -0.00000033   -0.00000014    0.00097030
     atom   21 type  2   force =    -0.00000019   -0.00000001    0.00097034
     atom   22 type  2   force =     0.00000019    0.00000001   -0.00097034
     atom   23 type  2   force =    -0.00000039    0.00000008    0.00097029
     atom   24 type  2   force =     0.00000039   -0.00000008   -0.00097029
     atom   25 type  2   force =    -0.00097035    0.00000005   -0.00000007
     atom   26 type  2   force =     0.00097035   -0.00000005    0.00000007
     atom   27 type  2   force =     0.00097022    0.00000004    0.00000004
     atom   28 type  2   force =    -0.00097022   -0.00000004   -0.00000004
     atom   29 type  2   force =     0.00097032    0.00000007    0.00000056
     atom   30 type  2   force =    -0.00097032   -0.00000007   -0.00000056
     atom   31 type  2   force =    -0.00097026    0.00000018   -0.00000067
     atom   32 type  2   force =     0.00097026   -0.00000018    0.00000067

     Total force =     0.000000     Total SCF correction =     0.000000

     Computing stress (Cartesian axis) and pressure

          total   stress  (Ry/bohr**3)                   (kbar)     P=    0.18
   0.00000189  -0.00000000  -0.00000000          0.28     -0.00     -0.00
  -0.00000000  -0.00000004  -0.00000000         -0.00     -0.01     -0.00
  -0.00000000  -0.00000000   0.00000190         -0.00     -0.00      0.28

     Writing output data file Landau_6.save

     General routines

     Parallel routines

   This run was terminated on:   0:40:16   5Mar2020

   JOB DONE.