     Program PWSCF v.6.2 (svn rev. 14038) starts on  4Mar2020 at 20: 0: 1

     K-points division:     npool     =      64
     Reading input from rscf.in

     Current dimensions of program PWSCF are:
     Max number of different atomic species (ntypx) = 10
     Max number of k-points (npk) =  40000
     Max angular momentum in pseudopotentials (lmaxx) =  3

     Subspace diagonalization in iterative solution of the eigenvalue problem:
     a serial algorithm will be used

     bravais-lattice index     =            0
     lattice parameter (alat)  =      13.8397  a.u.
     unit-cell volume          =    2804.9816 (a.u.)^3
     number of atoms/cell      =           32
     number of atomic types    =            2
     number of electrons       =       368.00
     number of Kohn-Sham states=          221
     kinetic-energy cutoff     =     120.0000  Ry
     charge density cutoff     =     480.0000  Ry
     convergence threshold     =      1.0E-08
     mixing beta               =       0.7000
     number of iterations used =            8  plain     mixing
     Exchange-correlation      = SLA PW NOGX NOGC ( 1  4  0  0 0 0)
     nstep                     =           50

     celldm(1)=  13.839685  celldm(2)=   0.000000  celldm(3)=   0.000000
     celldm(4)=   0.000000  celldm(5)=   0.000000  celldm(6)=   0.000000

     crystal axes: (cart. coord. in units of alat)
               a(1) = (   1.000000   0.000000   0.000000 )
               a(2) = (   0.000000   1.058160   0.000000 )
               a(3) = (   0.000000   0.000000   1.000000 )

     reciprocal axes: (cart. coord. in units 2 pi/alat)
               b(1) = (  1.000000  0.000000  0.000000 )
               b(2) = (  0.000000  0.945037  0.000000 )
               b(3) = (  0.000000  0.000000  1.000000 )

     PseudoPot. # 1 for W  read from file:
     /cluster/scratch/mnoe/QE/pps/W_ONCV_LDA-4.0.upf
     MD5 check sum: ba0307d5d4cd419d6f1d13dc49d7c13a
     Pseudo is Norm-conserving + core correction, Zval = 28.0
     Generated using ONCVPSP code by D. R. Hamann
     Using radial grid of 1380 points,  8 beta functions with:
                l(1) =   0
                l(2) =   0
                l(3) =   1
                l(4) =   1
                l(5) =   2
                l(6) =   2
                l(7) =   3
                l(8) =   3

     PseudoPot. # 2 for O  read from file:
     /cluster/scratch/mnoe/QE/pps/O_ONCV_LDA-3.0.upf
     MD5 check sum: a1bd6164e7280c17a38c229939bfbd54
     Pseudo is Norm-conserving + core correction, Zval =  6.0
     Generated using ONCVPSP code by D. R. Hamann
     Using radial grid of  926 points,  5 beta functions with:
                l(1) =   0
                l(2) =   0
                l(3) =   1
                l(4) =   1
                l(5) =   2

     atomic species   valence    mass     pseudopotential
        W             28.00   183.84000     W ( 1.00)
        O              6.00    15.99940     O ( 1.00)

      8 Sym. Ops., with inversion, found ( 6 have fractional translation)

   Cartesian axes

     site n.     atom                  positions (alat units)
         1           W   tau(   1) = (   0.2384400   0.2956230   0.0109200  )
         2           W   tau(   2) = (   0.7615600   0.7625371   0.9890800  )
         3           W   tau(   3) = (   0.2615600   0.2334571   0.5109200  )
         4           W   tau(   4) = (   0.7384400   0.8247030   0.4890800  )
         5           W   tau(   5) = (   0.7615600   0.2956230   0.4890800  )
         6           W   tau(   6) = (   0.2384400   0.7625371   0.5109200  )
         7           W   tau(   7) = (   0.7384400   0.2334571   0.9890800  )
         8           W   tau(   8) = (   0.2615600   0.8247030   0.0109200  )
         9           O   tau(   9) = (   0.2286700   0.0080874   0.0034000  )
        10           O   tau(  10) = (   0.7713300   1.0500727   0.9966000  )
        11           O   tau(  11) = (   0.2713300   0.5209926   0.5034000  )
        12           O   tau(  12) = (   0.7286700   0.5371674   0.4966000  )
        13           O   tau(  13) = (   0.7713300   0.0080874   0.4966000  )
        14           O   tau(  14) = (   0.2286700   1.0500727   0.5034000  )
        15           O   tau(  15) = (   0.7286700   0.5209926   0.9966000  )
        16           O   tau(  16) = (   0.2713300   0.5371674   0.0034000  )
        17           O   tau(  17) = (   0.5031600   0.2413875   0.4556174  )
        18           O   tau(  18) = (   0.4968400   0.8167727   0.5443825  )
        19           O   tau(  19) = (   0.9968400   0.2876926   0.9556175  )
        20           O   tau(  20) = (   0.0031600   0.7704675   0.0443825  )
        21           O   tau(  21) = (   0.4968400   0.2413875   0.0443825  )
        22           O   tau(  22) = (   0.5031600   0.8167727   0.9556175  )
        23           O   tau(  23) = (   0.0031600   0.2876926   0.5443825  )
        24           O   tau(  24) = (   0.9968400   0.7704675   0.4556174  )
        25           O   tau(  25) = (   0.7056175   0.2594820   0.7452100  )
        26           O   tau(  26) = (   0.2943825   0.7986781   0.2547900  )
        27           O   tau(  27) = (   0.7943826   0.2695980   0.2452099  )
        28           O   tau(  28) = (   0.2056175   0.7885621   0.7547900  )
        29           O   tau(  29) = (   0.2943825   0.2594820   0.7547900  )
        30           O   tau(  30) = (   0.7056175   0.7986781   0.2452099  )
        31           O   tau(  31) = (   0.2056175   0.2695980   0.2547900  )
        32           O   tau(  32) = (   0.7943826   0.7885621   0.7452100  )

     number of k points=    64  gaussian smearing, width (Ry)=  0.0007
                       cart. coord. in units 2pi/alat
        k(    1) = (   0.0000000   0.0000000   0.0000000), wk =   0.0092593
        k(    2) = (   0.0000000   0.0000000   0.1666667), wk =   0.0185185
        k(    3) = (   0.0000000   0.0000000   0.3333333), wk =   0.0185185
        k(    4) = (   0.0000000   0.0000000  -0.5000000), wk =   0.0092593
        k(    5) = (   0.0000000   0.1575061   0.0000000), wk =   0.0185185
        k(    6) = (   0.0000000   0.1575061   0.1666667), wk =   0.0370370
        k(    7) = (   0.0000000   0.1575061   0.3333333), wk =   0.0370370
        k(    8) = (   0.0000000   0.1575061  -0.5000000), wk =   0.0185185
        k(    9) = (   0.0000000   0.3150122   0.0000000), wk =   0.0185185
        k(   10) = (   0.0000000   0.3150122   0.1666667), wk =   0.0370370
        k(   11) = (   0.0000000   0.3150122   0.3333333), wk =   0.0370370
        k(   12) = (   0.0000000   0.3150122  -0.5000000), wk =   0.0185185
        k(   13) = (   0.0000000  -0.4725183   0.0000000), wk =   0.0092593
        k(   14) = (   0.0000000  -0.4725183   0.1666667), wk =   0.0185185
        k(   15) = (   0.0000000  -0.4725183   0.3333333), wk =   0.0185185
        k(   16) = (   0.0000000  -0.4725183  -0.5000000), wk =   0.0092593
        k(   17) = (   0.1666667   0.0000000   0.1666667), wk =   0.0370370
        k(   18) = (   0.1666667   0.0000000   0.3333333), wk =   0.0370370
        k(   19) = (   0.1666667   0.0000000  -0.5000000), wk =   0.0185185
        k(   20) = (   0.1666667   0.1575061   0.1666667), wk =   0.0740741
        k(   21) = (   0.1666667   0.1575061   0.3333333), wk =   0.0740741
        k(   22) = (   0.1666667   0.1575061  -0.5000000), wk =   0.0370370
        k(   23) = (   0.1666667   0.3150122   0.1666667), wk =   0.0740741
        k(   24) = (   0.1666667   0.3150122   0.3333333), wk =   0.0740741
        k(   25) = (   0.1666667   0.3150122  -0.5000000), wk =   0.0370370
        k(   26) = (   0.1666667  -0.4725183   0.1666667), wk =   0.0370370
        k(   27) = (   0.1666667  -0.4725183   0.3333333), wk =   0.0370370
        k(   28) = (   0.1666667  -0.4725183  -0.5000000), wk =   0.0185185
        k(   29) = (   0.3333333   0.0000000   0.3333333), wk =   0.0370370
        k(   30) = (   0.3333333   0.0000000  -0.5000000), wk =   0.0185185
        k(   31) = (   0.3333333   0.1575061   0.3333333), wk =   0.0740741
        k(   32) = (   0.3333333   0.1575061  -0.5000000), wk =   0.0370370
        k(   33) = (   0.3333333   0.3150122   0.3333333), wk =   0.0740741
        k(   34) = (   0.3333333   0.3150122  -0.5000000), wk =   0.0370370
        k(   35) = (   0.3333333  -0.4725183   0.3333333), wk =   0.0370370
        k(   36) = (   0.3333333  -0.4725183  -0.5000000), wk =   0.0185185
        k(   37) = (  -0.5000000   0.0000000  -0.5000000), wk =   0.0092593
        k(   38) = (  -0.5000000   0.1575061  -0.5000000), wk =   0.0185185
        k(   39) = (  -0.5000000   0.3150122  -0.5000000), wk =   0.0185185
        k(   40) = (  -0.5000000  -0.4725183  -0.5000000), wk =   0.0092593
        k(   41) = (   0.1666667   0.0000000   0.0000000), wk =   0.0185185
        k(   42) = (   0.3333333   0.0000000   0.0000000), wk =   0.0185185
        k(   43) = (  -0.5000000   0.0000000   0.0000000), wk =   0.0092593
        k(   44) = (   0.1666667  -0.1575061   0.0000000), wk =   0.0370370
        k(   45) = (   0.3333333  -0.1575061   0.0000000), wk =   0.0370370
        k(   46) = (  -0.5000000  -0.1575061   0.0000000), wk =   0.0185185
        k(   47) = (   0.1666667  -0.3150122   0.0000000), wk =   0.0370370
        k(   48) = (   0.3333333  -0.3150122   0.0000000), wk =   0.0370370
        k(   49) = (  -0.5000000  -0.3150122   0.0000000), wk =   0.0185185
        k(   50) = (   0.1666667   0.4725183   0.0000000), wk =   0.0185185
        k(   51) = (   0.3333333   0.4725183   0.0000000), wk =   0.0185185
        k(   52) = (  -0.5000000   0.4725183   0.0000000), wk =   0.0092593
        k(   53) = (   0.3333333   0.0000000   0.1666667), wk =   0.0370370
        k(   54) = (  -0.5000000   0.0000000   0.1666667), wk =   0.0185185
        k(   55) = (   0.3333333  -0.1575061   0.1666667), wk =   0.0740741
        k(   56) = (  -0.5000000  -0.1575061   0.1666667), wk =   0.0370370
        k(   57) = (   0.3333333  -0.3150122   0.1666667), wk =   0.0740741
        k(   58) = (  -0.5000000  -0.3150122   0.1666667), wk =   0.0370370
        k(   59) = (   0.3333333   0.4725183   0.1666667), wk =   0.0370370
        k(   60) = (  -0.5000000   0.4725183   0.1666667), wk =   0.0185185
        k(   61) = (  -0.5000000   0.0000000   0.3333333), wk =   0.0185185
        k(   62) = (  -0.5000000  -0.1575061   0.3333333), wk =   0.0370370
        k(   63) = (  -0.5000000  -0.3150122   0.3333333), wk =   0.0370370
        k(   64) = (  -0.5000000   0.4725183   0.3333333), wk =   0.0185185

     Initial potential from superposition of free atoms

     starting charge  367.99656, renormalised to  368.00000
     Starting wfc are  232 randomized atomic wfcs

     Self-consistent Calculation

     iteration #  1     ecut=   120.00 Ry     beta= 0.70
     Davidson diagonalization with overlap
     ethr =  1.00E-02,  avg # of iterations =  5.0

     total energy              =   -6253.99810803 Ry
     Harris-Foulkes estimate   =   -6264.56731409 Ry
     estimated scf accuracy    <      13.38729422 Ry

[...]

     End of self-consistent calculation

[...]
End final coordinates

     A final scf calculation at the relaxed structure.
     The G-vectors are recalculated for the final unit cell
     Results may differ from those at the preceding step.

     bravais-lattice index     =            0
     lattice parameter (alat)  =      13.8397  a.u.
     unit-cell volume          =    2809.3114 (a.u.)^3
     number of atoms/cell      =           32
     number of atomic types    =            2
     number of electrons       =       368.00
     number of Kohn-Sham states=          221
     kinetic-energy cutoff     =     120.0000  Ry
     charge density cutoff     =     480.0000  Ry
     convergence threshold     =      1.0E-10
     mixing beta               =       0.7000
     number of iterations used =            8  plain     mixing
     Exchange-correlation      = SLA PW NOGX NOGC ( 1  4  0  0 0 0)

     celldm(1)=  13.839685  celldm(2)=   0.000000  celldm(3)=   0.000000
     celldm(4)=   0.000000  celldm(5)=   0.000000  celldm(6)=   0.000000

     crystal axes: (cart. coord. in units of alat)
               a(1) = (   1.004993   0.000000   0.000000 )
               a(2) = (   0.000000   1.046193   0.000000 )
               a(3) = (   0.000000   0.000000   1.007967 )

     reciprocal axes: (cart. coord. in units 2 pi/alat)
               b(1) = (  0.995032  0.000000  0.000000 )
               b(2) = (  0.000000  0.955846  0.000000 )
               b(3) = (  0.000000  0.000000  0.992096 )

     PseudoPot. # 1 for W  read from file:
     /cluster/scratch/mnoe/QE/pps/W_ONCV_LDA-4.0.upf
     MD5 check sum: ba0307d5d4cd419d6f1d13dc49d7c13a
     Pseudo is Norm-conserving + core correction, Zval = 28.0
     Generated using ONCVPSP code by D. R. Hamann
     Using radial grid of 1380 points,  8 beta functions with:
                l(1) =   0
                l(2) =   0
                l(3) =   1
                l(4) =   1
                l(5) =   2
                l(6) =   2
                l(7) =   3
                l(8) =   3

     PseudoPot. # 2 for O  read from file:
     /cluster/scratch/mnoe/QE/pps/O_ONCV_LDA-3.0.upf
     MD5 check sum: a1bd6164e7280c17a38c229939bfbd54
     Pseudo is Norm-conserving + core correction, Zval =  6.0
     Generated using ONCVPSP code by D. R. Hamann
     Using radial grid of  926 points,  5 beta functions with:
                l(1) =   0
                l(2) =   0
                l(3) =   1
                l(4) =   1
                l(5) =   2

     atomic species   valence    mass     pseudopotential
        W             28.00   183.84000     W ( 1.00)
        O              6.00    15.99940     O ( 1.00)

      8 Sym. Ops., with inversion, found ( 6 have fractional translation)

   Cartesian axes

     site n.     atom                  positions (alat units)
         1           W   tau(   1) = (   0.2396306   0.2922798   0.0110070  )
         2           W   tau(   2) = (   0.7653626   0.7539135   0.9969597  )
         3           W   tau(   3) = (   0.2628660   0.2308169   0.5149903  )
         4           W   tau(   4) = (   0.7421273   0.8153764   0.4929764  )
         5           W   tau(   5) = (   0.7653626   0.2922798   0.4929764  )
         6           W   tau(   6) = (   0.2396306   0.7539135   0.5149903  )
         7           W   tau(   7) = (   0.7421273   0.2308169   0.9969597  )
         8           W   tau(   8) = (   0.2628660   0.8153764   0.0110070  )
         9           O   tau(   9) = (   0.2298118   0.0079959   0.0034271  )
        10           O   tau(  10) = (   0.7751815   1.0381973   1.0045396  )
        11           O   tau(  11) = (   0.2726848   0.5151007   0.5074104  )
        12           O   tau(  12) = (   0.7323084   0.5310925   0.5005562  )
        13           O   tau(  13) = (   0.7751815   0.0079959   0.5005562  )
        14           O   tau(  14) = (   0.2298118   1.0381973   0.5074104  )
        15           O   tau(  15) = (   0.7323084   0.5151007   1.0045396  )
        16           O   tau(  16) = (   0.2726848   0.5310925   0.0034271  )
        17           O   tau(  17) = (   0.5056724   0.2386576   0.4592472  )
        18           O   tau(  18) = (   0.4993209   0.8075357   0.5487195  )
        19           O   tau(  19) = (   1.0018175   0.2844390   0.9632306  )
        20           O   tau(  20) = (   0.0031758   0.7617542   0.0447361  )
        21           O   tau(  21) = (   0.4993209   0.2386576   0.0447361  )
        22           O   tau(  22) = (   0.5056724   0.8075357   0.9632306  )
        23           O   tau(  23) = (   0.0031758   0.2844390   0.5487195  )
        24           O   tau(  24) = (   1.0018175   0.7617542   0.4592472  )
        25           O   tau(  25) = (   0.7091408   0.2565475   0.7511468  )
        26           O   tau(  26) = (   0.2958525   0.7896457   0.2568198  )
        27           O   tau(  27) = (   0.7983491   0.2665491   0.2471634  )
        28           O   tau(  28) = (   0.2066442   0.7796442   0.7608032  )
        29           O   tau(  29) = (   0.2958525   0.2565475   0.7608032  )
        30           O   tau(  30) = (   0.7091408   0.7896457   0.2471634  )
        31           O   tau(  31) = (   0.2066442   0.2665491   0.2568198  )
        32           O   tau(  32) = (   0.7983491   0.7796442   0.7511468  )

     number of k points=    64  gaussian smearing, width (Ry)=  0.0007
                       cart. coord. in units 2pi/alat
        k(    1) = (   0.0000000   0.0000000   0.0000000), wk =   0.0092593
        k(    2) = (   0.0000000   0.0000000   0.1653494), wk =   0.0185185
        k(    3) = (   0.0000000   0.0000000   0.3306988), wk =   0.0185185
        k(    4) = (   0.0000000   0.0000000  -0.4960482), wk =   0.0092593
        k(    5) = (   0.0000000   0.1593077   0.0000000), wk =   0.0185185
        k(    6) = (   0.0000000   0.1593077   0.1653494), wk =   0.0370370
        k(    7) = (   0.0000000   0.1593077   0.3306988), wk =   0.0370370
        k(    8) = (   0.0000000   0.1593077  -0.4960482), wk =   0.0185185
        k(    9) = (   0.0000000   0.3186155   0.0000000), wk =   0.0185185
        k(   10) = (   0.0000000   0.3186155   0.1653494), wk =   0.0370370
        k(   11) = (   0.0000000   0.3186155   0.3306988), wk =   0.0370370
        k(   12) = (   0.0000000   0.3186155  -0.4960482), wk =   0.0185185
        k(   13) = (   0.0000000  -0.4779232   0.0000000), wk =   0.0092593
        k(   14) = (   0.0000000  -0.4779232   0.1653494), wk =   0.0185185
        k(   15) = (   0.0000000  -0.4779232   0.3306988), wk =   0.0185185
        k(   16) = (   0.0000000  -0.4779232  -0.4960482), wk =   0.0092593
        k(   17) = (   0.1658386   0.0000000   0.1653494), wk =   0.0370370
        k(   18) = (   0.1658386   0.0000000   0.3306988), wk =   0.0370370
        k(   19) = (   0.1658386   0.0000000  -0.4960482), wk =   0.0185185
        k(   20) = (   0.1658386   0.1593077   0.1653494), wk =   0.0740741
        k(   21) = (   0.1658386   0.1593077   0.3306988), wk =   0.0740741
        k(   22) = (   0.1658386   0.1593077  -0.4960482), wk =   0.0370370
        k(   23) = (   0.1658386   0.3186155   0.1653494), wk =   0.0740741
        k(   24) = (   0.1658386   0.3186155   0.3306988), wk =   0.0740741
        k(   25) = (   0.1658386   0.3186155  -0.4960482), wk =   0.0370370
        k(   26) = (   0.1658386  -0.4779232   0.1653494), wk =   0.0370370
        k(   27) = (   0.1658386  -0.4779232   0.3306988), wk =   0.0370370
        k(   28) = (   0.1658386  -0.4779232  -0.4960482), wk =   0.0185185
        k(   29) = (   0.3316772   0.0000000   0.3306988), wk =   0.0370370
        k(   30) = (   0.3316772   0.0000000  -0.4960482), wk =   0.0185185
        k(   31) = (   0.3316772   0.1593077   0.3306988), wk =   0.0740741
        k(   32) = (   0.3316772   0.1593077  -0.4960482), wk =   0.0370370
        k(   33) = (   0.3316772   0.3186155   0.3306988), wk =   0.0740741
        k(   34) = (   0.3316772   0.3186155  -0.4960482), wk =   0.0370370
        k(   35) = (   0.3316772  -0.4779232   0.3306988), wk =   0.0370370
        k(   36) = (   0.3316772  -0.4779232  -0.4960482), wk =   0.0185185
        k(   37) = (  -0.4975158   0.0000000  -0.4960482), wk =   0.0092593
        k(   38) = (  -0.4975158   0.1593077  -0.4960482), wk =   0.0185185
        k(   39) = (  -0.4975158   0.3186155  -0.4960482), wk =   0.0185185
        k(   40) = (  -0.4975158  -0.4779232  -0.4960482), wk =   0.0092593
        k(   41) = (   0.1658386   0.0000000   0.0000000), wk =   0.0185185
        k(   42) = (   0.3316772   0.0000000   0.0000000), wk =   0.0185185
        k(   43) = (  -0.4975158   0.0000000   0.0000000), wk =   0.0092593
        k(   44) = (   0.1658386  -0.1593077   0.0000000), wk =   0.0370370
        k(   45) = (   0.3316772  -0.1593077   0.0000000), wk =   0.0370370
        k(   46) = (  -0.4975158  -0.1593077   0.0000000), wk =   0.0185185
        k(   47) = (   0.1658386  -0.3186155   0.0000000), wk =   0.0370370
        k(   48) = (   0.3316772  -0.3186155   0.0000000), wk =   0.0370370
        k(   49) = (  -0.4975158  -0.3186155   0.0000000), wk =   0.0185185
        k(   50) = (   0.1658386   0.4779232   0.0000000), wk =   0.0185185
        k(   51) = (   0.3316772   0.4779232   0.0000000), wk =   0.0185185
        k(   52) = (  -0.4975158   0.4779232   0.0000000), wk =   0.0092593
        k(   53) = (   0.3316772   0.0000000   0.1653494), wk =   0.0370370
        k(   54) = (  -0.4975158   0.0000000   0.1653494), wk =   0.0185185
        k(   55) = (   0.3316772  -0.1593077   0.1653494), wk =   0.0740741
        k(   56) = (  -0.4975158  -0.1593077   0.1653494), wk =   0.0370370
        k(   57) = (   0.3316772  -0.3186155   0.1653494), wk =   0.0740741
        k(   58) = (  -0.4975158  -0.3186155   0.1653494), wk =   0.0370370
        k(   59) = (   0.3316772   0.4779232   0.1653494), wk =   0.0370370
        k(   60) = (  -0.4975158   0.4779232   0.1653494), wk =   0.0185185
        k(   61) = (  -0.4975158   0.0000000   0.3306988), wk =   0.0185185
        k(   62) = (  -0.4975158  -0.1593077   0.3306988), wk =   0.0370370
        k(   63) = (  -0.4975158  -0.3186155   0.3306988), wk =   0.0370370
        k(   64) = (  -0.4975158   0.4779232   0.3306988), wk =   0.0185185

     Initial potential from superposition of free atoms

     starting charge  367.99656, renormalised to  368.00000
     Starting wfc are  232 randomized atomic wfcs

     Writing output data file Landau_25.save

     Self-consistent Calculation

[...]

     total energy              =   -6261.11298412 Ry
     Harris-Foulkes estimate   =   -6261.11298412 Ry
     estimated scf accuracy    <          1.0E-10 Ry

     iteration # 15     ecut=   120.00 Ry     beta= 0.70
     Davidson diagonalization with overlap
     ethr =  1.00E-13,  avg # of iterations =  1.0

     End of self-consistent calculation

[...]

          k = 0.3317 0.4779 0.1653 ( 62372 PWs)   bands (ev):

[...]

          k =-0.4975 0.4779 0.3307 ( 62332 PWs)   bands (ev):

   -66.1923 -66.1923 -66.1923 -66.1923 -66.1918 -66.1918 -66.1918 -66.1918
   -30.5485 -30.5485 -30.5478 -30.5478 -30.5434 -30.5434 -30.5424 -30.5424
   -30.5207 -30.5207 -30.5202 -30.5202 -30.4937 -30.4937 -30.4930 -30.4930
   -30.4873 -30.4873 -30.4859 -30.4859 -30.4697 -30.4697 -30.4693 -30.4693
   -20.3556 -20.3556 -20.3556 -20.3556 -20.3554 -20.3554 -20.3554 -20.3554
   -20.3344 -20.3344 -20.3344 -20.3344 -20.3341 -20.3341 -20.3341 -20.3341
   -20.3301 -20.3301 -20.3301 -20.3301 -20.3299 -20.3299 -20.3299 -20.3299
   -20.3263 -20.3263 -20.3262 -20.3262 -20.3262 -20.3261 -20.3260 -20.3260
   -20.3191 -20.3191 -20.3191 -20.3191 -20.3181 -20.3181 -20.3180 -20.3180
   -20.3180 -20.3180 -20.3179 -20.3179 -20.3157 -20.3157 -20.3157 -20.3157
   -20.3086 -20.3086 -20.3086 -20.3086 -20.3078 -20.3078 -20.3078 -20.3078
    -9.2082  -9.2082  -9.1982  -9.1982  -8.8194  -8.8194  -8.7941  -8.7941
    -8.5720  -8.5720  -8.5481  -8.5481  -8.4217  -8.4217  -8.3946  -8.3946
    -8.3635  -8.3635  -8.3429  -8.3429  -8.1433  -8.1433  -8.1425  -8.1425
     2.2264   2.2264   2.2400   2.2400   2.9325   2.9325   2.9884   2.9884
     3.0757   3.0757   3.0935   3.0935   3.1884   3.1884   3.2107   3.2107
     3.4161   3.4161   3.4617   3.4617   3.5804   3.5804   3.6378   3.6378
     3.7814   3.7814   3.9246   3.9246   4.2086   4.2087   4.2225   4.2225
     4.2774   4.2775   4.3461   4.3462   4.4515   4.4515   4.5460   4.5460
     4.6604   4.6604   4.7867   4.7867   5.0091   5.0091   5.0392   5.0392
     6.9499   6.9499   7.0532   7.0532   7.1194   7.1194   7.1411   7.1411
     7.2272   7.2272   7.2920   7.2920   7.3637   7.3637   7.3903   7.3903
     7.4570   7.4570   7.5461   7.5461   7.5619   7.5619   7.6174   7.6174
    11.4704  11.4704  11.5140  11.5140  11.6529  11.6529  11.7565  11.7565
    12.1613  12.1613  12.2247  12.2247  12.2324  12.2324  12.3560  12.3560
    12.4671  12.4671  12.6046  12.6047  12.8611  12.8611  12.9444  12.9444
    16.4335  16.4335  16.4814  16.4814  16.9998  16.9999  17.1010  17.1011
    17.2821  17.2821  17.3919  17.3925  17.4448

     the Fermi energy is     8.9737 ev

!    total energy              =   -6261.11298412 Ry
     Harris-Foulkes estimate   =   -6261.11298412 Ry
     estimated scf accuracy    <          4.3E-12 Ry

     The total energy is the sum of the following terms:

     one-electron contribution =   -4723.05853072 Ry
     hartree contribution      =    2597.92596513 Ry
     xc contribution           =    -965.66506853 Ry
     ewald contribution        =   -3170.31535001 Ry
     smearing contrib. (-TS)   =      -0.00000000 Ry

     convergence has been achieved in  15 iterations

     Forces acting on atoms (cartesian axes, Ry/au):

     atom    1 type  1   force =    -0.00202654    0.00161527    0.00137969
     atom    2 type  1   force =     0.00202654   -0.00161527   -0.00137969
     atom    3 type  1   force =     0.00202654   -0.00161527    0.00137969
     atom    4 type  1   force =    -0.00202654    0.00161527   -0.00137969
     atom    5 type  1   force =     0.00202654    0.00161527   -0.00137969
     atom    6 type  1   force =    -0.00202654   -0.00161527    0.00137969
     atom    7 type  1   force =    -0.00202654   -0.00161527   -0.00137969
     atom    8 type  1   force =     0.00202654    0.00161527    0.00137969
     atom    9 type  2   force =    -0.00022964   -0.00064024    0.00008269
     atom   10 type  2   force =     0.00022964    0.00064024   -0.00008269
     atom   11 type  2   force =     0.00022964    0.00064024    0.00008269
     atom   12 type  2   force =    -0.00022964   -0.00064024   -0.00008269
     atom   13 type  2   force =     0.00022964   -0.00064024   -0.00008269
     atom   14 type  2   force =    -0.00022964    0.00064024    0.00008269
     atom   15 type  2   force =    -0.00022964    0.00064024   -0.00008269
     atom   16 type  2   force =     0.00022964   -0.00064024    0.00008269
     atom   17 type  2   force =    -0.00109909   -0.00004551    0.00074382
     atom   18 type  2   force =     0.00109909    0.00004551   -0.00074382
     atom   19 type  2   force =     0.00109909    0.00004551    0.00074382
     atom   20 type  2   force =    -0.00109909   -0.00004551   -0.00074382
     atom   21 type  2   force =     0.00109909   -0.00004551   -0.00074382
     atom   22 type  2   force =    -0.00109909    0.00004551    0.00074382
     atom   23 type  2   force =    -0.00109909    0.00004551   -0.00074382
     atom   24 type  2   force =     0.00109909   -0.00004551    0.00074382
     atom   25 type  2   force =    -0.00110051   -0.00049353    0.00087891
     atom   26 type  2   force =     0.00110051    0.00049353   -0.00087891
     atom   27 type  2   force =     0.00110051    0.00049353    0.00087891
     atom   28 type  2   force =    -0.00110051   -0.00049353   -0.00087891
     atom   29 type  2   force =     0.00110051   -0.00049353   -0.00087891
     atom   30 type  2   force =    -0.00110051    0.00049353    0.00087891
     atom   31 type  2   force =    -0.00110051    0.00049353   -0.00087891
     atom   32 type  2   force =     0.00110051   -0.00049353    0.00087891

     Total force =     0.000000     Total SCF correction =     0.000000

     Computing stress (Cartesian axis) and pressure

          total   stress  (Ry/bohr**3)                   (kbar)     P=    0.11
   0.00000139   0.00000000   0.00000000          0.20      0.00      0.00
   0.00000000  -0.00000126   0.00000000          0.00     -0.19      0.00
   0.00000000   0.00000000   0.00000217          0.00      0.00      0.32

     Writing output data file Landau_25.save

     General routines

     Parallel routines

   This run was terminated on:  22: 8:41   4Mar2020

   JOB DONE.