     Program PWSCF v.6.2 (svn rev. 14038) starts on 19Mar2020 at  1:24:19

     K-points division:     npool     =      40
     Reading input from scf.in

     Current dimensions of program PWSCF are:
     Max number of different atomic species (ntypx) = 10
     Max number of k-points (npk) =  40000
     Max angular momentum in pseudopotentials (lmaxx) =  3

     Subspace diagonalization in iterative solution of the eigenvalue problem:
     a serial algorithm will be used

     bravais-lattice index     =            0
     lattice parameter (alat)  =      13.9019  a.u.
     unit-cell volume          =    2810.6409 (a.u.)^3
     number of atoms/cell      =           32
     number of atomic types    =            2
     number of electrons       =       368.20
     number of Kohn-Sham states=          221
     kinetic-energy cutoff     =     120.0000  Ry
     charge density cutoff     =     480.0000  Ry
     convergence threshold     =      1.0E-08
     mixing beta               =       0.7000
     number of iterations used =            8  plain     mixing
     Exchange-correlation      = SLA PW NOGX NOGC ( 1  4  0  0 0 0)

     celldm(1)=  13.901935  celldm(2)=   0.000000  celldm(3)=   0.000000
     celldm(4)=   0.000000  celldm(5)=   0.000000  celldm(6)=   0.000000

     crystal axes: (cart. coord. in units of alat)
               a(1) = (   1.000000   0.000000   0.000000 )
               a(2) = (   0.000000   1.043716   0.000000 )
               a(3) = (   0.000000   0.000000   1.002299 )

     reciprocal axes: (cart. coord. in units 2 pi/alat)
               b(1) = (  1.000000  0.000000  0.000000 )
               b(2) = (  0.000000  0.958115  0.000000 )
               b(3) = (  0.000000  0.000000  0.997706 )

     PseudoPot. # 1 for W  read from file:
     /cluster/scratch/mnoe/QE/pps/W_ONCV_LDA-4.0.upf
     MD5 check sum: ba0307d5d4cd419d6f1d13dc49d7c13a
     Pseudo is Norm-conserving + core correction, Zval = 28.0
     Generated using ONCVPSP code by D. R. Hamann
     Using radial grid of 1380 points,  8 beta functions with:
                l(1) =   0
                l(2) =   0
                l(3) =   1
                l(4) =   1
                l(5) =   2
                l(6) =   2
                l(7) =   3
                l(8) =   3

     PseudoPot. # 2 for O  read from file:
     /cluster/scratch/mnoe/QE/pps/O_ONCV_LDA-3.0.upf
     MD5 check sum: a1bd6164e7280c17a38c229939bfbd54
     Pseudo is Norm-conserving + core correction, Zval =  6.0
     Generated using ONCVPSP code by D. R. Hamann
     Using radial grid of  926 points,  5 beta functions with:
                l(1) =   0
                l(2) =   0
                l(3) =   1
                l(4) =   1
                l(5) =   2

     atomic species   valence    mass     pseudopotential
        W             28.00   183.84000     W ( 1.00)
        O              6.00    15.99940     O ( 1.00)

      8 Sym. Ops., with inversion, found ( 6 have fractional translation)

   Cartesian axes

     site n.     atom                  positions (alat units)
         1           W   tau(   1) = (   0.2398300   0.2918989   0.0096321  )
         2           W   tau(   2) = (   0.7601699   0.7518169   0.9926669  )
         3           W   tau(   3) = (   0.2601700   0.2299590   0.5107816  )
         4           W   tau(   4) = (   0.7398300   0.8137568   0.4915174  )
         5           W   tau(   5) = (   0.7601699   0.2918989   0.4915174  )
         6           W   tau(   6) = (   0.2398300   0.7518169   0.5107816  )
         7           W   tau(   7) = (   0.7398300   0.2299590   0.9926669  )
         8           W   tau(   8) = (   0.2601700   0.8137568   0.0096321  )
         9           O   tau(   9) = (   0.2312300   0.0080618   0.0029969  )
        10           O   tau(  10) = (   0.7687700   1.0356540   0.9993022  )
        11           O   tau(  11) = (   0.2687700   0.5137961   0.5041464  )
        12           O   tau(  12) = (   0.7312300   0.5299197   0.4981526  )
        13           O   tau(  13) = (   0.7687700   0.0080618   0.4981526  )
        14           O   tau(  14) = (   0.2312300   1.0356540   0.5041464  )
        15           O   tau(  15) = (   0.7312300   0.5137961   0.9993022  )
        16           O   tau(  16) = (   0.2687700   0.5299197   0.0029969  )
        17           O   tau(  17) = (   0.5027800   0.2408374   0.4559340  )
        18           O   tau(  18) = (   0.4972200   0.8028784   0.5463651  )
        19           O   tau(  19) = (   0.9972200   0.2810205   0.9570835  )
        20           O   tau(  20) = (   0.0027800   0.7626953   0.0452156  )
        21           O   tau(  21) = (   0.4972200   0.2408374   0.0452156  )
        22           O   tau(  22) = (   0.5027800   0.8028784   0.9570835  )
        23           O   tau(  23) = (   0.0027800   0.2810205   0.5463651  )
        24           O   tau(  24) = (   0.9972200   0.7626953   0.4559340  )
        25           O   tau(  25) = (   0.7048882   0.2565453   0.7474945  )
        26           O   tau(  26) = (   0.2951118   0.7871704   0.2548045  )
        27           O   tau(  27) = (   0.7951118   0.2653125   0.2463450  )
        28           O   tau(  28) = (   0.2048882   0.7784033   0.7559540  )
        29           O   tau(  29) = (   0.2951118   0.2565453   0.7559540  )
        30           O   tau(  30) = (   0.7048882   0.7871704   0.2463450  )
        31           O   tau(  31) = (   0.2048882   0.2653125   0.2548045  )
        32           O   tau(  32) = (   0.7951118   0.7784033   0.7474945  )

     number of k points=    64  gaussian smearing, width (Ry)=  0.0007
                       cart. coord. in units 2pi/alat
        k(    1) = (   0.0000000   0.0000000   0.0000000), wk =   0.0092593
        k(    2) = (   0.0000000   0.0000000   0.1662844), wk =   0.0185185
        k(    3) = (   0.0000000   0.0000000   0.3325687), wk =   0.0185185
        k(    4) = (   0.0000000   0.0000000  -0.4988531), wk =   0.0092593
        k(    5) = (   0.0000000   0.1596859   0.0000000), wk =   0.0185185
        k(    6) = (   0.0000000   0.1596859   0.1662844), wk =   0.0370370
        k(    7) = (   0.0000000   0.1596859   0.3325687), wk =   0.0370370
        k(    8) = (   0.0000000   0.1596859  -0.4988531), wk =   0.0185185
        k(    9) = (   0.0000000   0.3193718   0.0000000), wk =   0.0185185
        k(   10) = (   0.0000000   0.3193718   0.1662844), wk =   0.0370370
        k(   11) = (   0.0000000   0.3193718   0.3325687), wk =   0.0370370
        k(   12) = (   0.0000000   0.3193718  -0.4988531), wk =   0.0185185
        k(   13) = (   0.0000000  -0.4790576   0.0000000), wk =   0.0092593
        k(   14) = (   0.0000000  -0.4790576   0.1662844), wk =   0.0185185
        k(   15) = (   0.0000000  -0.4790576   0.3325687), wk =   0.0185185
        k(   16) = (   0.0000000  -0.4790576  -0.4988531), wk =   0.0092593
        k(   17) = (   0.1666667   0.0000000   0.0000000), wk =   0.0185185
        k(   18) = (   0.1666667   0.0000000   0.1662844), wk =   0.0370370
        k(   19) = (   0.1666667   0.0000000   0.3325687), wk =   0.0370370
        k(   20) = (   0.1666667   0.0000000  -0.4988531), wk =   0.0185185
        k(   21) = (   0.1666667   0.1596859   0.0000000), wk =   0.0370370
        k(   22) = (   0.1666667   0.1596859   0.1662844), wk =   0.0740741
        k(   23) = (   0.1666667   0.1596859   0.3325687), wk =   0.0740741
        k(   24) = (   0.1666667   0.1596859  -0.4988531), wk =   0.0370370
        k(   25) = (   0.1666667   0.3193718   0.0000000), wk =   0.0370370
        k(   26) = (   0.1666667   0.3193718   0.1662844), wk =   0.0740741
        k(   27) = (   0.1666667   0.3193718   0.3325687), wk =   0.0740741
        k(   28) = (   0.1666667   0.3193718  -0.4988531), wk =   0.0370370
        k(   29) = (   0.1666667  -0.4790576   0.0000000), wk =   0.0185185
        k(   30) = (   0.1666667  -0.4790576   0.1662844), wk =   0.0370370
        k(   31) = (   0.1666667  -0.4790576   0.3325687), wk =   0.0370370
        k(   32) = (   0.1666667  -0.4790576  -0.4988531), wk =   0.0185185
        k(   33) = (   0.3333333   0.0000000   0.0000000), wk =   0.0185185
        k(   34) = (   0.3333333   0.0000000   0.1662844), wk =   0.0370370
        k(   35) = (   0.3333333   0.0000000   0.3325687), wk =   0.0370370
        k(   36) = (   0.3333333   0.0000000  -0.4988531), wk =   0.0185185
        k(   37) = (   0.3333333   0.1596859   0.0000000), wk =   0.0370370
        k(   38) = (   0.3333333   0.1596859   0.1662844), wk =   0.0740741
        k(   39) = (   0.3333333   0.1596859   0.3325687), wk =   0.0740741
        k(   40) = (   0.3333333   0.1596859  -0.4988531), wk =   0.0370370
        k(   41) = (   0.3333333   0.3193718   0.0000000), wk =   0.0370370
        k(   42) = (   0.3333333   0.3193718   0.1662844), wk =   0.0740741
        k(   43) = (   0.3333333   0.3193718   0.3325687), wk =   0.0740741
        k(   44) = (   0.3333333   0.3193718  -0.4988531), wk =   0.0370370
        k(   45) = (   0.3333333  -0.4790576   0.0000000), wk =   0.0185185
        k(   46) = (   0.3333333  -0.4790576   0.1662844), wk =   0.0370370
        k(   47) = (   0.3333333  -0.4790576   0.3325687), wk =   0.0370370
        k(   48) = (   0.3333333  -0.4790576  -0.4988531), wk =   0.0185185
        k(   49) = (  -0.5000000   0.0000000   0.0000000), wk =   0.0092593
        k(   50) = (  -0.5000000   0.0000000   0.1662844), wk =   0.0185185
        k(   51) = (  -0.5000000   0.0000000   0.3325687), wk =   0.0185185
        k(   52) = (  -0.5000000   0.0000000  -0.4988531), wk =   0.0092593
        k(   53) = (  -0.5000000   0.1596859   0.0000000), wk =   0.0185185
        k(   54) = (  -0.5000000   0.1596859   0.1662844), wk =   0.0370370
        k(   55) = (  -0.5000000   0.1596859   0.3325687), wk =   0.0370370
        k(   56) = (  -0.5000000   0.1596859  -0.4988531), wk =   0.0185185
        k(   57) = (  -0.5000000   0.3193718   0.0000000), wk =   0.0185185
        k(   58) = (  -0.5000000   0.3193718   0.1662844), wk =   0.0370370
        k(   59) = (  -0.5000000   0.3193718   0.3325687), wk =   0.0370370
        k(   60) = (  -0.5000000   0.3193718  -0.4988531), wk =   0.0185185
        k(   61) = (  -0.5000000  -0.4790576   0.0000000), wk =   0.0092593
        k(   62) = (  -0.5000000  -0.4790576   0.1662844), wk =   0.0185185
        k(   63) = (  -0.5000000  -0.4790576   0.3325687), wk =   0.0185185
        k(   64) = (  -0.5000000  -0.4790576  -0.4988531), wk =   0.0092593

     Initial potential from superposition of free atoms

     starting charge  367.99656, renormalised to  368.20000
     Starting wfc are  232 randomized atomic wfcs

     Self-consistent Calculation

     iteration #  1     ecut=   120.00 Ry     beta= 0.70
     Davidson diagonalization with overlap
     ethr =  1.00E-02,  avg # of iterations =  5.0

     total energy              =   -6253.81649759 Ry
     Harris-Foulkes estimate   =   -6264.47824994 Ry
     estimated scf accuracy    <      13.47819106 Ry

[...]

     total energy              =   -6260.97275815 Ry
     Harris-Foulkes estimate   =   -6260.97275817 Ry
     estimated scf accuracy    <       0.00000005 Ry

     iteration # 13     ecut=   120.00 Ry     beta= 0.70
     Davidson diagonalization with overlap
     ethr =  1.23E-11,  avg # of iterations =  2.7

     End of self-consistent calculation

          k = 0.0000 0.0000 0.0000 ( 62331 PWs)   bands (ev):

   -66.1569 -66.1565 -66.1560 -66.1560 -66.1556 -66.1555 -66.1551 -66.1546
   -30.5617 -30.5564 -30.5553 -30.5501 -30.5187 -30.5116 -30.5105 -30.5103
   -30.5095 -30.4987 -30.4975 -30.4955 -30.4880 -30.4828 -30.4766 -30.4721
   -30.4118 -30.4117 -30.4102 -30.4102 -30.4077 -30.4032 -30.4006 -30.3969
   -20.3145 -20.3144 -20.3144 -20.3143 -20.3142 -20.3141 -20.3141 -20.3139
   -20.2986 -20.2983 -20.2981 -20.2978 -20.2954 -20.2949 -20.2948 -20.2942
   -20.2942 -20.2938 -20.2936 -20.2932 -20.2925 -20.2920 -20.2919 -20.2915
   -20.2914 -20.2910 -20.2908 -20.2906 -20.2905 -20.2901 -20.2900 -20.2898
   -20.2837 -20.2833 -20.2833 -20.2830 -20.2794 -20.2791 -20.2790 -20.2787
   -20.2778 -20.2778 -20.2767 -20.2767 -20.2717 -20.2716 -20.2714 -20.2714
   -20.2700 -20.2699 -20.2698 -20.2697 -20.2676 -20.2676 -20.2663 -20.2663
    -9.9614  -9.6630  -9.5415  -9.5399  -9.2599  -9.2441  -9.1274  -9.0406
    -9.0232  -8.9202  -8.8915  -8.8887  -7.8841  -7.8090  -7.8038  -7.7936
    -7.7811  -7.7655  -7.7638  -7.7405  -7.6758  -7.6663  -7.6466  -7.6440
     1.1930   1.1986   1.2635   1.2810   1.2833   1.3203   1.3278   1.5465
     1.5682   1.5957   1.5971   1.8193   2.4064   2.4950   2.5393   2.5586
     2.6750   2.7067   4.1408   4.1849   4.3543   4.4358   4.7024   4.7312
     4.7635   4.7720   4.7815   4.7898   4.9827   4.9944   5.1429   5.4275
     5.4310   5.4860   5.5051   5.5384   5.5386   5.5915   5.6581   5.7997
     5.8091   5.8156   5.8296   5.8795   5.9580   6.0086   6.0457   6.0792
     6.0949   6.2490   6.2724   6.4747   6.4836   6.7822   6.7973   6.8479
     6.8658   6.8923   6.9408   6.9845   7.0039   7.0425   7.2422   7.2702
     7.2896   7.3137   7.8368   7.8538   7.9979   8.0649   8.0795   8.1441
     9.3688   9.3877   9.9211   9.9296   9.9462   9.9598  12.2447  12.2663
    12.3659  12.3809  12.4262  12.4327  12.5442  12.5869  12.6802  12.8898
    13.1814  13.2362  13.2905  13.2945  13.7000  13.8427  14.0881  14.0956
    14.3475  14.4192  14.6222  14.8662  15.3015  15.3238  15.5460  15.9518
    16.0065  16.8075  16.9790  17.0438  17.3988

[...]

          k = 0.3333-0.4791-0.4989 ( 62368 PWs)   bands (ev):

[...]

          k =-0.5000 0.0000 0.0000 ( 62448 PWs)   bands (ev):

[...]

          k =-0.5000-0.4791-0.4989 ( 62352 PWs)   bands (ev):

   -66.1558 -66.1558 -66.1558 -66.1558 -66.1558 -66.1558 -66.1558 -66.1558
   -30.5258 -30.5258 -30.5258 -30.5258 -30.5251 -30.5251 -30.5251 -30.5251
   -30.4628 -30.4627 -30.4627 -30.4627 -30.4604 -30.4603 -30.4603 -30.4603
   -30.4459 -30.4459 -30.4459 -30.4459 -30.4435 -30.4435 -30.4435 -30.4435
   -20.3142 -20.3142 -20.3142 -20.3142 -20.3142 -20.3142 -20.3142 -20.3142
   -20.2963 -20.2963 -20.2963 -20.2963 -20.2962 -20.2961 -20.2961 -20.2961
   -20.2929 -20.2929 -20.2929 -20.2929 -20.2927 -20.2927 -20.2927 -20.2927
   -20.2911 -20.2911 -20.2911 -20.2911 -20.2909 -20.2908 -20.2908 -20.2908
   -20.2811 -20.2811 -20.2811 -20.2811 -20.2809 -20.2809 -20.2809 -20.2809
   -20.2739 -20.2739 -20.2739 -20.2739 -20.2738 -20.2738 -20.2738 -20.2738
   -20.2692 -20.2692 -20.2692 -20.2692 -20.2692 -20.2692 -20.2692 -20.2692
    -8.9625  -8.9625  -8.9625  -8.9625  -8.9450  -8.9450  -8.9450  -8.9450
    -8.4425  -8.4425  -8.4425  -8.4425  -8.4176  -8.4176  -8.4176  -8.4176
    -8.3767  -8.3767  -8.3767  -8.3767  -8.3519  -8.3519  -8.3519  -8.3519
     2.9091   2.9091   2.9091   2.9091   2.9895   2.9895   2.9895   2.9895
     3.1140   3.1140   3.1140   3.1141   3.2230   3.2230   3.2230   3.2230
     3.3368   3.3368   3.3368   3.3368   3.4951   3.4951   3.4951   3.4951
     4.1193   4.1193   4.1193   4.1193   4.1431   4.1431   4.1431   4.1431
     4.3061   4.3061   4.3061   4.3061   4.3570   4.3570   4.3570   4.3570
     4.4304   4.4304   4.4304   4.4304   4.4955   4.4955   4.4955   4.4955
     7.0961   7.0961   7.0961   7.0961   7.2471   7.2471   7.2471   7.2471
     7.3035   7.3035   7.3035   7.3035   7.3505   7.3505   7.3505   7.3505
     7.5345   7.5345   7.5345   7.5345   7.5920   7.5920   7.5920   7.5920
    11.8423  11.8423  11.8423  11.8423  11.8656  11.8656  11.8656  11.8656
    12.1465  12.1465  12.1465  12.1465  12.2971  12.2971  12.2971  12.2971
    12.4468  12.4468  12.4468  12.4468  12.5287  12.5287  12.5287  12.5287
    17.1024  17.1024  17.1024  17.1024  17.1836  17.1836  17.1837  17.1837
    17.4048  17.4049  17.4049  17.4050  17.4458

     the Fermi energy is     9.7018 ev

!    total energy              =   -6260.97275816 Ry
     Harris-Foulkes estimate   =   -6260.97275816 Ry
     estimated scf accuracy    <          1.4E-09 Ry

     The total energy is the sum of the following terms:

     one-electron contribution =   -4726.62211953 Ry
     hartree contribution      =    2600.18996317 Ry
     xc contribution           =    -965.88615004 Ry
     ewald contribution        =   -3168.65441969 Ry
     smearing contrib. (-TS)   =      -0.00003206 Ry

     convergence has been achieved in  13 iterations

     Writing output data file Landau_11.save

     General routines

     Parallel routines

   This run was terminated on:   1:51:47  19Mar2020

   JOB DONE.