     Program PWSCF v.6.2 (svn rev. 14038) starts on 30Apr2019 at 20:17:36

     K-points division:     npool     =      32
     Reading input from rscf.in

     Current dimensions of program PWSCF are:
     Max number of different atomic species (ntypx) = 10
     Max number of k-points (npk) =  40000
     Max angular momentum in pseudopotentials (lmaxx) =  3

     Subspace diagonalization in iterative solution of the eigenvalue problem:
     a serial algorithm will be used

     bravais-lattice index     =            0
     lattice parameter (alat)  =      13.8397  a.u.
     unit-cell volume          =    2804.9816 (a.u.)^3
     number of atoms/cell      =           32
     number of atomic types    =            2
     number of electrons       =       368.00
     number of Kohn-Sham states=          221
     kinetic-energy cutoff     =     120.0000  Ry
     charge density cutoff     =     480.0000  Ry
     convergence threshold     =      1.0E-08
     mixing beta               =       0.7000
     number of iterations used =            8  plain     mixing
     Exchange-correlation      = SLA PW NOGX NOGC ( 1  4  0  0 0 0)
     nstep                     =           50

     celldm(1)=  13.839685  celldm(2)=   0.000000  celldm(3)=   0.000000
     celldm(4)=   0.000000  celldm(5)=   0.000000  celldm(6)=   0.000000

     crystal axes: (cart. coord. in units of alat)
               a(1) = (   1.000000   0.000000   0.000000 )
               a(2) = (   0.000000   1.058160   0.000000 )
               a(3) = (   0.000000   0.000000   1.000000 )

     reciprocal axes: (cart. coord. in units 2 pi/alat)
               b(1) = (  1.000000  0.000000  0.000000 )
               b(2) = (  0.000000  0.945037  0.000000 )
               b(3) = (  0.000000  0.000000  1.000000 )

     PseudoPot. # 1 for W  read from file:
     /cluster/scratch/mnoe/QE/pps/W_ONCV_LDA-4.0.upf
     MD5 check sum: ba0307d5d4cd419d6f1d13dc49d7c13a
     Pseudo is Norm-conserving + core correction, Zval = 28.0
     Generated using ONCVPSP code by D. R. Hamann
     Using radial grid of 1380 points,  8 beta functions with:
                l(1) =   0
                l(2) =   0
                l(3) =   1
                l(4) =   1
                l(5) =   2
                l(6) =   2
                l(7) =   3
                l(8) =   3

     PseudoPot. # 2 for O  read from file:
     /cluster/scratch/mnoe/QE/pps/O_ONCV_LDA-3.0.upf
     MD5 check sum: a1bd6164e7280c17a38c229939bfbd54
     Pseudo is Norm-conserving + core correction, Zval =  6.0
     Generated using ONCVPSP code by D. R. Hamann
     Using radial grid of  926 points,  5 beta functions with:
                l(1) =   0
                l(2) =   0
                l(3) =   1
                l(4) =   1
                l(5) =   2

     atomic species   valence    mass     pseudopotential
        W             28.00   183.84000     W ( 1.00)
        O              6.00    15.99940     O ( 1.00)

      8 Sym. Ops. (no inversion) found ( 4 have fractional translation)

   Cartesian axes

     site n.     atom                  positions (alat units)
         1           W   tau(   1) = (   0.2517900   0.2982530   0.2500500  )
         2           W   tau(   2) = (  -0.2500500   0.7599071  -0.7482101  )
         3           W   tau(   3) = (   0.2482100   0.2308271   0.7500500  )
         4           W   tau(   4) = (   0.7500500   0.8273330   0.7517900  )
         5           W   tau(   5) = (   0.7482100   0.2982530   0.7499500  )
         6           W   tau(   6) = (   0.2500500   0.7599071   0.7482100  )
         7           W   tau(   7) = (  -0.2482101   0.2308271  -0.7500500  )
         8           W   tau(   8) = (   0.2499500   0.8273330   0.2482100  )
         9           O   tau(   9) = (   0.2519800   0.0088039   0.2514400  )
        10           O   tau(  10) = (  -0.2514399   1.0493562  -0.7480200  )
        11           O   tau(  11) = (   0.2480200   0.5202761   0.7514400  )
        12           O   tau(  12) = (   0.7514400   0.5378839   0.7519800  )
        13           O   tau(  13) = (   0.7480200   0.0088039   0.7485600  )
        14           O   tau(  14) = (   0.2514400   1.0493562   0.7480200  )
        15           O   tau(  15) = (  -0.2480200   0.5202761  -0.7514400  )
        16           O   tau(  16) = (   0.2485600   0.5378839   0.2480200  )
        17           O   tau(  17) = (   0.4993700   0.2667939   0.6995400  )
        18           O   tau(  18) = (   0.4998700   0.7921703   0.8004600  )
        19           O   tau(  19) = (  -0.9993700   0.2622862   1.1995400  )
        20           O   tau(  20) = (   0.0001301   0.7950697   0.3004600  )
        21           O   tau(  21) = (   0.5006300   0.2667939   0.3004600  )
        22           O   tau(  22) = (   0.5001300   0.7921703   1.1995400  )
        23           O   tau(  23) = (  -0.0006300   0.2622862   0.8004600  )
        24           O   tau(  24) = (  -1.0001300   0.7950697   0.6995400  )
        25           O   tau(  25) = (   0.6995400   0.2630903   2.0001300  )
        26           O   tau(  26) = (   0.3004600   0.7913662   0.4993700  )
        27           O   tau(  27) = (   0.8004600   0.2659897   0.5001300  )
        28           O   tau(  28) = (   0.1995400   0.7958739   1.9993700  )
        29           O   tau(  29) = (   0.3004600   0.2630903   0.9998700  )
        30           O   tau(  30) = (   0.6995400   0.7913662   0.5006300  )
        31           O   tau(  31) = (   0.1995400   0.2659897   0.4998700  )
        32           O   tau(  32) = (   0.8004600   0.7958739   1.0006300  )

     number of k points=    40  gaussian smearing, width (Ry)=  0.0007
                       cart. coord. in units 2pi/alat
        k(    1) = (   0.0000000   0.0000000   0.0000000), wk =   0.0092593
        k(    2) = (   0.0000000   0.0000000   0.1666667), wk =   0.0370370
        k(    3) = (   0.0000000   0.0000000   0.3333333), wk =   0.0370370
        k(    4) = (   0.0000000   0.0000000  -0.5000000), wk =   0.0185185
        k(    5) = (   0.0000000   0.1575061   0.0000000), wk =   0.0185185
        k(    6) = (   0.0000000   0.1575061   0.1666667), wk =   0.0740741
        k(    7) = (   0.0000000   0.1575061   0.3333333), wk =   0.0740741
        k(    8) = (   0.0000000   0.1575061  -0.5000000), wk =   0.0370370
        k(    9) = (   0.0000000   0.3150122   0.0000000), wk =   0.0185185
        k(   10) = (   0.0000000   0.3150122   0.1666667), wk =   0.0740741
        k(   11) = (   0.0000000   0.3150122   0.3333333), wk =   0.0740741
        k(   12) = (   0.0000000   0.3150122  -0.5000000), wk =   0.0370370
        k(   13) = (   0.0000000  -0.4725183   0.0000000), wk =   0.0092593
        k(   14) = (   0.0000000  -0.4725183   0.1666667), wk =   0.0370370
        k(   15) = (   0.0000000  -0.4725183   0.3333333), wk =   0.0370370
        k(   16) = (   0.0000000  -0.4725183  -0.5000000), wk =   0.0185185
        k(   17) = (   0.1666667   0.0000000   0.1666667), wk =   0.0370370
        k(   18) = (   0.1666667   0.0000000   0.3333333), wk =   0.0740741
        k(   19) = (   0.1666667   0.0000000  -0.5000000), wk =   0.0370370
        k(   20) = (   0.1666667   0.1575061   0.1666667), wk =   0.0740741
        k(   21) = (   0.1666667   0.1575061   0.3333333), wk =   0.1481481
        k(   22) = (   0.1666667   0.1575061  -0.5000000), wk =   0.0740741
        k(   23) = (   0.1666667   0.3150122   0.1666667), wk =   0.0740741
        k(   24) = (   0.1666667   0.3150122   0.3333333), wk =   0.1481481
        k(   25) = (   0.1666667   0.3150122  -0.5000000), wk =   0.0740741
        k(   26) = (   0.1666667  -0.4725183   0.1666667), wk =   0.0370370
        k(   27) = (   0.1666667  -0.4725183   0.3333333), wk =   0.0740741
        k(   28) = (   0.1666667  -0.4725183  -0.5000000), wk =   0.0370370
        k(   29) = (   0.3333333   0.0000000   0.3333333), wk =   0.0370370
        k(   30) = (   0.3333333   0.0000000  -0.5000000), wk =   0.0370370
        k(   31) = (   0.3333333   0.1575061   0.3333333), wk =   0.0740741
        k(   32) = (   0.3333333   0.1575061  -0.5000000), wk =   0.0740741
        k(   33) = (   0.3333333   0.3150122   0.3333333), wk =   0.0740741
        k(   34) = (   0.3333333   0.3150122  -0.5000000), wk =   0.0740741
        k(   35) = (   0.3333333  -0.4725183   0.3333333), wk =   0.0370370
        k(   36) = (   0.3333333  -0.4725183  -0.5000000), wk =   0.0370370
        k(   37) = (  -0.5000000   0.0000000  -0.5000000), wk =   0.0092593
        k(   38) = (  -0.5000000   0.1575061  -0.5000000), wk =   0.0185185
        k(   39) = (  -0.5000000   0.3150122  -0.5000000), wk =   0.0185185
        k(   40) = (  -0.5000000  -0.4725183  -0.5000000), wk =   0.0092593

     Initial potential from superposition of free atoms

     starting charge  367.99656, renormalised to  368.00000
     Starting wfc are  232 randomized atomic wfcs

     Self-consistent Calculation

     iteration #  1     ecut=   120.00 Ry     beta= 0.70
     Davidson diagonalization with overlap
     ethr =  1.00E-02,  avg # of iterations =  5.0

     total energy              =   -6253.97890604 Ry
     Harris-Foulkes estimate   =   -6264.58669855 Ry
     estimated scf accuracy    <      13.43151431 Ry

[...]

     End of self-consistent calculation

          k = 0.0000 0.0000 0.0000 ( 62239 PWs)   bands (ev):

   -66.1758 -66.1754 -66.1748 -66.1748 -66.1744 -66.1744 -66.1737 -66.1734
   -30.5692 -30.5659 -30.5658 -30.5626 -30.5207 -30.5206 -30.5179 -30.5170
   -30.5154 -30.5154 -30.5123 -30.5123 -30.5090 -30.5067 -30.5067 -30.5048
   -30.4198 -30.4198 -30.4171 -30.4171 -30.4156 -30.4153 -30.4129 -30.4126
   -20.3360 -20.3359 -20.3359 -20.3359 -20.3359 -20.3359 -20.3358 -20.3358
   -20.3183 -20.3181 -20.3181 -20.3178 -20.3134 -20.3132 -20.3130 -20.3128
   -20.3128 -20.3128 -20.3126 -20.3126 -20.3125 -20.3123 -20.3121 -20.3121
   -20.3117 -20.3117 -20.3115 -20.3114 -20.3110 -20.3110 -20.3108 -20.3106
   -20.3040 -20.3039 -20.3036 -20.3036 -20.3034 -20.3032 -20.3031 -20.3031
   -20.3021 -20.3021 -20.3019 -20.3019 -20.3018 -20.3018 -20.3016 -20.3015
   -20.2960 -20.2960 -20.2954 -20.2954 -20.2954 -20.2953 -20.2949 -20.2948
    -9.9512  -9.6763  -9.5086  -9.5086  -9.2441  -9.2441  -9.0714  -9.0557
    -9.0438  -8.8755  -8.8499  -8.8499  -7.8544  -7.7949  -7.7949  -7.7832
    -7.7829  -7.7580  -7.7571  -7.7433  -7.6278  -7.6278  -7.6068  -7.6068
     1.1830   1.1834   1.2661   1.2661   1.2835   1.2835   1.3682   1.6306
     1.6306   1.6360   1.6373   1.8556   2.3858   2.4588   2.5798   2.5807
     2.7283   2.7283   4.1321   4.1321   4.3521   4.3521   4.8364   4.8388
     4.8421   4.8422   4.8689   4.8689   5.0351   5.0351   5.0673   5.4419
     5.4419   5.5163   5.5163   5.5261   5.5261   5.5814   5.5814   5.8100
     5.8100   5.8785   5.8787   5.9406   5.9607   6.0334   6.0342   6.1045
     6.1045   6.2449   6.2450   6.5753   6.5753   6.8042   6.8042   6.8314
     6.8315   6.8820   7.0190   7.0197   7.0877   7.0877   7.3896   7.3896
     7.4343   7.4343   7.7783   7.7920   8.0749   8.0749   8.1441   8.1454
     9.2268   9.2339   9.9865   9.9868  10.0261  10.0261  12.2231  12.2231
[...]
W        0.248210008   0.218140012   0.750050006    0   0   0
W        0.750049966   0.781859972   0.751789992    0   0   0
W        0.748210034   0.281860003   0.749949994    0   0   0
W        0.250050006   0.718139997   0.748210008    0   0   0
W       -0.248210074   0.218140012  -0.750050006    0   0   0
W        0.249949994   0.781859972   0.248210034    0   0   0
O        0.251980020   0.008320000   0.251439969    0   0   0
O       -0.251439950   0.991680023  -0.748020012    0   0   0
O        0.248019980   0.491679992   0.751439982    0   0   0
O        0.751439969   0.508319977   0.751980020    0   0   0
O        0.748020031   0.008320000   0.748560018    0   0   0
O        0.251439982   0.991680023   0.748019980    0   0   0
O       -0.248020012   0.491679992  -0.751439950    0   0   0
O        0.248560018   0.508319977   0.248020031    0   0   0
O        0.499370010   0.252130005   0.699540004    0   0   0
O        0.499870004   0.748629968   0.800459963    0   0   0
O       -0.999369993   0.247870026   1.199540037    0   0   0
O        0.000130060   0.751369942   0.300460012    0   0   0
O        0.500629990   0.252130005   0.300460012    0   0   0
O        0.500129996   0.748629968   1.199540037    0   0   0
O       -0.000629959   0.247870026   0.800459963    0   0   0
O       -1.000130012   0.751369942   0.699540004    0   0   0
O        0.699540037   0.248629997   2.000130028    0   0   0
O        0.300459996   0.747869981   0.499370026    0   0   0
O        0.800459963   0.251370034   0.500130045    0   0   0
O        0.199540020   0.752129929   1.999370042    0   0   0
O        0.300459996   0.248629997   0.999869989    0   0   0
O        0.699540037   0.747869981   0.500630039    0   0   0
O        0.199540020   0.251370034   0.499870020    0   0   0
O        0.800459963   0.752129929   1.000629975    0   0   0
End final coordinates

     A final scf calculation at the relaxed structure.
     The G-vectors are recalculated for the final unit cell
     Results may differ from those at the preceding step.

     bravais-lattice index     =            0
     lattice parameter (alat)  =      13.8397  a.u.
     unit-cell volume          =    2804.5887 (a.u.)^3
     number of atoms/cell      =           32
     number of atomic types    =            2
     number of electrons       =       368.00
     number of Kohn-Sham states=          221
     kinetic-energy cutoff     =     120.0000  Ry
     charge density cutoff     =     480.0000  Ry
     convergence threshold     =      1.0E-10
     mixing beta               =       0.7000
     number of iterations used =            8  plain     mixing
     Exchange-correlation      = SLA PW NOGX NOGC ( 1  4  0  0 0 0)

     celldm(1)=  13.839685  celldm(2)=   0.000000  celldm(3)=   0.000000
     celldm(4)=   0.000000  celldm(5)=   0.000000  celldm(6)=   0.000000

     crystal axes: (cart. coord. in units of alat)
               a(1) = (   0.999992   0.000000   0.000000 )
               a(2) = (   0.000000   1.058028   0.000000 )
               a(3) = (   0.000000   0.000000   0.999992 )

     reciprocal axes: (cart. coord. in units 2 pi/alat)
               b(1) = (  1.000008  0.000000  0.000000 )
               b(2) = (  0.000000  0.945155  0.000000 )
               b(3) = (  0.000000  0.000000  1.000008 )

     PseudoPot. # 1 for W  read from file:
     /cluster/scratch/mnoe/QE/pps/W_ONCV_LDA-4.0.upf
     MD5 check sum: ba0307d5d4cd419d6f1d13dc49d7c13a
     Pseudo is Norm-conserving + core correction, Zval = 28.0
     Generated using ONCVPSP code by D. R. Hamann
     Using radial grid of 1380 points,  8 beta functions with:
                l(1) =   0
                l(2) =   0
                l(3) =   1
                l(4) =   1
                l(5) =   2
                l(6) =   2
                l(7) =   3
                l(8) =   3

     PseudoPot. # 2 for O  read from file:
     /cluster/scratch/mnoe/QE/pps/O_ONCV_LDA-3.0.upf
     MD5 check sum: a1bd6164e7280c17a38c229939bfbd54
     Pseudo is Norm-conserving + core correction, Zval =  6.0
     Generated using ONCVPSP code by D. R. Hamann
     Using radial grid of  926 points,  5 beta functions with:
                l(1) =   0
                l(2) =   0
                l(3) =   1
                l(4) =   1
                l(5) =   2

     atomic species   valence    mass     pseudopotential
        W             28.00   183.84000     W ( 1.00)
        O              6.00    15.99940     O ( 1.00)

      8 Sym. Ops. (no inversion) found ( 4 have fractional translation)

   Cartesian axes

     site n.     atom                  positions (alat units)
         1           W   tau(   1) = (   0.2517881   0.2982157   0.2500481  )
         2           W   tau(   2) = (  -0.2500481   0.7598120  -0.7482045  )
         3           W   tau(   3) = (   0.2482081   0.2307982   0.7500444  )
         4           W   tau(   4) = (   0.7500443   0.8272295   0.7517843  )
         5           W   tau(   5) = (   0.7482044   0.2982157   0.7499444  )
         6           W   tau(   6) = (   0.2500481   0.7598120   0.7482044  )
         7           W   tau(   7) = (  -0.2482082   0.2307982  -0.7500444  )
         8           W   tau(   8) = (   0.2499481   0.8272295   0.2482082  )
         9           O   tau(   9) = (   0.2519781   0.0088028   0.2514381  )
        10           O   tau(  10) = (  -0.2514381   1.0492250  -0.7480144  )
        11           O   tau(  11) = (   0.2480181   0.5202111   0.7514343  )
        12           O   tau(  12) = (   0.7514343   0.5378166   0.7519744  )
        13           O   tau(  13) = (   0.7480144   0.0088028   0.7485544  )
        14           O   tau(  14) = (   0.2514381   1.0492250   0.7480144  )
        15           O   tau(  15) = (  -0.2480181   0.5202111  -0.7514343  )
        16           O   tau(  16) = (   0.2485582   0.5378166   0.2480182  )
        17           O   tau(  17) = (   0.4993663   0.2667605   0.6995347  )
        18           O   tau(  18) = (   0.4998662   0.7920713   0.8004539  )
        19           O   tau(  19) = (  -0.9993625   0.2622534   1.1995310  )
        20           O   tau(  20) = (   0.0001301   0.7949702   0.3004578  )
        21           O   tau(  21) = (   0.5006262   0.2667605   0.3004578  )
        22           O   tau(  22) = (   0.5001262   0.7920713   1.1995310  )
        23           O   tau(  23) = (  -0.0006300   0.2622534   0.8004539  )
        24           O   tau(  24) = (  -1.0001225   0.7949702   0.6995347  )
        25           O   tau(  25) = (   0.6995348   0.2630574   2.0001150  )
        26           O   tau(  26) = (   0.3004577   0.7912672   0.4993663  )
        27           O   tau(  27) = (   0.8004539   0.2659565   0.5001263  )
        28           O   tau(  28) = (   0.1995385   0.7957743   1.9993550  )
        29           O   tau(  29) = (   0.3004577   0.2630574   0.9998625  )
        30           O   tau(  30) = (   0.6995348   0.7912672   0.5006263  )
        31           O   tau(  31) = (   0.1995385   0.2659565   0.4998663  )
        32           O   tau(  32) = (   0.8004539   0.7957743   1.0006225  )

     number of k points=    40  gaussian smearing, width (Ry)=  0.0007
                       cart. coord. in units 2pi/alat
        k(    1) = (   0.0000000   0.0000000   0.0000000), wk =   0.0092593
        k(    2) = (   0.0000000   0.0000000   0.1666679), wk =   0.0370370
        k(    3) = (   0.0000000   0.0000000   0.3333358), wk =   0.0370370
        k(    4) = (   0.0000000   0.0000000  -0.5000038), wk =   0.0185185
        k(    5) = (   0.0000000   0.1575258   0.0000000), wk =   0.0185185
        k(    6) = (   0.0000000   0.1575258   0.1666679), wk =   0.0740741
        k(    7) = (   0.0000000   0.1575258   0.3333358), wk =   0.0740741
        k(    8) = (   0.0000000   0.1575258  -0.5000038), wk =   0.0370370
        k(    9) = (   0.0000000   0.3150516   0.0000000), wk =   0.0185185
        k(   10) = (   0.0000000   0.3150516   0.1666679), wk =   0.0740741
        k(   11) = (   0.0000000   0.3150516   0.3333358), wk =   0.0740741
        k(   12) = (   0.0000000   0.3150516  -0.5000038), wk =   0.0370370
        k(   13) = (   0.0000000  -0.4725774   0.0000000), wk =   0.0092593
        k(   14) = (   0.0000000  -0.4725774   0.1666679), wk =   0.0370370
        k(   15) = (   0.0000000  -0.4725774   0.3333358), wk =   0.0370370
        k(   16) = (   0.0000000  -0.4725774  -0.5000038), wk =   0.0185185
        k(   17) = (   0.1666679   0.0000000   0.1666679), wk =   0.0370370
        k(   18) = (   0.1666679   0.0000000   0.3333358), wk =   0.0740741
        k(   19) = (   0.1666679   0.0000000  -0.5000038), wk =   0.0370370
        k(   20) = (   0.1666679   0.1575258   0.1666679), wk =   0.0740741
        k(   21) = (   0.1666679   0.1575258   0.3333358), wk =   0.1481481
        k(   22) = (   0.1666679   0.1575258  -0.5000038), wk =   0.0740741
        k(   23) = (   0.1666679   0.3150516   0.1666679), wk =   0.0740741
        k(   24) = (   0.1666679   0.3150516   0.3333358), wk =   0.1481481
        k(   25) = (   0.1666679   0.3150516  -0.5000038), wk =   0.0740741
        k(   26) = (   0.1666679  -0.4725774   0.1666679), wk =   0.0370370
        k(   27) = (   0.1666679  -0.4725774   0.3333358), wk =   0.0740741
        k(   28) = (   0.1666679  -0.4725774  -0.5000038), wk =   0.0370370
        k(   29) = (   0.3333358   0.0000000   0.3333358), wk =   0.0370370
        k(   30) = (   0.3333358   0.0000000  -0.5000038), wk =   0.0370370
        k(   31) = (   0.3333358   0.1575258   0.3333358), wk =   0.0740741
        k(   32) = (   0.3333358   0.1575258  -0.5000038), wk =   0.0740741
        k(   33) = (   0.3333358   0.3150516   0.3333358), wk =   0.0740741
        k(   34) = (   0.3333358   0.3150516  -0.5000038), wk =   0.0740741
        k(   35) = (   0.3333358  -0.4725774   0.3333358), wk =   0.0370370
        k(   36) = (   0.3333358  -0.4725774  -0.5000038), wk =   0.0370370
        k(   37) = (  -0.5000038   0.0000000  -0.5000038), wk =   0.0092593
        k(   38) = (  -0.5000038   0.1575258  -0.5000038), wk =   0.0185185
        k(   39) = (  -0.5000038   0.3150516  -0.5000038), wk =   0.0185185
        k(   40) = (  -0.5000038  -0.4725774  -0.5000038), wk =   0.0092593

     Initial potential from superposition of free atoms

     starting charge  367.99656, renormalised to  368.00000
     Starting wfc are  232 randomized atomic wfcs

     Writing output data file Landau_2.save

     Self-consistent Calculation

[...]

     total energy              =   -6261.10944575 Ry
     Harris-Foulkes estimate   =   -6261.10944575 Ry
     estimated scf accuracy    <          5.5E-10 Ry

     iteration # 14     ecut=   120.00 Ry     beta= 0.70
     Davidson diagonalization with overlap
     ethr =  1.49E-13,  avg # of iterations =  2.2

     End of self-consistent calculation

[...]

          k = 0.3333-0.4726-0.5000 ( 62196 PWs)   bands (ev):

[...]

          k =-0.5000-0.4726-0.5000 ( 62272 PWs)   bands (ev):

   -66.1719 -66.1719 -66.1719 -66.1719 -66.1719 -66.1719 -66.1719 -66.1718
   -30.5362 -30.5362 -30.5361 -30.5361 -30.5361 -30.5361 -30.5361 -30.5361
   -30.4641 -30.4641 -30.4641 -30.4641 -30.4640 -30.4640 -30.4640 -30.4640
   -30.4624 -30.4624 -30.4623 -30.4623 -30.4622 -30.4622 -30.4622 -30.4622
   -20.3331 -20.3331 -20.3331 -20.3331 -20.3331 -20.3331 -20.3331 -20.3331
   -20.3128 -20.3128 -20.3128 -20.3127 -20.3127 -20.3127 -20.3127 -20.3127
   -20.3092 -20.3092 -20.3092 -20.3092 -20.3092 -20.3092 -20.3092 -20.3092
   -20.3090 -20.3090 -20.3090 -20.3090 -20.3089 -20.3089 -20.3089 -20.3089
   -20.3003 -20.3003 -20.3003 -20.3003 -20.3003 -20.3003 -20.3003 -20.3003
   -20.2967 -20.2967 -20.2967 -20.2967 -20.2967 -20.2967 -20.2967 -20.2967
   -20.2955 -20.2955 -20.2955 -20.2955 -20.2955 -20.2955 -20.2955 -20.2955
    -8.9350  -8.9350  -8.9330  -8.9330  -8.9330  -8.9329  -8.9316  -8.9316
    -8.4187  -8.4187  -8.4163  -8.4163  -8.4163  -8.4163  -8.4146  -8.4146
    -8.3382  -8.3381  -8.3368  -8.3368  -8.3367  -8.3367  -8.3339  -8.3339
     2.9938   2.9938   2.9965   2.9965   2.9965   2.9965   2.9998   2.9998
     3.1354   3.1355   3.1398   3.1398   3.1399   3.1399   3.1447   3.1447
     3.4337   3.4338   3.4496   3.4496   3.4496   3.4496   3.4637   3.4637
     4.1504   4.1504   4.1535   4.1535   4.1535   4.1536   4.1559   4.1559
     4.3804   4.3804   4.3805   4.3805   4.3814   4.3815   4.3816   4.3816
     4.4622   4.4622   4.4670   4.4670   4.4670   4.4670   4.4702   4.4702
     7.1907   7.1907   7.2087   7.2087   7.2087   7.2087   7.2278   7.2279
     7.3352   7.3352   7.3372   7.3372   7.3372   7.3372   7.3386   7.3386
     7.6018   7.6018   7.6064   7.6064   7.6064   7.6064   7.6115   7.6115
    11.7948  11.7948  11.7957  11.7957  11.7957  11.7958  11.7971  11.7971
    12.2696  12.2696  12.2856  12.2856  12.2856  12.2856  12.3029  12.3029
    12.5268  12.5269  12.5343  12.5343  12.5344  12.5344  12.5409  12.5409
    17.1615  17.1616  17.1682  17.1682  17.1682  17.1682  17.1742  17.1743
    17.3686  17.3686  17.3686  17.3686  17.3700

     the Fermi energy is     8.5420 ev

!    total energy              =   -6261.10944575 Ry
     Harris-Foulkes estimate   =   -6261.10944575 Ry
     estimated scf accuracy    <          8.8E-11 Ry

     The total energy is the sum of the following terms:

     one-electron contribution =   -4721.21294350 Ry
     hartree contribution      =    2597.33639865 Ry
     xc contribution           =    -965.66924636 Ry
     ewald contribution        =   -3171.56365454 Ry
     smearing contrib. (-TS)   =      -0.00000000 Ry

     convergence has been achieved in  14 iterations

     Forces acting on atoms (cartesian axes, Ry/au):

     atom    1 type  1   force =     0.00061512   -0.00001764    0.00012464
     atom    2 type  1   force =    -0.00012464    0.00001764    0.00061512
     atom    3 type  1   force =    -0.00061512    0.00001764    0.00012464
     atom    4 type  1   force =     0.00012464   -0.00001764    0.00061512
     atom    5 type  1   force =    -0.00061512   -0.00001764   -0.00012464
     atom    6 type  1   force =     0.00012464    0.00001764   -0.00061512
     atom    7 type  1   force =     0.00061512    0.00001764   -0.00012464
     atom    8 type  1   force =    -0.00012464   -0.00001764   -0.00061512
     atom    9 type  2   force =     0.00010286    0.00002498    0.00001983
     atom   10 type  2   force =    -0.00001983   -0.00002498    0.00010286
     atom   11 type  2   force =    -0.00010286   -0.00002498    0.00001983
     atom   12 type  2   force =     0.00001983    0.00002498    0.00010286
     atom   13 type  2   force =    -0.00010286    0.00002498   -0.00001983
     atom   14 type  2   force =     0.00001983   -0.00002498   -0.00010286
     atom   15 type  2   force =     0.00010286   -0.00002498   -0.00001983
     atom   16 type  2   force =    -0.00001983    0.00002498   -0.00010286
     atom   17 type  2   force =     0.00029118    0.00016274   -0.00001666
     atom   18 type  2   force =    -0.00005323    0.00018943    0.00000460
     atom   19 type  2   force =    -0.00029118   -0.00016274   -0.00001666
     atom   20 type  2   force =     0.00005323   -0.00018943    0.00000460
     atom   21 type  2   force =    -0.00029118    0.00016274    0.00001666
     atom   22 type  2   force =     0.00005323    0.00018943   -0.00000460
     atom   23 type  2   force =     0.00029118   -0.00016274    0.00001666
     atom   24 type  2   force =    -0.00005323   -0.00018943   -0.00000460
     atom   25 type  2   force =    -0.00000460    0.00018943    0.00005323
     atom   26 type  2   force =     0.00001666   -0.00016274    0.00029118
     atom   27 type  2   force =     0.00000460   -0.00018943    0.00005323
     atom   28 type  2   force =    -0.00001666    0.00016274    0.00029118
     atom   29 type  2   force =     0.00000460    0.00018943   -0.00005323
     atom   30 type  2   force =    -0.00001666   -0.00016274   -0.00029118
     atom   31 type  2   force =    -0.00000460   -0.00018943   -0.00005323
     atom   32 type  2   force =     0.00001666    0.00016274   -0.00029118

     Total force =     0.000000     Total SCF correction =     0.000000

     Computing stress (Cartesian axis) and pressure

          total   stress  (Ry/bohr**3)                   (kbar)     P=   -0.04
  -0.00000024   0.00000000   0.00000000         -0.04      0.00      0.00
   0.00000000  -0.00000027   0.00000000          0.00     -0.04      0.00
   0.00000000   0.00000000  -0.00000024          0.00      0.00     -0.04

     Writing output data file Landau_2.save

     General routines

     Parallel routines

   This run was terminated on:  22:21:56  30Apr2019

   JOB DONE.