     Program PWSCF v.6.2 (svn rev. 14038) starts on 26Mar2020 at  1:40:19

     K-points division:     npool     =      40
     Reading input from rscf.in

     Current dimensions of program PWSCF are:
     Max number of different atomic species (ntypx) = 10
     Max number of k-points (npk) =  40000
     Max angular momentum in pseudopotentials (lmaxx) =  3

     Subspace diagonalization in iterative solution of the eigenvalue problem:
     a serial algorithm will be used

     bravais-lattice index     =            0
     lattice parameter (alat)  =      13.8397  a.u.
     unit-cell volume          =    2804.9816 (a.u.)^3
     number of atoms/cell      =           32
     number of atomic types    =            2
     number of electrons       =       368.00
     number of Kohn-Sham states=          221
     kinetic-energy cutoff     =     120.0000  Ry
     charge density cutoff     =     480.0000  Ry
     convergence threshold     =      1.0E-08
     mixing beta               =       0.7000
     number of iterations used =            8  plain     mixing
     Exchange-correlation      = SLA PW NOGX NOGC ( 1  4  0  0 0 0)
     nstep                     =           50

     celldm(1)=  13.839685  celldm(2)=   0.000000  celldm(3)=   0.000000
     celldm(4)=   0.000000  celldm(5)=   0.000000  celldm(6)=   0.000000

     crystal axes: (cart. coord. in units of alat)
               a(1) = (   1.000000   0.000000   0.000000 )
               a(2) = (   0.000000   1.058160   0.000000 )
               a(3) = (   0.000000   0.000000   1.000000 )

     reciprocal axes: (cart. coord. in units 2 pi/alat)
               b(1) = (  1.000000  0.000000  0.000000 )
               b(2) = (  0.000000  0.945037  0.000000 )
               b(3) = (  0.000000  0.000000  1.000000 )

     PseudoPot. # 1 for W  read from file:
     /cluster/scratch/mnoe/QE/pps/W_ONCV_LDA-4.0.upf
     MD5 check sum: ba0307d5d4cd419d6f1d13dc49d7c13a
     Pseudo is Norm-conserving + core correction, Zval = 28.0
     Generated using ONCVPSP code by D. R. Hamann
     Using radial grid of 1380 points,  8 beta functions with:
                l(1) =   0
                l(2) =   0
                l(3) =   1
                l(4) =   1
                l(5) =   2
                l(6) =   2
                l(7) =   3
                l(8) =   3

     PseudoPot. # 2 for O  read from file:
     /cluster/scratch/mnoe/QE/pps/O_ONCV_LDA-3.0.upf
     MD5 check sum: a1bd6164e7280c17a38c229939bfbd54
     Pseudo is Norm-conserving + core correction, Zval =  6.0
     Generated using ONCVPSP code by D. R. Hamann
     Using radial grid of  926 points,  5 beta functions with:
                l(1) =   0
                l(2) =   0
                l(3) =   1
                l(4) =   1
                l(5) =   2

     atomic species   valence    mass     pseudopotential
        W             28.00   183.84000     W ( 1.00)
        O              6.00    15.99940     O ( 1.00)

      8 Sym. Ops. (no inversion) found ( 7 have fractional translation)

   Cartesian axes

     site n.     atom                  positions (alat units)
         1           W   tau(   1) = (   0.2194588   0.2944544  -0.0008745  )
         2           W   tau(   2) = (   0.7508745   0.7637057  -0.0305412  )
         3           W   tau(   3) = (   0.2805412   0.2346257   0.4991255  )
         4           W   tau(   4) = (   0.7491254   0.8235344   0.4694588  )
         5           W   tau(   5) = (   0.7805412   0.2944544   0.5008745  )
         6           W   tau(   6) = (   0.2491255   0.7637057   0.5305412  )
         7           W   tau(   7) = (   0.7194588   0.2346257   0.0008746  )
         8           W   tau(   8) = (   0.2508745   0.8235344   0.0305412  )
         9           O   tau(   9) = (   0.2164106   0.0077690  -0.0243684  )
        10           O   tau(  10) = (   0.7743684  -0.0077690  -0.0335894  )
        11           O   tau(  11) = (   0.2835894   0.5213110   0.4756315  )
        12           O   tau(  12) = (   0.7256316   0.5368491   0.4664106  )
        13           O   tau(  13) = (   0.7835893   0.0077690   0.5243684  )
        14           O   tau(  14) = (   0.2256315  -0.0077690   0.5335894  )
        15           O   tau(  15) = (   0.7164106   0.5213110   0.0243684  )
        16           O   tau(  16) = (   0.2743684   0.5368491   0.0335894  )
        17           O   tau(  17) = (   0.5108087   0.2262208   0.4583178  )
        18           O   tau(  18) = (   0.5022161   0.8182109   0.5416822  )
        19           O   tau(  19) = (  -0.0108087   0.3028592   0.9583178  )
        20           O   tau(  20) = (  -0.0022161   0.7690294   0.0416822  )
        21           O   tau(  21) = (   0.4891913   0.2262208   0.0416822  )
        22           O   tau(  22) = (   0.4977839   0.8182109   0.9583178  )
        23           O   tau(  23) = (   0.0108087   0.3028592   0.5416822  )
        24           O   tau(  24) = (   0.0022160   0.7690294   0.4583178  )
        25           O   tau(  25) = (   0.7083178   0.2891308   0.7477839  )
        26           O   tau(  26) = (   0.2916822   0.8319393   0.2608087  )
        27           O   tau(  27) = (   0.7916822   0.2399493   0.2477840  )
        28           O   tau(  28) = (   0.2083178   0.7553009   0.7608087  )
        29           O   tau(  29) = (   0.2916822   0.2891308   0.7522161  )
        30           O   tau(  30) = (   0.7083178   0.8319393   0.2391913  )
        31           O   tau(  31) = (   0.2083178   0.2399493   0.2522161  )
        32           O   tau(  32) = (   0.7916822   0.7553009   0.7391913  )

     number of k points=    40  gaussian smearing, width (Ry)=  0.0007
                       cart. coord. in units 2pi/alat
        k(    1) = (   0.0000000   0.0000000   0.0000000), wk =   0.0092593
        k(    2) = (   0.0000000   0.0000000   0.1666667), wk =   0.0370370
        k(    3) = (   0.0000000   0.0000000   0.3333333), wk =   0.0370370
        k(    4) = (   0.0000000   0.0000000  -0.5000000), wk =   0.0185185
        k(    5) = (   0.0000000   0.1575061   0.0000000), wk =   0.0185185
        k(    6) = (   0.0000000   0.1575061   0.1666667), wk =   0.0740741
        k(    7) = (   0.0000000   0.1575061   0.3333333), wk =   0.0740741
        k(    8) = (   0.0000000   0.1575061  -0.5000000), wk =   0.0370370
        k(    9) = (   0.0000000   0.3150122   0.0000000), wk =   0.0185185
        k(   10) = (   0.0000000   0.3150122   0.1666667), wk =   0.0740741
        k(   11) = (   0.0000000   0.3150122   0.3333333), wk =   0.0740741
        k(   12) = (   0.0000000   0.3150122  -0.5000000), wk =   0.0370370
        k(   13) = (   0.0000000  -0.4725183   0.0000000), wk =   0.0092593
        k(   14) = (   0.0000000  -0.4725183   0.1666667), wk =   0.0370370
        k(   15) = (   0.0000000  -0.4725183   0.3333333), wk =   0.0370370
        k(   16) = (   0.0000000  -0.4725183  -0.5000000), wk =   0.0185185
        k(   17) = (   0.1666667   0.0000000   0.1666667), wk =   0.0370370
        k(   18) = (   0.1666667   0.0000000   0.3333333), wk =   0.0740741
        k(   19) = (   0.1666667   0.0000000  -0.5000000), wk =   0.0370370
        k(   20) = (   0.1666667   0.1575061   0.1666667), wk =   0.0740741
        k(   21) = (   0.1666667   0.1575061   0.3333333), wk =   0.1481481
        k(   22) = (   0.1666667   0.1575061  -0.5000000), wk =   0.0740741
        k(   23) = (   0.1666667   0.3150122   0.1666667), wk =   0.0740741
        k(   24) = (   0.1666667   0.3150122   0.3333333), wk =   0.1481481
        k(   25) = (   0.1666667   0.3150122  -0.5000000), wk =   0.0740741
        k(   26) = (   0.1666667  -0.4725183   0.1666667), wk =   0.0370370
        k(   27) = (   0.1666667  -0.4725183   0.3333333), wk =   0.0740741
        k(   28) = (   0.1666667  -0.4725183  -0.5000000), wk =   0.0370370
        k(   29) = (   0.3333333   0.0000000   0.3333333), wk =   0.0370370
        k(   30) = (   0.3333333   0.0000000  -0.5000000), wk =   0.0370370
        k(   31) = (   0.3333333   0.1575061   0.3333333), wk =   0.0740741
        k(   32) = (   0.3333333   0.1575061  -0.5000000), wk =   0.0740741
        k(   33) = (   0.3333333   0.3150122   0.3333333), wk =   0.0740741
        k(   34) = (   0.3333333   0.3150122  -0.5000000), wk =   0.0740741
        k(   35) = (   0.3333333  -0.4725183   0.3333333), wk =   0.0370370
        k(   36) = (   0.3333333  -0.4725183  -0.5000000), wk =   0.0370370
        k(   37) = (  -0.5000000   0.0000000  -0.5000000), wk =   0.0092593
        k(   38) = (  -0.5000000   0.1575061  -0.5000000), wk =   0.0185185
        k(   39) = (  -0.5000000   0.3150122  -0.5000000), wk =   0.0185185
        k(   40) = (  -0.5000000  -0.4725183  -0.5000000), wk =   0.0092593

     Initial potential from superposition of free atoms

     starting charge  367.99656, renormalised to  368.00000
     Starting wfc are  232 randomized atomic wfcs

     Self-consistent Calculation

     iteration #  1     ecut=   120.00 Ry     beta= 0.70
     Davidson diagonalization with overlap
     ethr =  1.00E-02,  avg # of iterations =  4.7

     total energy              =   -6253.82914397 Ry
     Harris-Foulkes estimate   =   -6264.46089521 Ry
     estimated scf accuracy    <      13.45475830 Ry

[...]

     End of self-consistent calculation

          k = 0.0000 0.0000 0.0000 ( 62239 PWs)   bands (ev):

   -66.1743 -66.1739 -66.1734 -66.1734 -66.1729 -66.1729 -66.1724 -66.1720
   -30.7231 -30.7227 -30.7186 -30.7186 -30.6237 -30.6237 -30.6195 -30.6192
   -30.4927 -30.4919 -30.4845 -30.4845 -30.4060 -30.4060 -30.4048 -30.4043
   -30.3954 -30.3949 -30.3949 -30.3869 -30.3522 -30.3486 -30.3486 -30.3450
   -20.3338 -20.3337 -20.3335 -20.3335 -20.3332 -20.3332 -20.3330 -20.3329
   -20.3212 -20.3211 -20.3209 -20.3209 -20.3182 -20.3181 -20.3181 -20.3180
   -20.3180 -20.3178 -20.3178 -20.3177 -20.3140 -20.3140 -20.3139 -20.3137
   -20.3025 -20.3025 -20.3022 -20.3022 -20.3008 -20.3008 -20.3003 -20.3001
   -20.2999 -20.2995 -20.2995 -20.2992 -20.2957 -20.2951 -20.2951 -20.2947
   -20.2945 -20.2944 -20.2934 -20.2934 -20.2901 -20.2901 -20.2894 -20.2893
   -20.2873 -20.2872 -20.2867 -20.2867 -20.2837 -20.2837 -20.2830 -20.2829
   -10.0423  -9.8657  -9.6601  -9.6601  -9.2385  -9.2385  -9.0689  -9.0657
    -8.5427  -8.4876  -8.4741  -8.4741  -8.1450  -8.1015  -8.0040  -8.0040
    -7.7660  -7.7553  -7.6559  -7.6559  -7.5467  -7.4711  -7.4711  -7.4027
     1.0461   1.0595   1.1382   1.1382   1.4049   1.4049   1.5591   1.5788
     2.1204   2.1424   2.1665   2.1666   2.2388   2.2465   2.6210   2.8280
     2.8643   2.8643   4.1939   4.1939   4.3097   4.3576   4.3754   4.3754
     4.5810   4.5810   4.8130   4.9613   5.1336   5.2813   5.2813   5.3121
     5.3186   5.4406   5.4406   5.5769   5.5769   5.6340   5.7129   5.7129
     5.7608   5.7913   5.8905   5.9224   5.9624   5.9624   6.0071   6.0921
     6.2707   6.4413   6.5388   6.6114   6.6160   6.6160   6.7345   6.7345
     6.8486   7.0120   7.0120   7.1139   7.1483   7.1483   7.2560   7.2975
     7.3661   7.3661   7.7054   7.7454   7.9799   8.0469   8.0469   8.1819
     9.8185   9.9179  10.0524  10.0524  10.0988  10.1478  12.1769  12.1769
[...]
W        0.280541224   0.221729830   0.499125462    0   0   0
W        0.749125449   0.778270192   0.469458776    0   0   0
W        0.780541182   0.278270186   0.500874538    0   0   0
W        0.249125462   0.721729814   0.530541224    0   0   0
W        0.719458799   0.221729830   0.000874551    0   0   0
W        0.250874538   0.778270192   0.030541201    0   0   0
O        0.216410590   0.007342027  -0.024368412    0   0   0
O        0.774368387  -0.007342029  -0.033589368    0   0   0
O        0.283589368   0.492657977   0.475631538    0   0   0
O        0.725631569   0.507342029   0.466410604    0   0   0
O        0.783589343   0.007342027   0.524368447    0   0   0
O        0.225631525  -0.007342029   0.533589382    0   0   0
O        0.716410613   0.492657977   0.024368406    0   0   0
O        0.274368434   0.507342029   0.033589362    0   0   0
O        0.510808715   0.213786969   0.458317813    0   0   0
O        0.502216066   0.773239202   0.541682193    0   0   0
O       -0.010808688   0.286213005   0.958317846    0   0   0
O       -0.002216053   0.726760906   0.041682169    0   0   0
O        0.489191285   0.213786969   0.041682169    0   0   0
O        0.497783934   0.773239202   0.958317846    0   0   0
O        0.010808673   0.286213005   0.541682193    0   0   0
O        0.002216038   0.726760906   0.458317813    0   0   0
O        0.708317826   0.273239148   0.747783943    0   0   0
O        0.291682168   0.786213086   0.260808715    0   0   0
O        0.791682212   0.226760826   0.247783989    0   0   0
O        0.208317829   0.713787023   0.760808724    0   0   0
O        0.291682168   0.273239148   0.752216090    0   0   0
O        0.708317826   0.786213086   0.239191340    0   0   0
O        0.208317829   0.226760826   0.252216066    0   0   0
O        0.791682212   0.713787023   0.739191308    0   0   0
End final coordinates

     A final scf calculation at the relaxed structure.
     The G-vectors are recalculated for the final unit cell
     Results may differ from those at the preceding step.

     bravais-lattice index     =            0
     lattice parameter (alat)  =      13.8397  a.u.
     unit-cell volume          =    2775.5934 (a.u.)^3
     number of atoms/cell      =           32
     number of atomic types    =            2
     number of electrons       =       368.00
     number of Kohn-Sham states=          221
     kinetic-energy cutoff     =     120.0000  Ry
     charge density cutoff     =     480.0000  Ry
     convergence threshold     =      1.0E-10
     mixing beta               =       0.7000
     number of iterations used =            8  plain     mixing
     Exchange-correlation      = SLA PW NOGX NOGC ( 1  4  0  0 0 0)

     celldm(1)=  13.839685  celldm(2)=   0.000000  celldm(3)=   0.000000
     celldm(4)=   0.000000  celldm(5)=   0.000000  celldm(6)=   0.000000

     crystal axes: (cart. coord. in units of alat)
               a(1) = (   1.011065   0.000000   0.000000 )
               a(2) = (   0.000000   1.024280   0.000000 )
               a(3) = (   0.000000   0.000000   1.011065 )

     reciprocal axes: (cart. coord. in units 2 pi/alat)
               b(1) = (  0.989056  0.000000  0.000000 )
               b(2) = (  0.000000  0.976295  0.000000 )
               b(3) = (  0.000000  0.000000  0.989056 )

     PseudoPot. # 1 for W  read from file:
     /cluster/scratch/mnoe/QE/pps/W_ONCV_LDA-4.0.upf
     MD5 check sum: ba0307d5d4cd419d6f1d13dc49d7c13a
     Pseudo is Norm-conserving + core correction, Zval = 28.0
     Generated using ONCVPSP code by D. R. Hamann
     Using radial grid of 1380 points,  8 beta functions with:
                l(1) =   0
                l(2) =   0
                l(3) =   1
                l(4) =   1
                l(5) =   2
                l(6) =   2
                l(7) =   3
                l(8) =   3

     PseudoPot. # 2 for O  read from file:
     /cluster/scratch/mnoe/QE/pps/O_ONCV_LDA-3.0.upf
     MD5 check sum: a1bd6164e7280c17a38c229939bfbd54
     Pseudo is Norm-conserving + core correction, Zval =  6.0
     Generated using ONCVPSP code by D. R. Hamann
     Using radial grid of  926 points,  5 beta functions with:
                l(1) =   0
                l(2) =   0
                l(3) =   1
                l(4) =   1
                l(5) =   2

     atomic species   valence    mass     pseudopotential
        W             28.00   183.84000     W ( 1.00)
        O              6.00    15.99940     O ( 1.00)

      8 Sym. Ops. (no inversion) found ( 7 have fractional translation)

   Cartesian axes

     site n.     atom                  positions (alat units)
         1           W   tau(   1) = (   0.2218872   0.2850266  -0.0008842  )
         2           W   tau(   2) = (   0.7591832   0.7392536  -0.0308791  )
         3           W   tau(   3) = (   0.2836455   0.2271135   0.5046484  )
         4           W   tau(   4) = (   0.7574148   0.7971667   0.4746535  )
         5           W   tau(   5) = (   0.7891781   0.2850266   0.5064169  )
         6           W   tau(   6) = (   0.2518821   0.7392536   0.5364118  )
         7           W   tau(   7) = (   0.7274198   0.2271135   0.0008842  )
         8           W   tau(   8) = (   0.2536505   0.7971667   0.0308791  )
         9           O   tau(   9) = (   0.2188052   0.0075203  -0.0246381  )
        10           O   tau(  10) = (   0.7829370  -0.0075203  -0.0339610  )
        11           O   tau(  11) = (   0.2867274   0.5046198   0.4808946  )
        12           O   tau(  12) = (   0.7336609   0.5196604   0.4715716  )
        13           O   tau(  13) = (   0.7922600   0.0075203   0.5301707  )
        14           O   tau(  14) = (   0.2281282  -0.0075203   0.5394937  )
        15           O   tau(  15) = (   0.7243379   0.5046198   0.0246380  )
        16           O   tau(  16) = (   0.2774044   0.5196604   0.0339610  )
        17           O   tau(  17) = (   0.5164610   0.2189778   0.4633892  )
        18           O   tau(  18) = (   0.5077732   0.7920136   0.5476761  )
        19           O   tau(  19) = (  -0.0109283   0.2931623   0.9689219  )
        20           O   tau(  20) = (  -0.0022406   0.7444068   0.0421434  )
        21           O   tau(  21) = (   0.4946043   0.2189778   0.0421434  )
        22           O   tau(  22) = (   0.5032921   0.7920136   0.9689219  )
        23           O   tau(  23) = (   0.0109283   0.2931623   0.5476761  )
        24           O   tau(  24) = (   0.0022406   0.7444068   0.4633892  )
        25           O   tau(  25) = (   0.7161556   0.2798734   0.7560584  )
        26           O   tau(  26) = (   0.2949097   0.8053025   0.2636946  )
        27           O   tau(  27) = (   0.8004424   0.2322666   0.2505258  )
        28           O   tau(  28) = (   0.2106229   0.7311179   0.7692273  )
        29           O   tau(  29) = (   0.2949097   0.2798734   0.7605396  )
        30           O   tau(  30) = (   0.7161556   0.8053025   0.2418381  )
        31           O   tau(  31) = (   0.2106229   0.2322666   0.2550069  )
        32           O   tau(  32) = (   0.8004424   0.7311179   0.7473707  )

     number of k points=    40  gaussian smearing, width (Ry)=  0.0007
                       cart. coord. in units 2pi/alat
        k(    1) = (   0.0000000   0.0000000   0.0000000), wk =   0.0092593
        k(    2) = (   0.0000000   0.0000000   0.1648426), wk =   0.0370370
        k(    3) = (   0.0000000   0.0000000   0.3296853), wk =   0.0370370
        k(    4) = (   0.0000000   0.0000000  -0.4945279), wk =   0.0185185
        k(    5) = (   0.0000000   0.1627159   0.0000000), wk =   0.0185185
        k(    6) = (   0.0000000   0.1627159   0.1648426), wk =   0.0740741
        k(    7) = (   0.0000000   0.1627159   0.3296853), wk =   0.0740741
        k(    8) = (   0.0000000   0.1627159  -0.4945279), wk =   0.0370370
        k(    9) = (   0.0000000   0.3254318   0.0000000), wk =   0.0185185
        k(   10) = (   0.0000000   0.3254318   0.1648426), wk =   0.0740741
        k(   11) = (   0.0000000   0.3254318   0.3296853), wk =   0.0740741
        k(   12) = (   0.0000000   0.3254318  -0.4945279), wk =   0.0370370
        k(   13) = (   0.0000000  -0.4881477   0.0000000), wk =   0.0092593
        k(   14) = (   0.0000000  -0.4881477   0.1648426), wk =   0.0370370
        k(   15) = (   0.0000000  -0.4881477   0.3296853), wk =   0.0370370
        k(   16) = (   0.0000000  -0.4881477  -0.4945279), wk =   0.0185185
        k(   17) = (   0.1648426   0.0000000   0.1648426), wk =   0.0370370
        k(   18) = (   0.1648426   0.0000000   0.3296853), wk =   0.0740741
        k(   19) = (   0.1648426   0.0000000  -0.4945279), wk =   0.0370370
        k(   20) = (   0.1648426   0.1627159   0.1648426), wk =   0.0740741
        k(   21) = (   0.1648426   0.1627159   0.3296853), wk =   0.1481481
        k(   22) = (   0.1648426   0.1627159  -0.4945279), wk =   0.0740741
        k(   23) = (   0.1648426   0.3254318   0.1648426), wk =   0.0740741
        k(   24) = (   0.1648426   0.3254318   0.3296853), wk =   0.1481481
        k(   25) = (   0.1648426   0.3254318  -0.4945279), wk =   0.0740741
        k(   26) = (   0.1648426  -0.4881477   0.1648426), wk =   0.0370370
        k(   27) = (   0.1648426  -0.4881477   0.3296853), wk =   0.0740741
        k(   28) = (   0.1648426  -0.4881477  -0.4945279), wk =   0.0370370
        k(   29) = (   0.3296853   0.0000000   0.3296853), wk =   0.0370370
        k(   30) = (   0.3296853   0.0000000  -0.4945279), wk =   0.0370370
        k(   31) = (   0.3296853   0.1627159   0.3296853), wk =   0.0740741
        k(   32) = (   0.3296853   0.1627159  -0.4945279), wk =   0.0740741
        k(   33) = (   0.3296853   0.3254318   0.3296853), wk =   0.0740741
        k(   34) = (   0.3296853   0.3254318  -0.4945279), wk =   0.0740741
        k(   35) = (   0.3296853  -0.4881477   0.3296853), wk =   0.0370370
        k(   36) = (   0.3296853  -0.4881477  -0.4945279), wk =   0.0370370
        k(   37) = (  -0.4945279   0.0000000  -0.4945279), wk =   0.0092593
        k(   38) = (  -0.4945279   0.1627159  -0.4945279), wk =   0.0185185
        k(   39) = (  -0.4945279   0.3254318  -0.4945279), wk =   0.0185185
        k(   40) = (  -0.4945279  -0.4881477  -0.4945279), wk =   0.0092593

     Initial potential from superposition of free atoms

     starting charge  367.99656, renormalised to  368.00000
     Starting wfc are  232 randomized atomic wfcs

     Writing output data file Landau_17.save

     Self-consistent Calculation

[...]

     total energy              =   -6261.07372481 Ry
     Harris-Foulkes estimate   =   -6261.07372481 Ry
     estimated scf accuracy    <          6.6E-10 Ry

     iteration # 14     ecut=   120.00 Ry     beta= 0.70
     Davidson diagonalization with overlap
     ethr =  1.81E-13,  avg # of iterations =  2.0

     End of self-consistent calculation

[...]

          k = 0.3297-0.4881-0.4945 ( 61584 PWs)   bands (ev):

[...]

          k =-0.4945-0.4881-0.4945 ( 61616 PWs)   bands (ev):

   -65.9733 -65.9733 -65.9733 -65.9733 -65.9733 -65.9733 -65.9733 -65.9733
   -30.4223 -30.4223 -30.4214 -30.4214 -30.4214 -30.4214 -30.4213 -30.4213
   -30.2841 -30.2841 -30.2841 -30.2841 -30.2841 -30.2841 -30.2835 -30.2835
   -30.2100 -30.2100 -30.2099 -30.2099 -30.2098 -30.2098 -30.2096 -30.2096
   -20.1326 -20.1326 -20.1326 -20.1326 -20.1326 -20.1326 -20.1326 -20.1326
   -20.1194 -20.1194 -20.1193 -20.1193 -20.1193 -20.1193 -20.1193 -20.1193
   -20.1072 -20.1072 -20.1071 -20.1071 -20.1071 -20.1071 -20.1070 -20.1070
   -20.0965 -20.0965 -20.0965 -20.0965 -20.0964 -20.0964 -20.0963 -20.0963
   -20.0940 -20.0939 -20.0939 -20.0939 -20.0938 -20.0938 -20.0938 -20.0938
   -20.0860 -20.0860 -20.0860 -20.0860 -20.0860 -20.0860 -20.0860 -20.0859
   -20.0788 -20.0788 -20.0788 -20.0788 -20.0787 -20.0787 -20.0787 -20.0787
    -8.8655  -8.8655  -8.8040  -8.8040  -8.7955  -8.7955  -8.7955  -8.7955
    -8.3270  -8.3270  -8.2464  -8.2464  -8.2463  -8.2463  -8.1991  -8.1990
    -8.0799  -8.0799  -8.0799  -8.0799  -8.0298  -8.0298  -8.0111  -8.0110
     3.0244   3.0244   3.0244   3.0244   3.0466   3.0466   3.0707   3.0707
     3.2090   3.2090   3.3545   3.3545   3.3545   3.3545   3.4683   3.4683
     3.5586   3.5586   3.6641   3.6641   3.6641   3.6641   3.6755   3.6755
     4.2687   4.2687   4.2743   4.2743   4.3598   4.3598   4.3598   4.3598
     4.5359   4.5359   4.5359   4.5359   4.5365   4.5365   4.6463   4.6463
     4.6760   4.6760   4.7744   4.7745   4.7754   4.7754   4.7755   4.7755
     7.1563   7.1563   7.2726   7.2727   7.2727   7.2727   7.4232   7.4232
     7.5034   7.5034   7.5034   7.5034   7.5280   7.5280   7.6322   7.6322
     7.7868   7.7868   7.7868   7.7868   7.7984   7.7984   7.8474   7.8474
    12.0142  12.0142  12.0584  12.0584  12.0584  12.0584  12.1251  12.1251
    12.4214  12.4214  12.4214  12.4214  12.4225  12.4225  12.5974  12.5974
    12.6425  12.6425  12.7834  12.7834  12.7834  12.7835  12.8308  12.8308
    17.0216  17.0216  17.0216  17.0216  17.1299  17.1299  17.2040  17.2040
    17.5892  17.5892  17.5892  17.5892  17.6011

     the Fermi energy is     9.2008 ev

!    total energy              =   -6261.07372481 Ry
     Harris-Foulkes estimate   =   -6261.07372481 Ry
     estimated scf accuracy    <          7.7E-11 Ry

     The total energy is the sum of the following terms:

     one-electron contribution =   -4659.02010875 Ry
     hartree contribution      =    2568.71324910 Ry
     xc contribution           =    -965.63200468 Ry
     ewald contribution        =   -3205.13486047 Ry
     smearing contrib. (-TS)   =      -0.00000000 Ry

     convergence has been achieved in  14 iterations

     Forces acting on atoms (cartesian axes, Ry/au):

     atom    1 type  1   force =     0.06154442   -0.01324629    0.00703532
     atom    2 type  1   force =    -0.00703532    0.01324629    0.06154442
     atom    3 type  1   force =    -0.06154442    0.01324629    0.00703532
     atom    4 type  1   force =     0.00703532   -0.01324629    0.06154442
     atom    5 type  1   force =    -0.06154442   -0.01324629   -0.00703532
     atom    6 type  1   force =     0.00703532    0.01324629   -0.06154442
     atom    7 type  1   force =     0.06154442    0.01324629   -0.00703532
     atom    8 type  1   force =    -0.00703532   -0.01324629   -0.06154442
     atom    9 type  2   force =    -0.00172921    0.00165768    0.00477761
     atom   10 type  2   force =    -0.00477761   -0.00165768   -0.00172921
     atom   11 type  2   force =     0.00172921   -0.00165768    0.00477761
     atom   12 type  2   force =     0.00477761    0.00165768   -0.00172921
     atom   13 type  2   force =     0.00172921    0.00165768   -0.00477761
     atom   14 type  2   force =     0.00477761   -0.00165768    0.00172921
     atom   15 type  2   force =    -0.00172921   -0.00165768   -0.00477761
     atom   16 type  2   force =    -0.00477761    0.00165768    0.00172921
     atom   17 type  2   force =     0.03977439   -0.00419990   -0.00264189
     atom   18 type  2   force =     0.00056149   -0.00416993   -0.00250048
     atom   19 type  2   force =    -0.03977439    0.00419990   -0.00264189
     atom   20 type  2   force =    -0.00056149    0.00416993   -0.00250048
     atom   21 type  2   force =    -0.03977439   -0.00419990    0.00264189
     atom   22 type  2   force =    -0.00056149   -0.00416993    0.00250048
     atom   23 type  2   force =     0.03977439    0.00419990    0.00264189
     atom   24 type  2   force =     0.00056149    0.00416993    0.00250048
     atom   25 type  2   force =     0.00250048   -0.00416993   -0.00056149
     atom   26 type  2   force =     0.00264189    0.00419990    0.03977439
     atom   27 type  2   force =    -0.00250048    0.00416993   -0.00056149
     atom   28 type  2   force =    -0.00264189   -0.00419990    0.03977439
     atom   29 type  2   force =    -0.00250048   -0.00416993    0.00056149
     atom   30 type  2   force =    -0.00264189    0.00419990   -0.03977439
     atom   31 type  2   force =     0.00250048    0.00416993    0.00056149
     atom   32 type  2   force =     0.00264189   -0.00419990   -0.03977439

     Total force =     0.000000     Total SCF correction =     0.000000

     Computing stress (Cartesian axis) and pressure

          total   stress  (Ry/bohr**3)                   (kbar)     P=    0.17
   0.00000295   0.00000000   0.00000000          0.43      0.00      0.00
   0.00000000  -0.00000237   0.00000000          0.00     -0.35      0.00
   0.00000000   0.00000000   0.00000295          0.00      0.00      0.43

     Writing output data file Landau_17.save

     General routines

     Parallel routines

   This run was terminated on:   4: 6:51  26Mar2020

   JOB DONE.