     Program PWSCF v.6.2 (svn rev. 14038) starts on 28Aug2019 at 14:22: 3

     K-points division:     npool     =      64
     Reading input from scf.in

     Current dimensions of program PWSCF are:
     Max number of different atomic species (ntypx) = 10
     Max number of k-points (npk) =  40000
     Max angular momentum in pseudopotentials (lmaxx) =  3

     Subspace diagonalization in iterative solution of the eigenvalue problem:
     a serial algorithm will be used

     bravais-lattice index     =            0
     lattice parameter (alat)  =      13.8385  a.u.
     unit-cell volume          =    2803.1666 (a.u.)^3
     number of atoms/cell      =           32
     number of atomic types    =            2
     number of electrons       =       368.52
     number of Kohn-Sham states=          221
     kinetic-energy cutoff     =     120.0000  Ry
     charge density cutoff     =     480.0000  Ry
     convergence threshold     =      1.0E-08
     mixing beta               =       0.7000
     number of iterations used =            8  plain     mixing
     Exchange-correlation      = SLA PW NOGX NOGC ( 1  4  0  0 0 0)

     celldm(1)=  13.838526  celldm(2)=   0.000000  celldm(3)=   0.000000
     celldm(4)=   0.000000  celldm(5)=   0.000000  celldm(6)=   0.000000

     crystal axes: (cart. coord. in units of alat)
               a(1) = (   1.000000   0.000000   0.000000 )
               a(2) = (   0.000000   1.057403   0.000000 )
               a(3) = (   0.000000   0.000000   1.000320 )

     reciprocal axes: (cart. coord. in units 2 pi/alat)
               b(1) = (  1.000000  0.000000  0.000000 )
               b(2) = (  0.000000  0.945713  0.000000 )
               b(3) = (  0.000000  0.000000  0.999680 )

     PseudoPot. # 1 for W  read from file:
     /cluster/scratch/mnoe/QE/pps/W_ONCV_LDA-4.0.upf
     MD5 check sum: ba0307d5d4cd419d6f1d13dc49d7c13a
     Pseudo is Norm-conserving + core correction, Zval = 28.0
     Generated using ONCVPSP code by D. R. Hamann
     Using radial grid of 1380 points,  8 beta functions with:
                l(1) =   0
                l(2) =   0
                l(3) =   1
                l(4) =   1
                l(5) =   2
                l(6) =   2
                l(7) =   3
                l(8) =   3

     PseudoPot. # 2 for O  read from file:
     /cluster/scratch/mnoe/QE/pps/O_ONCV_LDA-3.0.upf
     MD5 check sum: b55cdb4f45ae2203d24ad12cf8d61a31
     Pseudo is Norm-conserving + core correction, Zval =  6.0
     Generated using ONCVPSP code by D. R. Hamann
     Using radial grid of  926 points,  5 beta functions with:
                l(1) =   0
                l(2) =   0
                l(3) =   1
                l(4) =   1
                l(5) =   2

     atomic species   valence    mass     pseudopotential
        W             28.00   183.84000     W ( 1.00)
        O              6.00    15.99940     O ( 1.00)

      8 Sym. Ops., with inversion, found ( 6 have fractional translation)

   Cartesian axes

     site n.     atom                  positions (alat units)
         1           W   tau(   1) = (   0.2463000   0.2980395   0.0034911  )
         2           W   tau(   2) = (   0.7537000   0.7593632   0.9968288  )
         3           W   tau(   3) = (   0.2537000   0.2306619   0.5036511  )
         4           W   tau(   4) = (   0.7463000   0.8267409   0.4966689  )
         5           W   tau(   5) = (   0.7537000   0.2980395   0.4966689  )
         6           W   tau(   6) = (   0.2463000   0.7593632   0.5036511  )
         7           W   tau(   7) = (   0.7463000   0.2306619   0.9968288  )
         8           W   tau(   8) = (   0.2537000   0.8267409   0.0034911  )
         9           O   tau(   9) = (   0.2431800   0.0087976   0.0010903  )
        10           O   tau(  10) = (   0.7568200   1.0486052   0.9992296  )
        11           O   tau(  11) = (   0.2568200   0.5199038   0.5012503  )
        12           O   tau(  12) = (   0.7431800   0.5374990   0.4990696  )
        13           O   tau(  13) = (   0.7568200   0.0087976   0.4990696  )
        14           O   tau(  14) = (   0.2431800   1.0486052   0.5012503  )
        15           O   tau(  15) = (   0.7431800   0.5199038   0.9992296  )
        16           O   tau(  16) = (   0.2568200   0.5374990   0.0010903  )
        17           O   tau(  17) = (   0.5010100   0.2569489   0.4496838  )
        18           O   tau(  18) = (   0.4989900   0.8004539   0.5506361  )
        19           O   tau(  19) = (   0.9989900   0.2717525   0.9498438  )
        20           O   tau(  20) = (   0.0010099   0.7856503   0.0504762  )
        21           O   tau(  21) = (   0.4989900   0.2569489   0.0504762  )
        22           O   tau(  22) = (   0.5010100   0.8004539   0.9498438  )
        23           O   tau(  23) = (   0.0010099   0.2717525   0.5506361  )
        24           O   tau(  24) = (   0.9989900   0.7856503   0.4496838  )
        25           O   tau(  25) = (   0.6995400   0.2627329   0.7487095  )
        26           O   tau(  26) = (   0.3004600   0.7946699   0.2516105  )
        27           O   tau(  27) = (   0.8004600   0.2659685   0.2485496  )
        28           O   tau(  28) = (   0.1995400   0.7914342   0.7517705  )
        29           O   tau(  29) = (   0.3004600   0.2627329   0.7517705  )
        30           O   tau(  30) = (   0.6995400   0.7946699   0.2485496  )
        31           O   tau(  31) = (   0.1995400   0.2659685   0.2516105  )
        32           O   tau(  32) = (   0.8004600   0.7914342   0.7487095  )

     number of k points=    64  gaussian smearing, width (Ry)=  0.0007
                       cart. coord. in units 2pi/alat
        k(    1) = (   0.0000000   0.0000000   0.0000000), wk =   0.0092593
        k(    2) = (   0.0000000   0.0000000   0.1666134), wk =   0.0185185
        k(    3) = (   0.0000000   0.0000000   0.3332267), wk =   0.0185185
        k(    4) = (   0.0000000   0.0000000  -0.4998401), wk =   0.0092593
        k(    5) = (   0.0000000   0.1576189   0.0000000), wk =   0.0185185
        k(    6) = (   0.0000000   0.1576189   0.1666134), wk =   0.0370370
        k(    7) = (   0.0000000   0.1576189   0.3332267), wk =   0.0370370
        k(    8) = (   0.0000000   0.1576189  -0.4998401), wk =   0.0185185
        k(    9) = (   0.0000000   0.3152378   0.0000000), wk =   0.0185185
        k(   10) = (   0.0000000   0.3152378   0.1666134), wk =   0.0370370
        k(   11) = (   0.0000000   0.3152378   0.3332267), wk =   0.0370370
        k(   12) = (   0.0000000   0.3152378  -0.4998401), wk =   0.0185185
        k(   13) = (   0.0000000  -0.4728567   0.0000000), wk =   0.0092593
        k(   14) = (   0.0000000  -0.4728567   0.1666134), wk =   0.0185185
        k(   15) = (   0.0000000  -0.4728567   0.3332267), wk =   0.0185185
        k(   16) = (   0.0000000  -0.4728567  -0.4998401), wk =   0.0092593
        k(   17) = (   0.1666667   0.0000000   0.0000000), wk =   0.0185185
        k(   18) = (   0.1666667   0.0000000   0.1666134), wk =   0.0370370
        k(   19) = (   0.1666667   0.0000000   0.3332267), wk =   0.0370370
        k(   20) = (   0.1666667   0.0000000  -0.4998401), wk =   0.0185185
        k(   21) = (   0.1666667   0.1576189   0.0000000), wk =   0.0370370
        k(   22) = (   0.1666667   0.1576189   0.1666134), wk =   0.0740741
        k(   23) = (   0.1666667   0.1576189   0.3332267), wk =   0.0740741
        k(   24) = (   0.1666667   0.1576189  -0.4998401), wk =   0.0370370
        k(   25) = (   0.1666667   0.3152378   0.0000000), wk =   0.0370370
        k(   26) = (   0.1666667   0.3152378   0.1666134), wk =   0.0740741
        k(   27) = (   0.1666667   0.3152378   0.3332267), wk =   0.0740741
        k(   28) = (   0.1666667   0.3152378  -0.4998401), wk =   0.0370370
        k(   29) = (   0.1666667  -0.4728567   0.0000000), wk =   0.0185185
        k(   30) = (   0.1666667  -0.4728567   0.1666134), wk =   0.0370370
        k(   31) = (   0.1666667  -0.4728567   0.3332267), wk =   0.0370370
        k(   32) = (   0.1666667  -0.4728567  -0.4998401), wk =   0.0185185
        k(   33) = (   0.3333333   0.0000000   0.0000000), wk =   0.0185185
        k(   34) = (   0.3333333   0.0000000   0.1666134), wk =   0.0370370
        k(   35) = (   0.3333333   0.0000000   0.3332267), wk =   0.0370370
        k(   36) = (   0.3333333   0.0000000  -0.4998401), wk =   0.0185185
        k(   37) = (   0.3333333   0.1576189   0.0000000), wk =   0.0370370
        k(   38) = (   0.3333333   0.1576189   0.1666134), wk =   0.0740741
        k(   39) = (   0.3333333   0.1576189   0.3332267), wk =   0.0740741
        k(   40) = (   0.3333333   0.1576189  -0.4998401), wk =   0.0370370
        k(   41) = (   0.3333333   0.3152378   0.0000000), wk =   0.0370370
        k(   42) = (   0.3333333   0.3152378   0.1666134), wk =   0.0740741
        k(   43) = (   0.3333333   0.3152378   0.3332267), wk =   0.0740741
        k(   44) = (   0.3333333   0.3152378  -0.4998401), wk =   0.0370370
        k(   45) = (   0.3333333  -0.4728567   0.0000000), wk =   0.0185185
        k(   46) = (   0.3333333  -0.4728567   0.1666134), wk =   0.0370370
        k(   47) = (   0.3333333  -0.4728567   0.3332267), wk =   0.0370370
        k(   48) = (   0.3333333  -0.4728567  -0.4998401), wk =   0.0185185
        k(   49) = (  -0.5000000   0.0000000   0.0000000), wk =   0.0092593
        k(   50) = (  -0.5000000   0.0000000   0.1666134), wk =   0.0185185
        k(   51) = (  -0.5000000   0.0000000   0.3332267), wk =   0.0185185
        k(   52) = (  -0.5000000   0.0000000  -0.4998401), wk =   0.0092593
        k(   53) = (  -0.5000000   0.1576189   0.0000000), wk =   0.0185185
        k(   54) = (  -0.5000000   0.1576189   0.1666134), wk =   0.0370370
        k(   55) = (  -0.5000000   0.1576189   0.3332267), wk =   0.0370370
        k(   56) = (  -0.5000000   0.1576189  -0.4998401), wk =   0.0185185
        k(   57) = (  -0.5000000   0.3152378   0.0000000), wk =   0.0185185
        k(   58) = (  -0.5000000   0.3152378   0.1666134), wk =   0.0370370
        k(   59) = (  -0.5000000   0.3152378   0.3332267), wk =   0.0370370
        k(   60) = (  -0.5000000   0.3152378  -0.4998401), wk =   0.0185185
        k(   61) = (  -0.5000000  -0.4728567   0.0000000), wk =   0.0092593
        k(   62) = (  -0.5000000  -0.4728567   0.1666134), wk =   0.0185185
        k(   63) = (  -0.5000000  -0.4728567   0.3332267), wk =   0.0185185
        k(   64) = (  -0.5000000  -0.4728567  -0.4998401), wk =   0.0092593

     Initial potential from superposition of free atoms

     starting charge  367.99656, renormalised to  368.52000
     Starting wfc are  232 randomized atomic wfcs

     Self-consistent Calculation

     iteration #  1     ecut=   120.00 Ry     beta= 0.70
     Davidson diagonalization with overlap
     ethr =  1.00E-02,  avg # of iterations =  5.2

     total energy              =   -6253.51785343 Ry
     Harris-Foulkes estimate   =   -6264.30670308 Ry
     estimated scf accuracy    <      13.60030934 Ry

[...]

     total energy              =   -6260.74307656 Ry
     Harris-Foulkes estimate   =   -6260.74307659 Ry
     estimated scf accuracy    <       0.00000006 Ry

     iteration # 13     ecut=   120.00 Ry     beta= 0.70
     Davidson diagonalization with overlap
     ethr =  1.67E-11,  avg # of iterations =  2.7

     End of self-consistent calculation

          k = 0.0000 0.0000 0.0000 ( 62223 PWs)   bands (ev):

   -66.0407 -66.0402 -66.0396 -66.0396 -66.0392 -66.0392 -66.0386 -66.0382
   -30.4787 -30.4752 -30.4751 -30.4717 -30.4199 -30.4165 -30.4161 -30.4129
   -30.3823 -30.3816 -30.3787 -30.3764 -30.3764 -30.3761 -30.3736 -30.3719
   -30.2809 -30.2801 -30.2783 -30.2772 -30.2768 -30.2759 -30.2738 -30.2727
   -20.1914 -20.1912 -20.1911 -20.1909 -20.1903 -20.1902 -20.1902 -20.1901
   -20.1899 -20.1899 -20.1898 -20.1897 -20.1857 -20.1854 -20.1853 -20.1851
   -20.1793 -20.1790 -20.1790 -20.1788 -20.1780 -20.1780 -20.1780 -20.1778
   -20.1765 -20.1763 -20.1763 -20.1762 -20.1755 -20.1753 -20.1753 -20.1750
   -20.1655 -20.1654 -20.1651 -20.1650 -20.1650 -20.1649 -20.1646 -20.1645
   -20.1422 -20.1422 -20.1417 -20.1416 -20.1407 -20.1407 -20.1402 -20.1402
   -20.1359 -20.1359 -20.1355 -20.1355 -20.1345 -20.1345 -20.1341 -20.1340
    -9.9114  -9.6216  -9.4722  -9.4722  -9.1868  -9.1846  -9.0595  -8.9949
    -8.9825  -8.8506  -8.8172  -8.8169  -7.8429  -7.7815  -7.7795  -7.7313
    -7.7291  -7.7275  -7.7046  -7.7046  -7.5752  -7.5740  -7.5534  -7.5529
     1.2704   1.2704   1.3407   1.3434   1.3612   1.3663   1.4135   1.6594
     1.6620   1.6630   1.7075   1.9082   2.4410   2.5167   2.6008   2.6032
     2.7516   2.7556   4.1721   4.1783   4.3974   4.4085   4.8425   4.8593
     4.9014   4.9076   4.9296   4.9313   5.0664   5.0664   5.1037   5.4500
     5.4585   5.5416   5.5619   5.5655   5.5665   5.6068   5.6248   5.8362
     5.8455   5.9136   5.9143   5.9555   5.9827   6.0735   6.0758   6.1668
     6.1679   6.2776   6.2834   6.6000   6.6021   6.8234   6.8333   6.8591
     6.8648   6.9064   7.0398   7.0454   7.1104   7.1152   7.4324   7.4398
     7.4768   7.4837   7.8240   7.8383   8.0916   8.1023   8.1575   8.1683
     9.3623   9.3675  10.0562  10.0600  10.0917  10.0962  12.3067  12.3308
    12.3343  12.3705  12.3930  12.4070  12.5609  12.5676  12.9153  12.9475
    13.2915  13.3076  13.4557  13.4650  13.8214  14.1563  14.2113  14.2162
    14.2439  14.4223  14.4772  14.8872  15.5129  15.5253  15.5270  16.1260
    16.1323  16.8629  17.0952  17.1040  17.4618

[...]

          k = 0.3333-0.4729-0.4998 ( 62160 PWs)   bands (ev):

[...]

          k =-0.5000 0.0000 0.0000 ( 62240 PWs)   bands (ev):

[...]

          k =-0.5000-0.4729-0.4998 ( 62224 PWs)   bands (ev):

   -66.0395 -66.0394 -66.0394 -66.0394 -66.0394 -66.0394 -66.0394 -66.0394
   -30.4465 -30.4465 -30.4465 -30.4465 -30.4463 -30.4463 -30.4463 -30.4463
   -30.3298 -30.3298 -30.3298 -30.3297 -30.3282 -30.3282 -30.3282 -30.3282
   -30.3260 -30.3260 -30.3260 -30.3260 -30.3245 -30.3245 -30.3245 -30.3244
   -20.1903 -20.1903 -20.1903 -20.1903 -20.1903 -20.1903 -20.1902 -20.1902
   -20.1882 -20.1882 -20.1882 -20.1882 -20.1882 -20.1881 -20.1881 -20.1881
   -20.1776 -20.1776 -20.1775 -20.1775 -20.1773 -20.1773 -20.1773 -20.1772
   -20.1770 -20.1770 -20.1770 -20.1770 -20.1767 -20.1767 -20.1767 -20.1766
   -20.1650 -20.1650 -20.1650 -20.1649 -20.1649 -20.1649 -20.1649 -20.1649
   -20.1385 -20.1385 -20.1385 -20.1385 -20.1385 -20.1385 -20.1385 -20.1384
   -20.1379 -20.1379 -20.1379 -20.1379 -20.1379 -20.1378 -20.1378 -20.1378
    -8.8982  -8.8982  -8.8982  -8.8982  -8.8916  -8.8916  -8.8916  -8.8916
    -8.3758  -8.3758  -8.3758  -8.3757  -8.3647  -8.3647  -8.3647  -8.3647
    -8.3042  -8.3042  -8.3041  -8.3041  -8.2980  -8.2980  -8.2980  -8.2980
     3.0328   3.0328   3.0328   3.0328   3.0540   3.0540   3.0540   3.0540
     3.1891   3.1891   3.1891   3.1891   3.2160   3.2160   3.2161   3.2161
     3.4601   3.4601   3.4601   3.4601   3.5174   3.5174   3.5174   3.5174
     4.1940   4.1940   4.1940   4.1941   4.2018   4.2018   4.2018   4.2018
     4.4089   4.4089   4.4089   4.4089   4.4186   4.4186   4.4186   4.4186
     4.4989   4.4989   4.4989   4.4989   4.5152   4.5152   4.5152   4.5152
     7.1896   7.1896   7.1896   7.1896   7.2625   7.2625   7.2625   7.2625
     7.3602   7.3602   7.3602   7.3602   7.3715   7.3715   7.3715   7.3715
     7.6360   7.6360   7.6360   7.6360   7.6545   7.6545   7.6545   7.6545
    11.8866  11.8866  11.8866  11.8866  11.8924  11.8924  11.8924  11.8924
    12.3125  12.3125  12.3125  12.3125  12.3782  12.3782  12.3783  12.3783
    12.5917  12.5917  12.5917  12.5917  12.6201  12.6201  12.6201  12.6201
    17.1616  17.1616  17.1616  17.1616  17.1946  17.1947  17.1947  17.1947
    17.4065  17.4065  17.4065  17.4065  17.4186

     the Fermi energy is     9.7411 ev

!    total energy              =   -6260.74307657 Ry
     Harris-Foulkes estimate   =   -6260.74307657 Ry
     estimated scf accuracy    <          9.2E-10 Ry

     The total energy is the sum of the following terms:

     one-electron contribution =   -4719.80170872 Ry
     hartree contribution      =    2598.33383358 Ry
     xc contribution           =    -966.24473504 Ry
     ewald contribution        =   -3173.03043992 Ry
     smearing contrib. (-TS)   =      -0.00002647 Ry

     convergence has been achieved in  13 iterations

     Writing output data file Landau_8.save

     General routines

     Parallel routines

   This run was terminated on:  14:38:25  28Aug2019

   JOB DONE.