     Program PWSCF v.6.2 (svn rev. 14038) starts on 28Aug2019 at 13: 3:34

     K-points division:     npool     =      40
     Reading input from scf.in

     Current dimensions of program PWSCF are:
     Max number of different atomic species (ntypx) = 10
     Max number of k-points (npk) =  40000
     Max angular momentum in pseudopotentials (lmaxx) =  3

     Subspace diagonalization in iterative solution of the eigenvalue problem:
     a serial algorithm will be used

     bravais-lattice index     =            0
     lattice parameter (alat)  =      13.8467  a.u.
     unit-cell volume          =    2796.3335 (a.u.)^3
     number of atoms/cell      =           32
     number of atomic types    =            2
     number of electrons       =       368.15
     number of Kohn-Sham states=          221
     kinetic-energy cutoff     =     120.0000  Ry
     charge density cutoff     =     480.0000  Ry
     convergence threshold     =      1.0E-08
     mixing beta               =       0.7000
     number of iterations used =            8  plain     mixing
     Exchange-correlation      = SLA PW NOGX NOGC ( 1  4  0  0 0 0)

     celldm(1)=  13.846710  celldm(2)=   0.000000  celldm(3)=   0.000000
     celldm(4)=   0.000000  celldm(5)=   0.000000  celldm(6)=   0.000000

     crystal axes: (cart. coord. in units of alat)
               a(1) = (   1.000000   0.000000   0.000000 )
               a(2) = (   0.000000   1.053293   0.000000 )
               a(3) = (   0.000000   0.000000   1.000000 )

     reciprocal axes: (cart. coord. in units 2 pi/alat)
               b(1) = (  1.000000  0.000000  0.000000 )
               b(2) = (  0.000000  0.949404  0.000000 )
               b(3) = (  0.000000  0.000000  1.000000 )

     PseudoPot. # 1 for W  read from file:
     /cluster/scratch/mnoe/QE/pps/W_ONCV_LDA-4.0.upf
     MD5 check sum: ba0307d5d4cd419d6f1d13dc49d7c13a
     Pseudo is Norm-conserving + core correction, Zval = 28.0
     Generated using ONCVPSP code by D. R. Hamann
     Using radial grid of 1380 points,  8 beta functions with:
                l(1) =   0
                l(2) =   0
                l(3) =   1
                l(4) =   1
                l(5) =   2
                l(6) =   2
                l(7) =   3
                l(8) =   3

     PseudoPot. # 2 for O  read from file:
     /cluster/scratch/mnoe/QE/pps/O_ONCV_LDA-3.0.upf
     MD5 check sum: b55cdb4f45ae2203d24ad12cf8d61a31
     Pseudo is Norm-conserving + core correction, Zval =  6.0
     Generated using ONCVPSP code by D. R. Hamann
     Using radial grid of  926 points,  5 beta functions with:
                l(1) =   0
                l(2) =   0
                l(3) =   1
                l(4) =   1
                l(5) =   2

     atomic species   valence    mass     pseudopotential
        W             28.00   183.84000     W ( 1.00)
        O              6.00    15.99940     O ( 1.00)

      8 Sym. Ops. (no inversion) found ( 4 have fractional translation)

   Cartesian axes

     site n.     atom                  positions (alat units)
         1           W   tau(   1) = (   0.2616900   0.2968811   0.2503300  )
         2           W   tau(   2) = (  -0.2503300   0.7564118  -0.7383099  )
         3           W   tau(   3) = (   0.2383100   0.2297653   0.7503300  )
         4           W   tau(   4) = (   0.7503300   0.8235276   0.7616900  )
         5           W   tau(   5) = (   0.7383100   0.2968811   0.7496700  )
         6           W   tau(   6) = (   0.2503300   0.7564118   0.7383100  )
         7           W   tau(   7) = (  -0.2383099   0.2297653  -0.7503300  )
         8           W   tau(   8) = (   0.2496700   0.8235276   0.2383100  )
         9           O   tau(   9) = (   0.2628600   0.0087634   0.2593200  )
        10           O   tau(  10) = (  -0.2593200   1.0445296  -0.7371400  )
        11           O   tau(  11) = (   0.2371400   0.5178831   0.7593199  )
        12           O   tau(  12) = (   0.7593200   0.5354098   0.7628600  )
        13           O   tau(  13) = (   0.7371400   0.0087634   0.7406800  )
        14           O   tau(  14) = (   0.2593200   1.0445296   0.7371400  )
        15           O   tau(  15) = (  -0.2371400   0.5178831  -0.7593200  )
        16           O   tau(  16) = (   0.2406800   0.5354098   0.2371400  )
        17           O   tau(  17) = (   0.4958700   0.2779219   0.6995400  )
        18           O   tau(  18) = (   0.4991500   0.7805953   0.8004600  )
        19           O   tau(  19) = (  -0.9958699   0.2487246   1.1995400  )
        20           O   tau(  20) = (   0.0008500   0.7993439   0.3004600  )
        21           O   tau(  21) = (   0.5041300   0.2779219   0.3004600  )
        22           O   tau(  22) = (   0.5008500   0.7805953   1.1995400  )
        23           O   tau(  23) = (  -0.0041301   0.2487246   0.8004600  )
        24           O   tau(  24) = (  -1.0008499   0.7993439   0.6995400  )
        25           O   tau(  25) = (   0.6995400   0.2539489   2.0008500  )
        26           O   tau(  26) = (   0.3004600   0.7753709   0.4958700  )
        27           O   tau(  27) = (   0.8004600   0.2726975   0.5008500  )
        28           O   tau(  28) = (   0.1995400   0.8045683   1.9958700  )
        29           O   tau(  29) = (   0.3004600   0.2539489   0.9991501  )
        30           O   tau(  30) = (   0.6995400   0.7753709   0.5041300  )
        31           O   tau(  31) = (   0.1995400   0.2726975   0.4991500  )
        32           O   tau(  32) = (   0.8004600   0.8045683   1.0041301  )

     number of k points=    40  gaussian smearing, width (Ry)=  0.0007
                       cart. coord. in units 2pi/alat
        k(    1) = (   0.0000000   0.0000000   0.0000000), wk =   0.0092593
        k(    2) = (   0.0000000   0.0000000   0.1666667), wk =   0.0370370
        k(    3) = (   0.0000000   0.0000000   0.3333333), wk =   0.0370370
        k(    4) = (   0.0000000   0.0000000  -0.5000000), wk =   0.0185185
        k(    5) = (   0.0000000   0.1582339   0.0000000), wk =   0.0185185
        k(    6) = (   0.0000000   0.1582339   0.1666667), wk =   0.0740741
        k(    7) = (   0.0000000   0.1582339   0.3333333), wk =   0.0740741
        k(    8) = (   0.0000000   0.1582339  -0.5000000), wk =   0.0370370
        k(    9) = (   0.0000000   0.3164678   0.0000000), wk =   0.0185185
        k(   10) = (   0.0000000   0.3164678   0.1666667), wk =   0.0740741
        k(   11) = (   0.0000000   0.3164678   0.3333333), wk =   0.0740741
        k(   12) = (   0.0000000   0.3164678  -0.5000000), wk =   0.0370370
        k(   13) = (   0.0000000  -0.4747018   0.0000000), wk =   0.0092593
        k(   14) = (   0.0000000  -0.4747018   0.1666667), wk =   0.0370370
        k(   15) = (   0.0000000  -0.4747018   0.3333333), wk =   0.0370370
        k(   16) = (   0.0000000  -0.4747018  -0.5000000), wk =   0.0185185
        k(   17) = (   0.1666667   0.0000000   0.1666667), wk =   0.0370370
        k(   18) = (   0.1666667   0.0000000   0.3333333), wk =   0.0740741
        k(   19) = (   0.1666667   0.0000000  -0.5000000), wk =   0.0370370
        k(   20) = (   0.1666667   0.1582339   0.1666667), wk =   0.0740741
        k(   21) = (   0.1666667   0.1582339   0.3333333), wk =   0.1481481
        k(   22) = (   0.1666667   0.1582339  -0.5000000), wk =   0.0740741
        k(   23) = (   0.1666667   0.3164678   0.1666667), wk =   0.0740741
        k(   24) = (   0.1666667   0.3164678   0.3333333), wk =   0.1481481
        k(   25) = (   0.1666667   0.3164678  -0.5000000), wk =   0.0740741
        k(   26) = (   0.1666667  -0.4747018   0.1666667), wk =   0.0370370
        k(   27) = (   0.1666667  -0.4747018   0.3333333), wk =   0.0740741
        k(   28) = (   0.1666667  -0.4747018  -0.5000000), wk =   0.0370370
        k(   29) = (   0.3333333   0.0000000   0.3333333), wk =   0.0370370
        k(   30) = (   0.3333333   0.0000000  -0.5000000), wk =   0.0370370
        k(   31) = (   0.3333333   0.1582339   0.3333333), wk =   0.0740741
        k(   32) = (   0.3333333   0.1582339  -0.5000000), wk =   0.0740741
        k(   33) = (   0.3333333   0.3164678   0.3333333), wk =   0.0740741
        k(   34) = (   0.3333333   0.3164678  -0.5000000), wk =   0.0740741
        k(   35) = (   0.3333333  -0.4747018   0.3333333), wk =   0.0370370
        k(   36) = (   0.3333333  -0.4747018  -0.5000000), wk =   0.0370370
        k(   37) = (  -0.5000000   0.0000000  -0.5000000), wk =   0.0092593
        k(   38) = (  -0.5000000   0.1582339  -0.5000000), wk =   0.0185185
        k(   39) = (  -0.5000000   0.3164678  -0.5000000), wk =   0.0185185
        k(   40) = (  -0.5000000  -0.4747018  -0.5000000), wk =   0.0092593

     Initial potential from superposition of free atoms

     starting charge  367.99656, renormalised to  368.15000
     Starting wfc are  232 randomized atomic wfcs

     Self-consistent Calculation

     iteration #  1     ecut=   120.00 Ry     beta= 0.70
     Davidson diagonalization with overlap
     ethr =  1.00E-02,  avg # of iterations =  5.0

     total energy              =   -6253.86519662 Ry
     Harris-Foulkes estimate   =   -6264.49421290 Ry
     estimated scf accuracy    <      13.44262454 Ry

[...]

     total energy              =   -6261.00567792 Ry
     Harris-Foulkes estimate   =   -6261.00567794 Ry
     estimated scf accuracy    <       0.00000002 Ry

     iteration # 13     ecut=   120.00 Ry     beta= 0.70
     Davidson diagonalization with overlap
     ethr =  6.69E-12,  avg # of iterations =  2.5

     End of self-consistent calculation

          k = 0.0000 0.0000 0.0000 ( 62079 PWs)   bands (ev):

   -66.0771 -66.0767 -66.0761 -66.0761 -66.0757 -66.0757 -66.0751 -66.0747
   -30.4880 -30.4819 -30.4819 -30.4760 -30.4534 -30.4414 -30.4413 -30.4361
   -30.4175 -30.4122 -30.4122 -30.4104 -30.4085 -30.4072 -30.4036 -30.4036
   -30.3388 -30.3388 -30.3377 -30.3346 -30.3114 -30.3113 -30.3071 -30.3058
   -20.2334 -20.2333 -20.2332 -20.2332 -20.2330 -20.2330 -20.2330 -20.2329
   -20.2193 -20.2190 -20.2190 -20.2186 -20.2152 -20.2147 -20.2147 -20.2142
   -20.2138 -20.2135 -20.2135 -20.2131 -20.2131 -20.2127 -20.2126 -20.2124
   -20.2104 -20.2097 -20.2097 -20.2093 -20.2085 -20.2083 -20.2083 -20.2078
   -20.2027 -20.2021 -20.2013 -20.2013 -20.1999 -20.1999 -20.1982 -20.1978
   -20.1973 -20.1972 -20.1945 -20.1945 -20.1938 -20.1936 -20.1935 -20.1935
   -20.1911 -20.1911 -20.1900 -20.1899 -20.1883 -20.1883 -20.1875 -20.1873
    -9.8939  -9.6068  -9.4512  -9.4512  -9.1661  -9.1661  -9.0183  -8.9722
    -8.9612  -8.8164  -8.7852  -8.7852  -7.8257  -7.7532  -7.7387  -7.7387
    -7.7361  -7.6957  -7.6833  -7.6785  -7.6003  -7.6003  -7.5388  -7.5388
     1.2840   1.2876   1.3508   1.3508   1.4000   1.4000   1.4453   1.6891
     1.6959   1.6959   1.7215   1.9353   2.4440   2.5246   2.6111   2.6460
     2.7795   2.7795   4.1951   4.1951   4.4348   4.4377   4.8112   4.8750
     4.8750   4.8905   4.9063   4.9063   5.1090   5.1090   5.1889   5.4919
     5.4929   5.5590   5.5590   5.6062   5.6062   5.6951   5.6951   5.8777
     5.8777   5.9159   5.9234   5.9443   6.0183   6.0324   6.0505   6.1621
     6.1679   6.3065   6.3184   6.6032   6.6032   6.8660   6.8719   6.8719
     6.8990   6.9038   7.0299   7.0680   7.1133   7.1133   7.3666   7.3666
     7.4813   7.4813   7.8133   7.8290   8.1078   8.1078   8.1473   8.1987
     9.4413   9.4463  10.0942  10.1053  10.1317  10.1317  12.3043  12.3043
    12.3468  12.3468  12.4689  12.4689  12.5838  12.6498  12.7687  12.8763
    13.2526  13.3671  13.4287  13.4287  13.7830  14.0791  14.0791  14.1830
    14.3383  14.5587  14.5587  14.9627  15.4858  15.4955  15.5608  16.0904
    16.0904  16.8425  17.0817  17.0817  17.5529

[...]

          k = 0.3333-0.4747-0.5000 ( 61996 PWs)   bands (ev):

[...]

          k =-0.5000 0.0000-0.5000 ( 62180 PWs)   bands (ev):

[...]

          k =-0.5000-0.4747-0.5000 ( 62064 PWs)   bands (ev):

   -66.0760 -66.0759 -66.0759 -66.0759 -66.0759 -66.0759 -66.0759 -66.0759
   -30.4539 -30.4539 -30.4532 -30.4532 -30.4532 -30.4532 -30.4530 -30.4529
   -30.3859 -30.3859 -30.3859 -30.3859 -30.3859 -30.3858 -30.3851 -30.3851
   -30.3570 -30.3570 -30.3569 -30.3568 -30.3568 -30.3568 -30.3568 -30.3568
   -20.2332 -20.2332 -20.2331 -20.2331 -20.2331 -20.2331 -20.2331 -20.2331
   -20.2167 -20.2166 -20.2166 -20.2166 -20.2166 -20.2166 -20.2166 -20.2165
   -20.2135 -20.2135 -20.2135 -20.2135 -20.2135 -20.2135 -20.2134 -20.2134
   -20.2090 -20.2090 -20.2090 -20.2090 -20.2089 -20.2089 -20.2089 -20.2089
   -20.2000 -20.2000 -20.2000 -20.2000 -20.2000 -20.2000 -20.2000 -20.1999
   -20.1936 -20.1936 -20.1936 -20.1936 -20.1935 -20.1935 -20.1935 -20.1935
   -20.1910 -20.1910 -20.1909 -20.1909 -20.1909 -20.1909 -20.1909 -20.1908
    -8.8991  -8.8991  -8.8759  -8.8759  -8.8746  -8.8746  -8.8746  -8.8746
    -8.3821  -8.3820  -8.3479  -8.3479  -8.3478  -8.3478  -8.3449  -8.3448
    -8.2865  -8.2865  -8.2865  -8.2865  -8.2667  -8.2667  -8.2478  -8.2477
     3.0079   3.0079   3.0108   3.0108   3.0108   3.0108   3.0287   3.0287
     3.2352   3.2352   3.2387   3.2387   3.2387   3.2387   3.2636   3.2636
     3.3922   3.3922   3.5159   3.5159   3.5160   3.5160   3.5762   3.5762
     4.1874   4.1874   4.2086   4.2086   4.2160   4.2160   4.2160   4.2160
     4.4218   4.4218   4.4218   4.4218   4.4412   4.4412   4.4627   4.4627
     4.5349   4.5349   4.5528   4.5529   4.5645   4.5645   4.5645   4.5645
     7.1364   7.1364   7.2319   7.2319   7.2319   7.2320   7.3515   7.3515
     7.4020   7.4020   7.4020   7.4020   7.4048   7.4048   7.4050   7.4050
     7.6189   7.6189   7.6420   7.6420   7.6420   7.6420   7.6827   7.6827
    11.9001  11.9001  11.9001  11.9001  11.9001  11.9002  11.9104  11.9104
    12.2604  12.2604  12.3331  12.3331  12.3331  12.3332  12.4574  12.4574
    12.5663  12.5664  12.6274  12.6274  12.6274  12.6274  12.6531  12.6531
    17.1570  17.1570  17.1893  17.1894  17.1894  17.1894  17.2198  17.2198
    17.4062  17.4062  17.4062  17.4062  17.4646

     the Fermi energy is     9.7621 ev

!    total energy              =   -6261.00567793 Ry
     Harris-Foulkes estimate   =   -6261.00567793 Ry
     estimated scf accuracy    <          1.0E-09 Ry

     The total energy is the sum of the following terms:

     one-electron contribution =   -4705.87824609 Ry
     hartree contribution      =    2590.84604800 Ry
     xc contribution           =    -965.83135064 Ry
     ewald contribution        =   -3180.14210824 Ry
     smearing contrib. (-TS)   =      -0.00002096 Ry

     convergence has been achieved in  13 iterations

     Writing output data file chempot_3.save

     General routines

     Parallel routines

   This run was terminated on:  13:18:36  28Aug2019

   JOB DONE.