     Program PWSCF v.6.2 (svn rev. 14038) starts on 28Aug2019 at 12:47: 5

     K-points division:     npool     =      64
     Reading input from scf.in

     Current dimensions of program PWSCF are:
     Max number of different atomic species (ntypx) = 10
     Max number of k-points (npk) =  40000
     Max angular momentum in pseudopotentials (lmaxx) =  3

     Subspace diagonalization in iterative solution of the eigenvalue problem:
     a serial algorithm will be used

     bravais-lattice index     =            0
     lattice parameter (alat)  =      13.8296  a.u.
     unit-cell volume          =    2787.8206 (a.u.)^3
     number of atoms/cell      =           32
     number of atomic types    =            2
     number of electrons       =       369.00
     number of Kohn-Sham states=          222
     kinetic-energy cutoff     =     120.0000  Ry
     charge density cutoff     =     480.0000  Ry
     convergence threshold     =      1.0E-08
     mixing beta               =       0.7000
     number of iterations used =            8  plain     mixing
     Exchange-correlation      = SLA PW NOGX NOGC ( 1  4  0  0 0 0)

     celldm(1)=  13.829597  celldm(2)=   0.000000  celldm(3)=   0.000000
     celldm(4)=   0.000000  celldm(5)=   0.000000  celldm(6)=   0.000000

     crystal axes: (cart. coord. in units of alat)
               a(1) = (   1.000000   0.000000   0.000000 )
               a(2) = (   0.000000   1.050315   0.000000 )
               a(3) = (   0.000000   0.000000   1.003498 )

     reciprocal axes: (cart. coord. in units 2 pi/alat)
               b(1) = (  1.000000  0.000000  0.000000 )
               b(2) = (  0.000000  0.952095  0.000000 )
               b(3) = (  0.000000  0.000000  0.996514 )

     PseudoPot. # 1 for W  read from file:
     /cluster/scratch/mnoe/QE/pps/W_ONCV_LDA-4.0.upf
     MD5 check sum: ba0307d5d4cd419d6f1d13dc49d7c13a
     Pseudo is Norm-conserving + core correction, Zval = 28.0
     Generated using ONCVPSP code by D. R. Hamann
     Using radial grid of 1380 points,  8 beta functions with:
                l(1) =   0
                l(2) =   0
                l(3) =   1
                l(4) =   1
                l(5) =   2
                l(6) =   2
                l(7) =   3
                l(8) =   3

     PseudoPot. # 2 for O  read from file:
     /cluster/scratch/mnoe/QE/pps/O_ONCV_LDA-3.0.upf
     MD5 check sum: b55cdb4f45ae2203d24ad12cf8d61a31
     Pseudo is Norm-conserving + core correction, Zval =  6.0
     Generated using ONCVPSP code by D. R. Hamann
     Using radial grid of  926 points,  5 beta functions with:
                l(1) =   0
                l(2) =   0
                l(3) =   1
                l(4) =   1
                l(5) =   2

     atomic species   valence    mass     pseudopotential
        W             28.00   183.84000     W ( 1.00)
        O              6.00    15.99940     O ( 1.00)

      8 Sym. Ops., with inversion, found ( 6 have fractional translation)

   Cartesian axes

     site n.     atom                  positions (alat units)
         1           W   tau(   1) = (   0.2379800   0.2960418   0.0113997  )
         2           W   tau(   2) = (   0.7620200   0.7542731   0.9920987  )
         3           W   tau(   3) = (   0.2620200   0.2291157   0.5131490  )
         4           W   tau(   4) = (   0.7379800   0.8211992   0.4903495  )
         5           W   tau(   5) = (   0.7620200   0.2960418   0.4903495  )
         6           W   tau(   6) = (   0.2379800   0.7542731   0.5131490  )
         7           W   tau(   7) = (   0.7379800   0.2291157   0.9920987  )
         8           W   tau(   8) = (   0.2620200   0.8211992   0.0113997  )
         9           O   tau(   9) = (   0.2278200   0.0087386   0.0035423  )
        10           O   tau(  10) = (   0.7721800   1.0415763   0.9999561  )
        11           O   tau(  11) = (   0.2721800   0.5164188   0.5052916  )
        12           O   tau(  12) = (   0.7278200   0.5338961   0.4982069  )
        13           O   tau(  13) = (   0.7721800   0.0087386   0.4982069  )
        14           O   tau(  14) = (   0.2278200   1.0415763   0.5052916  )
        15           O   tau(  15) = (   0.7278200   0.5164188   0.9999561  )
        16           O   tau(  16) = (   0.2721800   0.5338961   0.0035423  )
        17           O   tau(  17) = (   0.5032900   0.2386735   0.4511127  )
        18           O   tau(  18) = (   0.4967100   0.8116414   0.5523857  )
        19           O   tau(  19) = (   0.9967100   0.2864839   0.9528620  )
        20           O   tau(  20) = (   0.0032899   0.7638310   0.0506365  )
        21           O   tau(  21) = (   0.4967100   0.2386735   0.0506365  )
        22           O   tau(  22) = (   0.5032900   0.8116414   0.9528620  )
        23           O   tau(  23) = (   0.0032899   0.2864839   0.5523857  )
        24           O   tau(  24) = (   0.9967100   0.7638310   0.4511127  )
        25           O   tau(  25) = (   0.6995400   0.2573587   0.7476164  )
        26           O   tau(  26) = (   0.3004600   0.7929563   0.2558821  )
        27           O   tau(  27) = (   0.8004600   0.2677988   0.2458672  )
        28           O   tau(  28) = (   0.1995400   0.7825161   0.7576313  )
        29           O   tau(  29) = (   0.3004600   0.2573587   0.7576313  )
        30           O   tau(  30) = (   0.6995400   0.7929563   0.2458672  )
        31           O   tau(  31) = (   0.1995400   0.2677988   0.2558821  )
        32           O   tau(  32) = (   0.8004600   0.7825161   0.7476164  )

     number of k points=    64  gaussian smearing, width (Ry)=  0.0007
                       cart. coord. in units 2pi/alat
        k(    1) = (   0.0000000   0.0000000   0.0000000), wk =   0.0092593
        k(    2) = (   0.0000000   0.0000000   0.1660856), wk =   0.0185185
        k(    3) = (   0.0000000   0.0000000   0.3321712), wk =   0.0185185
        k(    4) = (   0.0000000   0.0000000  -0.4982569), wk =   0.0092593
        k(    5) = (   0.0000000   0.1586826   0.0000000), wk =   0.0185185
        k(    6) = (   0.0000000   0.1586826   0.1660856), wk =   0.0370370
        k(    7) = (   0.0000000   0.1586826   0.3321712), wk =   0.0370370
        k(    8) = (   0.0000000   0.1586826  -0.4982569), wk =   0.0185185
        k(    9) = (   0.0000000   0.3173651   0.0000000), wk =   0.0185185
        k(   10) = (   0.0000000   0.3173651   0.1660856), wk =   0.0370370
        k(   11) = (   0.0000000   0.3173651   0.3321712), wk =   0.0370370
        k(   12) = (   0.0000000   0.3173651  -0.4982569), wk =   0.0185185
        k(   13) = (   0.0000000  -0.4760477   0.0000000), wk =   0.0092593
        k(   14) = (   0.0000000  -0.4760477   0.1660856), wk =   0.0185185
        k(   15) = (   0.0000000  -0.4760477   0.3321712), wk =   0.0185185
        k(   16) = (   0.0000000  -0.4760477  -0.4982569), wk =   0.0092593
        k(   17) = (   0.1666667   0.0000000   0.0000000), wk =   0.0185185
        k(   18) = (   0.1666667   0.0000000   0.1660856), wk =   0.0370370
        k(   19) = (   0.1666667   0.0000000   0.3321712), wk =   0.0370370
        k(   20) = (   0.1666667   0.0000000  -0.4982569), wk =   0.0185185
        k(   21) = (   0.1666667   0.1586826   0.0000000), wk =   0.0370370
        k(   22) = (   0.1666667   0.1586826   0.1660856), wk =   0.0740741
        k(   23) = (   0.1666667   0.1586826   0.3321712), wk =   0.0740741
        k(   24) = (   0.1666667   0.1586826  -0.4982569), wk =   0.0370370
        k(   25) = (   0.1666667   0.3173651   0.0000000), wk =   0.0370370
        k(   26) = (   0.1666667   0.3173651   0.1660856), wk =   0.0740741
        k(   27) = (   0.1666667   0.3173651   0.3321712), wk =   0.0740741
        k(   28) = (   0.1666667   0.3173651  -0.4982569), wk =   0.0370370
        k(   29) = (   0.1666667  -0.4760477   0.0000000), wk =   0.0185185
        k(   30) = (   0.1666667  -0.4760477   0.1660856), wk =   0.0370370
        k(   31) = (   0.1666667  -0.4760477   0.3321712), wk =   0.0370370
        k(   32) = (   0.1666667  -0.4760477  -0.4982569), wk =   0.0185185
        k(   33) = (   0.3333333   0.0000000   0.0000000), wk =   0.0185185
        k(   34) = (   0.3333333   0.0000000   0.1660856), wk =   0.0370370
        k(   35) = (   0.3333333   0.0000000   0.3321712), wk =   0.0370370
        k(   36) = (   0.3333333   0.0000000  -0.4982569), wk =   0.0185185
        k(   37) = (   0.3333333   0.1586826   0.0000000), wk =   0.0370370
        k(   38) = (   0.3333333   0.1586826   0.1660856), wk =   0.0740741
        k(   39) = (   0.3333333   0.1586826   0.3321712), wk =   0.0740741
        k(   40) = (   0.3333333   0.1586826  -0.4982569), wk =   0.0370370
        k(   41) = (   0.3333333   0.3173651   0.0000000), wk =   0.0370370
        k(   42) = (   0.3333333   0.3173651   0.1660856), wk =   0.0740741
        k(   43) = (   0.3333333   0.3173651   0.3321712), wk =   0.0740741
        k(   44) = (   0.3333333   0.3173651  -0.4982569), wk =   0.0370370
        k(   45) = (   0.3333333  -0.4760477   0.0000000), wk =   0.0185185
        k(   46) = (   0.3333333  -0.4760477   0.1660856), wk =   0.0370370
        k(   47) = (   0.3333333  -0.4760477   0.3321712), wk =   0.0370370
        k(   48) = (   0.3333333  -0.4760477  -0.4982569), wk =   0.0185185
        k(   49) = (  -0.5000000   0.0000000   0.0000000), wk =   0.0092593
        k(   50) = (  -0.5000000   0.0000000   0.1660856), wk =   0.0185185
        k(   51) = (  -0.5000000   0.0000000   0.3321712), wk =   0.0185185
        k(   52) = (  -0.5000000   0.0000000  -0.4982569), wk =   0.0092593
        k(   53) = (  -0.5000000   0.1586826   0.0000000), wk =   0.0185185
        k(   54) = (  -0.5000000   0.1586826   0.1660856), wk =   0.0370370
        k(   55) = (  -0.5000000   0.1586826   0.3321712), wk =   0.0370370
        k(   56) = (  -0.5000000   0.1586826  -0.4982569), wk =   0.0185185
        k(   57) = (  -0.5000000   0.3173651   0.0000000), wk =   0.0185185
        k(   58) = (  -0.5000000   0.3173651   0.1660856), wk =   0.0370370
        k(   59) = (  -0.5000000   0.3173651   0.3321712), wk =   0.0370370
        k(   60) = (  -0.5000000   0.3173651  -0.4982569), wk =   0.0185185
        k(   61) = (  -0.5000000  -0.4760477   0.0000000), wk =   0.0092593
        k(   62) = (  -0.5000000  -0.4760477   0.1660856), wk =   0.0185185
        k(   63) = (  -0.5000000  -0.4760477   0.3321712), wk =   0.0185185
        k(   64) = (  -0.5000000  -0.4760477  -0.4982569), wk =   0.0092593

     Initial potential from superposition of free atoms

     starting charge  367.99656, renormalised to  369.00000
     Starting wfc are  232 randomized atomic wfcs

     Self-consistent Calculation

     iteration #  1     ecut=   120.00 Ry     beta= 0.70
     Davidson diagonalization with overlap
     ethr =  1.00E-02,  avg # of iterations =  5.4

     total energy              =   -6253.08486160 Ry
     Harris-Foulkes estimate   =   -6264.01184060 Ry
     estimated scf accuracy    <      13.72014465 Ry

[...]

     total energy              =   -6260.37307985 Ry
     Harris-Foulkes estimate   =   -6260.37307986 Ry
     estimated scf accuracy    <       0.00000003 Ry

     iteration # 13     ecut=   120.00 Ry     beta= 0.70
     Davidson diagonalization with overlap
     ethr =  7.19E-12,  avg # of iterations =  2.2

     End of self-consistent calculation

          k = 0.0000 0.0000 0.0000 ( 61831 PWs)   bands (ev):

   -65.8262 -65.8257 -65.8252 -65.8251 -65.8247 -65.8247 -65.8242 -65.8237
   -30.2881 -30.2823 -30.2816 -30.2761 -30.2346 -30.2256 -30.2256 -30.2150
   -30.1909 -30.1895 -30.1791 -30.1761 -30.1697 -30.1674 -30.1604 -30.1542
   -30.0895 -30.0880 -30.0875 -30.0872 -30.0751 -30.0704 -30.0687 -30.0641
   -19.9741 -19.9739 -19.9735 -19.9733 -19.9710 -19.9708 -19.9700 -19.9699
   -19.9619 -19.9617 -19.9616 -19.9614 -19.9612 -19.9609 -19.9608 -19.9607
   -19.9604 -19.9604 -19.9597 -19.9596 -19.9591 -19.9586 -19.9581 -19.9580
   -19.9548 -19.9542 -19.9541 -19.9540 -19.9529 -19.9525 -19.9523 -19.9521
   -19.9423 -19.9421 -19.9420 -19.9419 -19.9412 -19.9409 -19.9408 -19.9406
   -19.9131 -19.9131 -19.9117 -19.9117 -19.9082 -19.9082 -19.9082 -19.9081
   -19.9063 -19.9063 -19.9063 -19.9063 -19.9032 -19.9031 -19.9018 -19.9017
    -9.7980  -9.4843  -9.3529  -9.3527  -9.0524  -9.0244  -8.9466  -8.8385
    -8.8214  -8.7311  -8.6900  -8.6834  -7.7529  -7.6721  -7.6517  -7.6509
    -7.6216  -7.6047  -7.5978  -7.5957  -7.4930  -7.4738  -7.4647  -7.4519
     1.4679   1.4751   1.5219   1.5326   1.5479   1.5697   1.5879   1.7782
     1.7820   1.8246   1.8721   2.0655   2.5526   2.6419   2.6886   2.7095
     2.8380   2.8768   4.2671   4.3270   4.5051   4.6274   4.8443   4.9556
     4.9601   4.9967   5.0069   5.0115   5.2088   5.2253   5.3016   5.5191
     5.6117   5.6279   5.6906   5.6945   5.7432   5.7629   5.8589   5.9373
     5.9635   5.9965   6.0056   6.0273   6.0959   6.1105   6.1557   6.2731
     6.2901   6.3675   6.3965   6.6560   6.6770   6.9088   6.9294   6.9658
     7.0126   7.0324   7.0450   7.1097   7.1276   7.1862   7.4267   7.4706
     7.5004   7.5407   7.8893   7.9095   8.1089   8.1713   8.2171   8.2743
     9.7505   9.7657  10.2705  10.2907  10.3048  10.3289  12.4023  12.4555
    12.5671  12.6168  12.6517  12.6745  12.7745  12.7926  12.8333  13.0121
    13.4280  13.5033  13.5081  13.5754  13.8655  14.0347  14.3041  14.3065
    14.6175  14.6821  14.9049  14.9646  15.6622  15.6884  15.7454  16.2056
    16.2757  16.9452  17.1219  17.2137  17.5600  17.6027

[...]

          k = 0.3333-0.4760-0.4983 ( 61848 PWs)   bands (ev):

[...]

          k =-0.5000 0.0000 0.0000 ( 61868 PWs)   bands (ev):

[...]

          k =-0.5000-0.4760-0.4983 ( 61920 PWs)   bands (ev):

   -65.8249 -65.8249 -65.8249 -65.8249 -65.8249 -65.8249 -65.8249 -65.8249
   -30.2522 -30.2522 -30.2522 -30.2522 -30.2516 -30.2516 -30.2516 -30.2516
   -30.1416 -30.1416 -30.1416 -30.1416 -30.1393 -30.1393 -30.1392 -30.1392
   -30.1156 -30.1156 -30.1155 -30.1155 -30.1132 -30.1132 -30.1132 -30.1131
   -19.9720 -19.9720 -19.9720 -19.9720 -19.9720 -19.9720 -19.9720 -19.9719
   -19.9611 -19.9611 -19.9611 -19.9611 -19.9608 -19.9608 -19.9608 -19.9608
   -19.9598 -19.9598 -19.9597 -19.9597 -19.9595 -19.9595 -19.9595 -19.9595
   -19.9536 -19.9536 -19.9536 -19.9536 -19.9534 -19.9534 -19.9534 -19.9534
   -19.9415 -19.9415 -19.9415 -19.9415 -19.9414 -19.9414 -19.9414 -19.9414
   -19.9100 -19.9100 -19.9100 -19.9100 -19.9098 -19.9098 -19.9098 -19.9098
   -19.9051 -19.9051 -19.9050 -19.9050 -19.9049 -19.9049 -19.9049 -19.9049
    -8.7959  -8.7959  -8.7959  -8.7959  -8.7732  -8.7732  -8.7731  -8.7731
    -8.2657  -8.2657  -8.2657  -8.2657  -8.2252  -8.2252  -8.2252  -8.2252
    -8.1869  -8.1869  -8.1869  -8.1869  -8.1574  -8.1574  -8.1573  -8.1573
     3.0730   3.0730   3.0730   3.0730   3.1592   3.1592   3.1592   3.1592
     3.3182   3.3182   3.3182   3.3182   3.4403   3.4403   3.4403   3.4403
     3.5129   3.5129   3.5129   3.5130   3.6899   3.6899   3.6899   3.6899
     4.3029   4.3029   4.3029   4.3029   4.3184   4.3184   4.3184   4.3184
     4.5007   4.5007   4.5007   4.5007   4.5643   4.5643   4.5643   4.5643
     4.6428   4.6428   4.6428   4.6428   4.7049   4.7049   4.7049   4.7049
     7.2118   7.2118   7.2118   7.2118   7.3950   7.3950   7.3950   7.3950
     7.4533   7.4533   7.4533   7.4533   7.5141   7.5141   7.5141   7.5141
     7.6948   7.6948   7.6948   7.6948   7.7624   7.7624   7.7624   7.7624
    12.0852  12.0852  12.0852  12.0852  12.1064  12.1064  12.1064  12.1064
    12.3950  12.3950  12.3950  12.3950  12.5687  12.5687  12.5687  12.5687
    12.7364  12.7364  12.7364  12.7364  12.8327  12.8328  12.8328  12.8328
    17.1824  17.1824  17.1824  17.1824  17.2827  17.2828  17.2828  17.2828
    17.5342  17.5342  17.5344  17.5344  17.5781  17.5781

     the Fermi energy is    10.3094 ev

!    total energy              =   -6260.37307985 Ry
     Harris-Foulkes estimate   =   -6260.37307985 Ry
     estimated scf accuracy    <          1.2E-09 Ry

     The total energy is the sum of the following terms:

     one-electron contribution =   -4691.86863693 Ry
     hartree contribution      =    2587.11045974 Ry
     xc contribution           =    -966.77154147 Ry
     ewald contribution        =   -3188.84331157 Ry
     smearing contrib. (-TS)   =      -0.00004961 Ry

     convergence has been achieved in  13 iterations

     Writing output data file chempot_5.save

     General routines

     Parallel routines

   This run was terminated on:  12:59:53  28Aug2019

   JOB DONE.