     Program PWSCF v.6.4.1 starts on 17Dec2019 at 14:31: 1

     K-points division:     npool     =      40
     Reading input from scf.in

     Current dimensions of program PWSCF are:
     Max number of different atomic species (ntypx) = 10
     Max number of k-points (npk) =  40000
     Max angular momentum in pseudopotentials (lmaxx) =  3

     Subspace diagonalization in iterative solution of the eigenvalue problem:
     a serial algorithm will be used

     Message from routine setup:
     using ibrav=0 with symmetry is DISCOURAGED, use correct ibrav instead

     bravais-lattice index     =            0
     lattice parameter (alat)  =       9.9273  a.u.
     unit-cell volume          =    1423.7804 (a.u.)^3
     number of atoms/cell      =           16
     number of atomic types    =            2
     number of electrons       =       184.30
     number of Kohn-Sham states=          111
     kinetic-energy cutoff     =     120.0000  Ry
     charge density cutoff     =     480.0000  Ry
     convergence threshold     =      1.0E-08
     mixing beta               =       0.7000
     number of iterations used =            8  plain     mixing
     Exchange-correlation      = SLA PW NOGX NOGC ( 1  4  0  0 0 0)

     celldm(1)=   9.927251  celldm(2)=   0.000000  celldm(3)=   0.000000
     celldm(4)=   0.000000  celldm(5)=   0.000000  celldm(6)=   0.000000

     crystal axes: (cart. coord. in units of alat)
               a(1) = (   1.000000   0.000000   0.000000 )
               a(2) = (   0.000000   1.000000   0.000000 )
               a(3) = (   0.000000   0.000000   1.455311 )

     reciprocal axes: (cart. coord. in units 2 pi/alat)
               b(1) = (  1.000000  0.000000  0.000000 )
               b(2) = (  0.000000  1.000000  0.000000 )
               b(3) = (  0.000000  0.000000  0.687138 )

     PseudoPot. # 1 for W  read from file:
     /cluster/scratch/mnoe/QE/pps/W_ONCV_LDA-4.0.upf
     MD5 check sum: ba0307d5d4cd419d6f1d13dc49d7c13a
     Pseudo is Norm-conserving + core correction, Zval = 28.0
     Generated using ONCVPSP code by D. R. Hamann
     Using radial grid of 1380 points,  8 beta functions with:
                l(1) =   0
                l(2) =   0
                l(3) =   1
                l(4) =   1
                l(5) =   2
                l(6) =   2
                l(7) =   3
                l(8) =   3

     PseudoPot. # 2 for O  read from file:
     /cluster/scratch/mnoe/QE/pps/O_ONCV_LDA-3.0.upf
     MD5 check sum: b55cdb4f45ae2203d24ad12cf8d61a31
     Pseudo is Norm-conserving + core correction, Zval =  6.0
     Generated using ONCVPSP code by D. R. Hamann
     Using radial grid of  926 points,  5 beta functions with:
                l(1) =   0
                l(2) =   0
                l(3) =   1
                l(4) =   1
                l(5) =   2

     atomic species   valence    mass     pseudopotential
        W             28.00   183.84000     W ( 1.00)
        O              6.00    15.99940     O ( 1.00)

     16 Sym. Ops., with inversion, found (14 have fractional translation)

   Cartesian axes

     site n.     atom                  positions (alat units)
         1           W   tau(   1) = (   0.2500000   0.2500000   0.3045866  )
         2           W   tau(   2) = (   0.7500000   0.7500000   1.1507249  )
         3           W   tau(   3) = (   0.7500000   0.7500000   0.4230691  )
         4           W   tau(   4) = (   0.2500000   0.2500000   1.0322423  )
         5           O   tau(   5) = (   0.2500000   0.2500000   0.6912233  )
         6           O   tau(   6) = (   0.7500000   0.7500000   0.7640882  )
         7           O   tau(   7) = (   0.7500000   0.7500000   0.0364325  )
         8           O   tau(   8) = (   0.2500000   0.2500000   1.4188790  )
         9           O   tau(   9) = (   0.4950507   0.5049492   0.3638279  )
        10           O   tau(  10) = (   0.5049493   0.4950508   1.0914836  )
        11           O   tau(  11) = (   0.0049493   0.9950508   0.3638279  )
        12           O   tau(  12) = (   0.9950507   0.0049493   1.0914836  )
        13           O   tau(  13) = (   0.9950508   0.4950507   0.3638279  )
        14           O   tau(  14) = (   0.0049493   0.5049493   1.0914836  )
        15           O   tau(  15) = (   0.5049492   0.0049493   0.3638279  )
        16           O   tau(  16) = (   0.4950508   0.9950507   1.0914836  )

     number of k points=    60  gaussian smearing, width (Ry)=  0.0007
                       cart. coord. in units 2pi/alat
        k(    1) = (   0.0000000   0.0000000   0.0000000), wk =   0.0041152
        k(    2) = (   0.0000000   0.0000000   0.1145230), wk =   0.0082305
        k(    3) = (   0.0000000   0.0000000   0.2290460), wk =   0.0082305
        k(    4) = (   0.0000000   0.0000000  -0.3435691), wk =   0.0041152
        k(    5) = (   0.0000000   0.1111111   0.0000000), wk =   0.0164609
        k(    6) = (   0.0000000   0.1111111   0.1145230), wk =   0.0329218
        k(    7) = (   0.0000000   0.1111111   0.2290460), wk =   0.0329218
        k(    8) = (   0.0000000   0.1111111  -0.3435691), wk =   0.0164609
        k(    9) = (   0.0000000   0.2222222   0.0000000), wk =   0.0164609
        k(   10) = (   0.0000000   0.2222222   0.1145230), wk =   0.0329218
        k(   11) = (   0.0000000   0.2222222   0.2290460), wk =   0.0329218
        k(   12) = (   0.0000000   0.2222222  -0.3435691), wk =   0.0164609
        k(   13) = (   0.0000000   0.3333333   0.0000000), wk =   0.0164609
        k(   14) = (   0.0000000   0.3333333   0.1145230), wk =   0.0329218
        k(   15) = (   0.0000000   0.3333333   0.2290460), wk =   0.0329218
        k(   16) = (   0.0000000   0.3333333  -0.3435691), wk =   0.0164609
        k(   17) = (   0.0000000   0.4444444   0.0000000), wk =   0.0164609
        k(   18) = (   0.0000000   0.4444444   0.1145230), wk =   0.0329218
        k(   19) = (   0.0000000   0.4444444   0.2290460), wk =   0.0329218
        k(   20) = (   0.0000000   0.4444444  -0.3435691), wk =   0.0164609
        k(   21) = (   0.1111111   0.1111111   0.0000000), wk =   0.0164609
        k(   22) = (   0.1111111   0.1111111   0.1145230), wk =   0.0329218
        k(   23) = (   0.1111111   0.1111111   0.2290460), wk =   0.0329218
        k(   24) = (   0.1111111   0.1111111  -0.3435691), wk =   0.0164609
        k(   25) = (   0.1111111   0.2222222   0.0000000), wk =   0.0329218
        k(   26) = (   0.1111111   0.2222222   0.1145230), wk =   0.0658436
        k(   27) = (   0.1111111   0.2222222   0.2290460), wk =   0.0658436
        k(   28) = (   0.1111111   0.2222222  -0.3435691), wk =   0.0329218
        k(   29) = (   0.1111111   0.3333333   0.0000000), wk =   0.0329218
        k(   30) = (   0.1111111   0.3333333   0.1145230), wk =   0.0658436
        k(   31) = (   0.1111111   0.3333333   0.2290460), wk =   0.0658436
        k(   32) = (   0.1111111   0.3333333  -0.3435691), wk =   0.0329218
        k(   33) = (   0.1111111   0.4444444   0.0000000), wk =   0.0329218
        k(   34) = (   0.1111111   0.4444444   0.1145230), wk =   0.0658436
        k(   35) = (   0.1111111   0.4444444   0.2290460), wk =   0.0658436
        k(   36) = (   0.1111111   0.4444444  -0.3435691), wk =   0.0329218
        k(   37) = (   0.2222222   0.2222222   0.0000000), wk =   0.0164609
        k(   38) = (   0.2222222   0.2222222   0.1145230), wk =   0.0329218
        k(   39) = (   0.2222222   0.2222222   0.2290460), wk =   0.0329218
        k(   40) = (   0.2222222   0.2222222  -0.3435691), wk =   0.0164609
        k(   41) = (   0.2222222   0.3333333   0.0000000), wk =   0.0329218
        k(   42) = (   0.2222222   0.3333333   0.1145230), wk =   0.0658436
        k(   43) = (   0.2222222   0.3333333   0.2290460), wk =   0.0658436
        k(   44) = (   0.2222222   0.3333333  -0.3435691), wk =   0.0329218
        k(   45) = (   0.2222222   0.4444444   0.0000000), wk =   0.0329218
        k(   46) = (   0.2222222   0.4444444   0.1145230), wk =   0.0658436
        k(   47) = (   0.2222222   0.4444444   0.2290460), wk =   0.0658436
        k(   48) = (   0.2222222   0.4444444  -0.3435691), wk =   0.0329218
        k(   49) = (   0.3333333   0.3333333   0.0000000), wk =   0.0164609
        k(   50) = (   0.3333333   0.3333333   0.1145230), wk =   0.0329218
        k(   51) = (   0.3333333   0.3333333   0.2290460), wk =   0.0329218
        k(   52) = (   0.3333333   0.3333333  -0.3435691), wk =   0.0164609
        k(   53) = (   0.3333333   0.4444444   0.0000000), wk =   0.0329218
        k(   54) = (   0.3333333   0.4444444   0.1145230), wk =   0.0658436
        k(   55) = (   0.3333333   0.4444444   0.2290460), wk =   0.0658436
        k(   56) = (   0.3333333   0.4444444  -0.3435691), wk =   0.0329218
        k(   57) = (   0.4444444   0.4444444   0.0000000), wk =   0.0164609
        k(   58) = (   0.4444444   0.4444444   0.1145230), wk =   0.0329218
        k(   59) = (   0.4444444   0.4444444   0.2290460), wk =   0.0329218
        k(   60) = (   0.4444444   0.4444444  -0.3435691), wk =   0.0164609

     Initial potential from superposition of free atoms

     starting charge  183.99828, renormalised to  184.30000
     Starting wfcs are  116 randomized atomic wfcs

     Self-consistent Calculation

     iteration #  1     ecut=   120.00 Ry     beta= 0.70
     Davidson diagonalization with overlap
     ethr =  1.00E-02,  avg # of iterations =  4.8

     total energy              =   -3126.60411722 Ry
     Harris-Foulkes estimate   =   -3132.14807642 Ry
     estimated scf accuracy    <       6.97817743 Ry

[...]

     total energy              =   -3130.31140075 Ry
     Harris-Foulkes estimate   =   -3130.31140077 Ry
     estimated scf accuracy    <       0.00000004 Ry

     iteration # 12     ecut=   120.00 Ry     beta= 0.70
     Davidson diagonalization with overlap
     ethr =  2.04E-11,  avg # of iterations =  2.0

     End of self-consistent calculation

          k = 0.0000 0.0000 0.0000 ( 31631 PWs)   bands (ev):

   -66.3011 -66.3006 -66.2998 -66.2993 -30.6876 -30.6835 -30.6325 -30.6325
   -30.6284 -30.6284 -30.6158 -30.6129 -30.5531 -30.5531 -30.5498 -30.5498
   -20.4553 -20.4552 -20.4552 -20.4551 -20.4469 -20.4468 -20.4401 -20.4401
   -20.4400 -20.4399 -20.4399 -20.4398 -20.4375 -20.4375 -20.4361 -20.4361
   -20.4349 -20.4349 -20.4334 -20.4334 -20.4273 -20.4273 -20.4272 -20.4272
   -20.4248 -20.4248 -20.4248 -20.4248 -10.1727  -9.7702  -9.3979  -9.1298
    -9.1054  -9.0298  -7.9767  -7.8764  -7.8764  -7.8520  -7.8520  -7.8504
     0.9901   0.9910   1.0208   1.2242   1.3314   1.4238   2.3371   2.3371
     2.3833   2.4976   3.9365   3.9365   4.6420   4.6420   4.8732   5.4685
     5.4685   5.5866   5.5866   5.7377   5.7377   5.8260   5.8755   6.4772
     6.4772   6.7226   7.0127   7.0628   7.0628   7.0705   7.0786   7.0786
     8.1828   8.1828   8.2678   8.2782   8.8457   8.8506   9.4435   9.4435
    12.3454  12.3454  13.2085  13.2085  13.4215  13.7209  13.7360  14.0602
    14.0649  14.0943  14.0943  14.5256  15.4808  16.3223  17.0231

[...]

          k = 0.4444 0.4444-0.3436 ( 31608 PWs)   bands (ev):

   -66.3002 -66.3002 -66.3002 -66.3002 -30.6504 -30.6504 -30.6502 -30.6502
   -30.6350 -30.6350 -30.6323 -30.6323 -30.5497 -30.5497 -30.5474 -30.5474
   -20.4552 -20.4552 -20.4552 -20.4552 -20.4436 -20.4435 -20.4435 -20.4435
   -20.4400 -20.4400 -20.4400 -20.4399 -20.4368 -20.4368 -20.4366 -20.4366
   -20.4340 -20.4340 -20.4340 -20.4340 -20.4289 -20.4289 -20.4289 -20.4289
   -20.4233 -20.4233 -20.4232 -20.4232  -9.5322  -9.5322  -9.4918  -9.4918
    -8.6300  -8.6300  -8.6245  -8.6245  -7.9692  -7.9692  -7.9158  -7.9158
     1.1268   1.1268   1.2402   1.2402   2.9245   2.9245   2.9312   2.9312
     3.1747   3.1747   3.1988   3.1988   4.3863   4.3863   4.5739   4.5739
     5.0885   5.0885   5.2214   5.2214   5.7137   5.7137   5.8783   5.8783
     6.1275   6.1275   6.2632   6.2632   6.5712   6.5712   6.6706   6.6706
     7.3894   7.3894   7.3978   7.3978  11.0724  11.0724  11.1302  11.1302
    12.3166  12.3166  12.4298  12.4298  13.4084  13.4084  13.5060  13.5060
    14.9392  14.9392  15.1327  15.1327  17.6148  17.6148  17.7727

     the Fermi energy is     9.4684 ev

!    total energy              =   -3130.31140075 Ry
     Harris-Foulkes estimate   =   -3130.31140076 Ry
     estimated scf accuracy    <          1.1E-09 Ry

     The total energy is the sum of the following terms:

     one-electron contribution =   -2396.08521897 Ry
     hartree contribution      =    1315.72370354 Ry
     xc contribution           =    -483.18968186 Ry
     ewald contribution        =   -1566.76017442 Ry
     smearing contrib. (-TS)   =      -0.00002903 Ry

     convergence has been achieved in  12 iterations

     Writing output data file chempot_6.save/

     General routines

     Parallel routines

   This run was terminated on:  14:37: 5  17Dec2019

   JOB DONE.