     Program PWSCF v.6.2 (svn rev. 14038) starts on 21Mar2020 at  0:27:56

     K-points division:     npool     =      40
     Reading input from scf.in

     Current dimensions of program PWSCF are:
     Max number of different atomic species (ntypx) = 10
     Max number of k-points (npk) =  40000
     Max angular momentum in pseudopotentials (lmaxx) =  3

     Subspace diagonalization in iterative solution of the eigenvalue problem:
     a serial algorithm will be used

     Found symmetry operation: I + (  0.5000  0.0000 -0.5000)
     This is a supercell, fractional translations are disabled

     bravais-lattice index     =            0
     lattice parameter (alat)  =      13.9838  a.u.
     unit-cell volume          =    2842.7820 (a.u.)^3
     number of atoms/cell      =           32
     number of atomic types    =            2
     number of electrons       =       368.60
     number of Kohn-Sham states=          221
     kinetic-energy cutoff     =     120.0000  Ry
     charge density cutoff     =     480.0000  Ry
     convergence threshold     =      1.0E-08
     mixing beta               =       0.7000
     number of iterations used =            8  plain     mixing
     Exchange-correlation      = SLA PW NOGX NOGC ( 1  4  0  0 0 0)

     celldm(1)=  13.983753  celldm(2)=   0.000000  celldm(3)=   0.000000
     celldm(4)=   0.000000  celldm(5)=   0.000000  celldm(6)=   0.000000

     crystal axes: (cart. coord. in units of alat)
               a(1) = (   1.000000  -0.000000   0.000000 )
               a(2) = (  -0.000000   1.039615  -0.000000 )
               a(3) = (   0.000000  -0.000000   1.000000 )

     reciprocal axes: (cart. coord. in units 2 pi/alat)
               b(1) = (  1.000000  0.000000 -0.000000 )
               b(2) = (  0.000000  0.961895  0.000000 )
               b(3) = ( -0.000000  0.000000  1.000000 )

     PseudoPot. # 1 for W  read from file:
     /cluster/scratch/mnoe/QE/pps/W_ONCV_LDA-4.0.upf
     MD5 check sum: ba0307d5d4cd419d6f1d13dc49d7c13a
     Pseudo is Norm-conserving + core correction, Zval = 28.0
     Generated using ONCVPSP code by D. R. Hamann
     Using radial grid of 1380 points,  8 beta functions with:
                l(1) =   0
                l(2) =   0
                l(3) =   1
                l(4) =   1
                l(5) =   2
                l(6) =   2
                l(7) =   3
                l(8) =   3

     PseudoPot. # 2 for O  read from file:
     /cluster/scratch/mnoe/QE/pps/O_ONCV_LDA-3.0.upf
     MD5 check sum: a1bd6164e7280c17a38c229939bfbd54
     Pseudo is Norm-conserving + core correction, Zval =  6.0
     Generated using ONCVPSP code by D. R. Hamann
     Using radial grid of  926 points,  5 beta functions with:
                l(1) =   0
                l(2) =   0
                l(3) =   1
                l(4) =   1
                l(5) =   2

     atomic species   valence    mass     pseudopotential
        W             28.00   183.84000     W ( 1.00)
        O              6.00    15.99940     O ( 1.00)

      2 Sym. Ops., with inversion, found

   Cartesian axes

     site n.     atom                  positions (alat units)
         1           W   tau(   1) = (   0.2500000   0.2880608  -0.0000000  )
         2           W   tau(   2) = (   0.7500000   0.7515537  -0.0000000  )
         3           W   tau(   3) = (   0.2500000   0.2317465   0.5000000  )
         4           W   tau(   4) = (   0.7500000   0.8078680   0.5000000  )
         5           W   tau(   5) = (   0.7500000   0.2880608   0.5000000  )
         6           W   tau(   6) = (   0.2500000   0.7515537   0.5000000  )
         7           W   tau(   7) = (   0.7500000   0.2317465  -0.0000000  )
         8           W   tau(   8) = (   0.2500000   0.8078680  -0.0000000  )
         9           O   tau(   9) = (   0.2500000   0.0072970   0.0000000  )
        10           O   tau(  10) = (   0.7500000   1.0323175  -0.0000000  )
        11           O   tau(  11) = (   0.2500000   0.5125103   0.5000000  )
        12           O   tau(  12) = (   0.7500000   0.5271042   0.5000000  )
        13           O   tau(  13) = (   0.7500000   0.0072970   0.5000000  )
        14           O   tau(  14) = (   0.2500000   1.0323175   0.5000000  )
        15           O   tau(  15) = (   0.7500000   0.5125103  -0.0000000  )
        16           O   tau(  16) = (   0.2500000   0.5271043  -0.0000000  )
        17           O   tau(  17) = (   0.5000000   0.2599036   0.4612177  )
        18           O   tau(  18) = (   0.5000000   0.7797109   0.5387823  )
        19           O   tau(  19) = (  -0.0000000   0.2599036   0.9612178  )
        20           O   tau(  20) = (  -0.0000000   0.7797109   0.0387822  )
        21           O   tau(  21) = (   0.5000000   0.2599036   0.0387822  )
        22           O   tau(  22) = (   0.5000000   0.7797109   0.9612178  )
        23           O   tau(  23) = (  -0.0000000   0.2599036   0.5387823  )
        24           O   tau(  24) = (  -0.0000000   0.7797109   0.4612177  )
        25           O   tau(  25) = (   0.7112177   0.2599036   0.7500000  )
        26           O   tau(  26) = (   0.2887822   0.7797109   0.2500000  )
        27           O   tau(  27) = (   0.7887823   0.2599036   0.2500000  )
        28           O   tau(  28) = (   0.2112178   0.7797109   0.7500000  )
        29           O   tau(  29) = (   0.2887822   0.2599036   0.7500000  )
        30           O   tau(  30) = (   0.7112177   0.7797109   0.2500000  )
        31           O   tau(  31) = (   0.2112178   0.2599036   0.2500000  )
        32           O   tau(  32) = (   0.7887823   0.7797109   0.7500000  )

     number of k points=   112  gaussian smearing, width (Ry)=  0.0007

     Number of k-points >= 100: set verbosity='high' to print them.

     Initial potential from superposition of free atoms

     starting charge  367.99656, renormalised to  368.60000
     Starting wfc are  232 randomized atomic wfcs

     Self-consistent Calculation

     iteration #  1     ecut=   120.00 Ry     beta= 0.70
     Davidson diagonalization with overlap
     ethr =  1.00E-02,  avg # of iterations =  5.1

     total energy              =   -6253.41926732 Ry
     Harris-Foulkes estimate   =   -6264.30946077 Ry
     estimated scf accuracy    <      13.71692791 Ry

[...]

     iteration # 10     ecut=   120.00 Ry     beta= 0.70
     Davidson diagonalization with overlap
     c_bands:  1 eigenvalues not converged
     ethr =  3.32E-08,  avg # of iterations =  2.0

[...]

     total energy              =   -6260.69496349 Ry
     Harris-Foulkes estimate   =   -6260.69496349 Ry
     estimated scf accuracy    <       0.00000001 Ry

     iteration # 15     ecut=   120.00 Ry     beta= 0.70
     Davidson diagonalization with overlap
     ethr =  3.15E-12,  avg # of iterations =  3.0

     End of self-consistent calculation

     Number of k-points >= 100: set verbosity='high' to print the bands.

     the Fermi energy is     9.5747 ev

!    total energy              =   -6260.69496349 Ry
     Harris-Foulkes estimate   =   -6260.69496349 Ry
     estimated scf accuracy    <          9.7E-09 Ry

     The total energy is the sum of the following terms:

     one-electron contribution =   -4780.30938049 Ry
     hartree contribution      =    2625.57726148 Ry
     xc contribution           =    -966.33020151 Ry
     ewald contribution        =   -3139.63261143 Ry
     smearing contrib. (-TS)   =      -0.00003154 Ry

     convergence has been achieved in  15 iterations

     Writing output data file Landau_6.save

     General routines

     Parallel routines

   This run was terminated on:   1:18: 3  21Mar2020

   JOB DONE.