     Program PWSCF v.6.4.1 starts on 22Nov2019 at 14:23:32

     K-points division:     npool     =      40
     Reading input from scf.in

     Current dimensions of program PWSCF are:
     Max number of different atomic species (ntypx) = 10
     Max number of k-points (npk) =  40000
     Max angular momentum in pseudopotentials (lmaxx) =  3

     Subspace diagonalization in iterative solution of the eigenvalue problem:
     a serial algorithm will be used

     Message from routine setup:
     using ibrav=0 with symmetry is DISCOURAGED, use correct ibrav instead

     bravais-lattice index     =            0
     lattice parameter (alat)  =      14.1050  a.u.
     unit-cell volume          =    2801.1042 (a.u.)^3
     number of atoms/cell      =           32
     number of atomic types    =            2
     number of electrons       =       369.00
     number of Kohn-Sham states=          222
     kinetic-energy cutoff     =     120.0000  Ry
     charge density cutoff     =     480.0000  Ry
     convergence threshold     =      1.0E-08
     mixing beta               =       0.7000
     number of iterations used =            8  plain     mixing
     Exchange-correlation      = SLA PW NOGX NOGC ( 1  4  0  0 0 0)

     celldm(1)=  14.104975  celldm(2)=   0.000000  celldm(3)=   0.000000
     celldm(4)=   0.000000  celldm(5)=   0.000000  celldm(6)=   0.000000

     crystal axes: (cart. coord. in units of alat)
               a(1) = (   1.000000   0.000000   0.000000 )
               a(2) = (   0.000000   1.005566   0.000000 )
               a(3) = (   0.000000   0.000000   0.992663 )

     reciprocal axes: (cart. coord. in units 2 pi/alat)
               b(1) = (  1.000000  0.000000  0.000000 )
               b(2) = (  0.000000  0.994465  0.000000 )
               b(3) = (  0.000000  0.000000  1.007391 )

     PseudoPot. # 1 for W  read from file:
     /cluster/scratch/mnoe/QE/pps/W_ONCV_LDA-4.0.upf
     MD5 check sum: ba0307d5d4cd419d6f1d13dc49d7c13a
     Pseudo is Norm-conserving + core correction, Zval = 28.0
     Generated using ONCVPSP code by D. R. Hamann
     Using radial grid of 1380 points,  8 beta functions with:
                l(1) =   0
                l(2) =   0
                l(3) =   1
                l(4) =   1
                l(5) =   2
                l(6) =   2
                l(7) =   3
                l(8) =   3

     PseudoPot. # 2 for O  read from file:
     /cluster/scratch/mnoe/QE/pps/O_ONCV_LDA-3.0.upf
     MD5 check sum: b55cdb4f45ae2203d24ad12cf8d61a31
     Pseudo is Norm-conserving + core correction, Zval =  6.0
     Generated using ONCVPSP code by D. R. Hamann
     Using radial grid of  926 points,  5 beta functions with:
                l(1) =   0
                l(2) =   0
                l(3) =   1
                l(4) =   1
                l(5) =   2

     atomic species   valence    mass     pseudopotential
        W             28.00   183.84000     W ( 1.00)
        O              6.00    15.99940     O ( 1.00)

      8 Sym. Ops., with inversion, found ( 6 have fractional translation)

   Cartesian axes

     site n.     atom                  positions (alat units)
         1           W   tau(   1) = (   0.2324300   0.2964054   0.0164782  )
         2           W   tau(   2) = (   0.7675700   0.7091604   0.9761846  )
         3           W   tau(   3) = (   0.2675700   0.2063775   0.5128096  )
         4           W   tau(   4) = (   0.7324300   0.7991883   0.4798532  )
         5           W   tau(   5) = (   0.7675700   0.2964054   0.4798532  )
         6           W   tau(   6) = (   0.2324300   0.7091604   0.5128096  )
         7           W   tau(   7) = (   0.7324300   0.2063775   0.9761846  )
         8           W   tau(   8) = (   0.2675700   0.7991883   0.0164782  )
         9           O   tau(   9) = (   0.2175800   0.0329210   0.0051221  )
        10           O   tau(  10) = (   0.7824200   0.9726449   0.9875407  )
        11           O   tau(  11) = (   0.2824200   0.4698619   0.5014536  )
        12           O   tau(  12) = (   0.7175800   0.5357040   0.4912093  )
        13           O   tau(  13) = (   0.7824200   0.0329210   0.4912093  )
        14           O   tau(  14) = (   0.2175800   0.9726449   0.5014536  )
        15           O   tau(  15) = (   0.7175800   0.4698619   0.9875407  )
        16           O   tau(  16) = (   0.2824200   0.5357040   0.0051221  )
        17           O   tau(  17) = (   0.5048000   0.2179463   0.5124537  )
        18           O   tau(  18) = (   0.4952000   0.7876195   0.4802092  )
        19           O   tau(  19) = (   0.9952000   0.2848366   1.0087851  )
        20           O   tau(  20) = (   0.0048001   0.7207293  -0.0161222  )
        21           O   tau(  21) = (   0.4952000   0.2179463  -0.0161222  )
        22           O   tau(  22) = (   0.5048000   0.7876195   1.0087851  )
        23           O   tau(  23) = (   0.0048001   0.2848366   0.4802092  )
        24           O   tau(  24) = (   0.9952000   0.7207293   0.5124537  )
        25           O   tau(  25) = (   0.7662415   0.2440911   0.7372606  )
        26           O   tau(  26) = (   0.2337586   0.7614747   0.2554022  )
        27           O   tau(  27) = (   0.7337586   0.2586919   0.2409292  )
        28           O   tau(  28) = (   0.2662415   0.7468740   0.7517336  )
        29           O   tau(  29) = (   0.2337586   0.2440911   0.7517336  )
        30           O   tau(  30) = (   0.7662415   0.7614747   0.2409292  )
        31           O   tau(  31) = (   0.2662415   0.2586919   0.2554022  )
        32           O   tau(  32) = (   0.7337586   0.7468740   0.7372606  )

     number of k points=    64  gaussian smearing, width (Ry)=  0.0007
                       cart. coord. in units 2pi/alat
        k(    1) = (   0.0000000   0.0000000   0.0000000), wk =   0.0092593
        k(    2) = (   0.0000000   0.0000000   0.1678986), wk =   0.0185185
        k(    3) = (   0.0000000   0.0000000   0.3357971), wk =   0.0185185
        k(    4) = (   0.0000000   0.0000000  -0.5036957), wk =   0.0092593
        k(    5) = (   0.0000000   0.1657442   0.0000000), wk =   0.0185185
        k(    6) = (   0.0000000   0.1657442   0.1678986), wk =   0.0370370
        k(    7) = (   0.0000000   0.1657442   0.3357971), wk =   0.0370370
        k(    8) = (   0.0000000   0.1657442  -0.5036957), wk =   0.0185185
        k(    9) = (   0.0000000   0.3314883   0.0000000), wk =   0.0185185
        k(   10) = (   0.0000000   0.3314883   0.1678986), wk =   0.0370370
        k(   11) = (   0.0000000   0.3314883   0.3357971), wk =   0.0370370
        k(   12) = (   0.0000000   0.3314883  -0.5036957), wk =   0.0185185
        k(   13) = (   0.0000000  -0.4972325   0.0000000), wk =   0.0092593
        k(   14) = (   0.0000000  -0.4972325   0.1678986), wk =   0.0185185
        k(   15) = (   0.0000000  -0.4972325   0.3357971), wk =   0.0185185
        k(   16) = (   0.0000000  -0.4972325  -0.5036957), wk =   0.0092593
        k(   17) = (   0.1666667   0.0000000   0.0000000), wk =   0.0185185
        k(   18) = (   0.1666667   0.0000000   0.1678986), wk =   0.0370370
        k(   19) = (   0.1666667   0.0000000   0.3357971), wk =   0.0370370
        k(   20) = (   0.1666667   0.0000000  -0.5036957), wk =   0.0185185
        k(   21) = (   0.1666667   0.1657442   0.0000000), wk =   0.0370370
        k(   22) = (   0.1666667   0.1657442   0.1678986), wk =   0.0740741
        k(   23) = (   0.1666667   0.1657442   0.3357971), wk =   0.0740741
        k(   24) = (   0.1666667   0.1657442  -0.5036957), wk =   0.0370370
        k(   25) = (   0.1666667   0.3314883   0.0000000), wk =   0.0370370
        k(   26) = (   0.1666667   0.3314883   0.1678986), wk =   0.0740741
        k(   27) = (   0.1666667   0.3314883   0.3357971), wk =   0.0740741
        k(   28) = (   0.1666667   0.3314883  -0.5036957), wk =   0.0370370
        k(   29) = (   0.1666667  -0.4972325   0.0000000), wk =   0.0185185
        k(   30) = (   0.1666667  -0.4972325   0.1678986), wk =   0.0370370
        k(   31) = (   0.1666667  -0.4972325   0.3357971), wk =   0.0370370
        k(   32) = (   0.1666667  -0.4972325  -0.5036957), wk =   0.0185185
        k(   33) = (   0.3333333   0.0000000   0.0000000), wk =   0.0185185
        k(   34) = (   0.3333333   0.0000000   0.1678986), wk =   0.0370370
        k(   35) = (   0.3333333   0.0000000   0.3357971), wk =   0.0370370
        k(   36) = (   0.3333333   0.0000000  -0.5036957), wk =   0.0185185
        k(   37) = (   0.3333333   0.1657442   0.0000000), wk =   0.0370370
        k(   38) = (   0.3333333   0.1657442   0.1678986), wk =   0.0740741
        k(   39) = (   0.3333333   0.1657442   0.3357971), wk =   0.0740741
        k(   40) = (   0.3333333   0.1657442  -0.5036957), wk =   0.0370370
        k(   41) = (   0.3333333   0.3314883   0.0000000), wk =   0.0370370
        k(   42) = (   0.3333333   0.3314883   0.1678986), wk =   0.0740741
        k(   43) = (   0.3333333   0.3314883   0.3357971), wk =   0.0740741
        k(   44) = (   0.3333333   0.3314883  -0.5036957), wk =   0.0370370
        k(   45) = (   0.3333333  -0.4972325   0.0000000), wk =   0.0185185
        k(   46) = (   0.3333333  -0.4972325   0.1678986), wk =   0.0370370
        k(   47) = (   0.3333333  -0.4972325   0.3357971), wk =   0.0370370
        k(   48) = (   0.3333333  -0.4972325  -0.5036957), wk =   0.0185185
        k(   49) = (  -0.5000000   0.0000000   0.0000000), wk =   0.0092593
        k(   50) = (  -0.5000000   0.0000000   0.1678986), wk =   0.0185185
        k(   51) = (  -0.5000000   0.0000000   0.3357971), wk =   0.0185185
        k(   52) = (  -0.5000000   0.0000000  -0.5036957), wk =   0.0092593
        k(   53) = (  -0.5000000   0.1657442   0.0000000), wk =   0.0185185
        k(   54) = (  -0.5000000   0.1657442   0.1678986), wk =   0.0370370
        k(   55) = (  -0.5000000   0.1657442   0.3357971), wk =   0.0370370
        k(   56) = (  -0.5000000   0.1657442  -0.5036957), wk =   0.0185185
        k(   57) = (  -0.5000000   0.3314883   0.0000000), wk =   0.0185185
        k(   58) = (  -0.5000000   0.3314883   0.1678986), wk =   0.0370370
        k(   59) = (  -0.5000000   0.3314883   0.3357971), wk =   0.0370370
        k(   60) = (  -0.5000000   0.3314883  -0.5036957), wk =   0.0185185
        k(   61) = (  -0.5000000  -0.4972325   0.0000000), wk =   0.0092593
        k(   62) = (  -0.5000000  -0.4972325   0.1678986), wk =   0.0185185
        k(   63) = (  -0.5000000  -0.4972325   0.3357971), wk =   0.0185185
        k(   64) = (  -0.5000000  -0.4972325  -0.5036957), wk =   0.0092593

     Initial potential from superposition of free atoms

     starting charge  367.99656, renormalised to  369.00000
     Starting wfcs are  232 randomized atomic wfcs

     Self-consistent Calculation

     iteration #  1     ecut=   120.00 Ry     beta= 0.70
     Davidson diagonalization with overlap
     ethr =  1.00E-02,  avg # of iterations =  5.4

     total energy              =   -6252.68827413 Ry
     Harris-Foulkes estimate   =   -6263.95080496 Ry
     estimated scf accuracy    <      14.12592735 Ry

[...]

     total energy              =   -6260.21352467 Ry
     Harris-Foulkes estimate   =   -6260.21352468 Ry
     estimated scf accuracy    <       0.00000002 Ry

     iteration # 13     ecut=   120.00 Ry     beta= 0.70
     Davidson diagonalization with overlap
     ethr =  6.41E-12,  avg # of iterations =  2.8

     End of self-consistent calculation

          k = 0.0000 0.0000 0.0000 ( 62229 PWs)   bands (ev):

   -65.9037 -65.9031 -65.9031 -65.9030 -65.9025 -65.9024 -65.9024 -65.9018
   -30.3426 -30.3377 -30.3356 -30.3309 -30.2812 -30.2769 -30.2689 -30.2621
   -30.2565 -30.2520 -30.2509 -30.2452 -30.2428 -30.2310 -30.2298 -30.2190
   -30.1771 -30.1738 -30.1629 -30.1593 -30.1572 -30.1541 -30.1498 -30.1468
   -20.0564 -20.0564 -20.0557 -20.0556 -20.0555 -20.0555 -20.0546 -20.0546
   -20.0520 -20.0516 -20.0514 -20.0511 -20.0502 -20.0497 -20.0495 -20.0493
   -20.0476 -20.0470 -20.0468 -20.0462 -20.0440 -20.0434 -20.0434 -20.0427
   -20.0291 -20.0290 -20.0285 -20.0284 -20.0275 -20.0274 -20.0269 -20.0268
   -20.0182 -20.0182 -20.0174 -20.0173 -20.0160 -20.0160 -20.0145 -20.0143
   -20.0061 -20.0060 -20.0049 -20.0048 -20.0024 -20.0024 -20.0016 -20.0016
   -19.9955 -19.9953 -19.9951 -19.9949 -19.9941 -19.9941 -19.9934 -19.9933
    -9.8955  -9.4985  -9.4874  -9.4444  -9.0719  -9.0465  -9.0423  -8.7597
    -8.7197  -8.6555  -8.6538  -8.6426  -7.8938  -7.8015  -7.7925  -7.7213
    -7.6902  -7.6768  -7.6560  -7.6352  -7.4969  -7.4715  -7.4354  -7.4166
     1.4338   1.4721   1.4778   1.4811   1.4917   1.5368   1.5410   1.5898
     1.6896   1.7277   1.7589   1.8304   2.5072   2.5668   2.5766   2.6466
     2.6594   2.7799   4.1107   4.2607   4.3194   4.5120   4.7023   4.7767
     4.7955   4.8026   4.8682   4.9123   5.0128   5.1078   5.3961   5.5937
     5.6201   5.6212   5.7951   5.7970   5.8401   5.8944   5.9356   5.9500
     5.9513   6.0508   6.1037   6.1283   6.1641   6.1995   6.2073   6.2148
     6.3939   6.5413   6.5528   6.5784   6.5944   6.8812   6.8853   6.9438
     6.9734   7.0040   7.0597   7.0874   7.1714   7.1749   7.2162   7.2514
     7.3419   7.3549   8.2045   8.2618   8.3217   8.3487   8.6288   8.6346
     9.7672   9.8035   9.9016  10.0768  10.1208  10.2764  12.4844  12.4968
    12.5009  12.7128  12.8030  12.8781  12.8936  13.0150  13.0206  13.0880
    13.1025  13.2437  13.3826  13.4248  13.8624  14.0847  14.1756  14.2633
    14.2718  14.4333  14.7426  14.8716  15.1580  15.1722  15.4543  15.6570
    16.0690  16.4136  16.9437  17.0853  17.1851  17.3555

[...]

          k = 0.3333-0.4972-0.5037 ( 62164 PWs)   bands (ev):

[...]

          k =-0.5000 0.0000 0.0000 ( 62186 PWs)   bands (ev):

[...]

          k =-0.5000-0.4972-0.5037 ( 62120 PWs)   bands (ev):

   -65.9028 -65.9028 -65.9027 -65.9027 -65.9027 -65.9027 -65.9027 -65.9027
   -30.3031 -30.3031 -30.3031 -30.3031 -30.3022 -30.3022 -30.3022 -30.3022
   -30.2178 -30.2178 -30.2178 -30.2178 -30.2174 -30.2174 -30.2174 -30.2174
   -30.1865 -30.1865 -30.1864 -30.1864 -30.1854 -30.1854 -30.1853 -30.1853
   -20.0559 -20.0559 -20.0559 -20.0559 -20.0555 -20.0555 -20.0555 -20.0555
   -20.0507 -20.0507 -20.0507 -20.0507 -20.0502 -20.0502 -20.0502 -20.0502
   -20.0454 -20.0453 -20.0453 -20.0453 -20.0451 -20.0451 -20.0450 -20.0450
   -20.0280 -20.0280 -20.0280 -20.0280 -20.0279 -20.0279 -20.0279 -20.0279
   -20.0164 -20.0164 -20.0164 -20.0164 -20.0163 -20.0163 -20.0163 -20.0163
   -20.0040 -20.0040 -20.0039 -20.0039 -20.0039 -20.0039 -20.0039 -20.0039
   -19.9945 -19.9945 -19.9945 -19.9945 -19.9945 -19.9945 -19.9945 -19.9945
    -8.9256  -8.9256  -8.9256  -8.9256  -8.8730  -8.8730  -8.8729  -8.8729
    -8.2846  -8.2846  -8.2846  -8.2846  -8.2582  -8.2582  -8.2582  -8.2582
    -8.1506  -8.1506  -8.1506  -8.1506  -8.0892  -8.0892  -8.0892  -8.0892
     2.8425   2.8425   2.8425   2.8425   2.9418   2.9418   2.9419   2.9419
     3.1764   3.1764   3.1764   3.1764   3.3286   3.3286   3.3286   3.3286
     3.4434   3.4434   3.4434   3.4434   3.5938   3.5938   3.5938   3.5938
     4.2739   4.2739   4.2739   4.2739   4.3904   4.3905   4.3905   4.3905
     4.4691   4.4691   4.4692   4.4692   4.5293   4.5293   4.5293   4.5293
     4.6860   4.6860   4.6860   4.6860   4.7905   4.7905   4.7905   4.7906
     7.3089   7.3089   7.3089   7.3089   7.3721   7.3721   7.3721   7.3721
     7.5305   7.5305   7.5305   7.5305   7.6691   7.6691   7.6691   7.6691
     7.7603   7.7603   7.7603   7.7603   7.8510   7.8510   7.8510   7.8510
    12.0374  12.0374  12.0374  12.0374  12.1774  12.1774  12.1774  12.1774
    12.3757  12.3757  12.3757  12.3757  12.4740  12.4740  12.4740  12.4740
    12.5951  12.5951  12.5951  12.5951  12.6443  12.6443  12.6443  12.6443
    16.7898  16.7898  16.7898  16.7898  17.0623  17.0623  17.0624  17.0624
    17.3573  17.3573  17.3573  17.3574  17.4196  17.4196

     the Fermi energy is    10.2181 ev

!    total energy              =   -6260.21352467 Ry
     Harris-Foulkes estimate   =   -6260.21352467 Ry
     estimated scf accuracy    <          1.5E-09 Ry

     The total energy is the sum of the following terms:

     one-electron contribution =   -4711.14901858 Ry
     hartree contribution      =    2596.10584199 Ry
     xc contribution           =    -966.78930635 Ry
     ewald contribution        =   -3178.38100687 Ry
     smearing contrib. (-TS)   =      -0.00003486 Ry

     convergence has been achieved in  13 iterations

     Writing output data file Landau_38.save/

     General routines

     Parallel routines

   This run was terminated on:  14:45:38  22Nov2019

   JOB DONE.