     Program PWSCF v.6.2 (svn rev. 14038) starts on 30Apr2019 at 19:24: 0

     K-points division:     npool     =      32
     Reading input from rscf.in

     Current dimensions of program PWSCF are:
     Max number of different atomic species (ntypx) = 10
     Max number of k-points (npk) =  40000
     Max angular momentum in pseudopotentials (lmaxx) =  3

     Subspace diagonalization in iterative solution of the eigenvalue problem:
     a serial algorithm will be used

     Found symmetry operation: I + ( -0.5000  0.0000 -0.5000)
     This is a supercell, fractional translations are disabled

     bravais-lattice index     =            0
     lattice parameter (alat)  =      13.8397  a.u.
     unit-cell volume          =    2804.9816 (a.u.)^3
     number of atoms/cell      =           32
     number of atomic types    =            2
     number of electrons       =       368.00
     number of Kohn-Sham states=          221
     kinetic-energy cutoff     =     120.0000  Ry
     charge density cutoff     =     480.0000  Ry
     convergence threshold     =      1.0E-08
     mixing beta               =       0.7000
     number of iterations used =            8  plain     mixing
     Exchange-correlation      = SLA PW NOGX NOGC ( 1  4  0  0 0 0)
     nstep                     =           50

     celldm(1)=  13.839685  celldm(2)=   0.000000  celldm(3)=   0.000000
     celldm(4)=   0.000000  celldm(5)=   0.000000  celldm(6)=   0.000000

     crystal axes: (cart. coord. in units of alat)
               a(1) = (   1.000000   0.000000   0.000000 )
               a(2) = (   0.000000   1.058160   0.000000 )
               a(3) = (   0.000000   0.000000   1.000000 )

     reciprocal axes: (cart. coord. in units 2 pi/alat)
               b(1) = (  1.000000  0.000000  0.000000 )
               b(2) = (  0.000000  0.945037  0.000000 )
               b(3) = (  0.000000  0.000000  1.000000 )

     PseudoPot. # 1 for W  read from file:
     /cluster/scratch/mnoe/QE/pps/W_ONCV_LDA-4.0.upf
     MD5 check sum: ba0307d5d4cd419d6f1d13dc49d7c13a
     Pseudo is Norm-conserving + core correction, Zval = 28.0
     Generated using ONCVPSP code by D. R. Hamann
     Using radial grid of 1380 points,  8 beta functions with:
                l(1) =   0
                l(2) =   0
                l(3) =   1
                l(4) =   1
                l(5) =   2
                l(6) =   2
                l(7) =   3
                l(8) =   3

     PseudoPot. # 2 for O  read from file:
     /cluster/scratch/mnoe/QE/pps/O_ONCV_LDA-3.0.upf
     MD5 check sum: a1bd6164e7280c17a38c229939bfbd54
     Pseudo is Norm-conserving + core correction, Zval =  6.0
     Generated using ONCVPSP code by D. R. Hamann
     Using radial grid of  926 points,  5 beta functions with:
                l(1) =   0
                l(2) =   0
                l(3) =   1
                l(4) =   1
                l(5) =   2

     atomic species   valence    mass     pseudopotential
        W             28.00   183.84000     W ( 1.00)
        O              6.00    15.99940     O ( 1.00)

      4 Sym. Ops. (no inversion) found

   Cartesian axes

     site n.     atom                  positions (alat units)
         1           W   tau(   1) = (   0.2500000   0.2982530   0.2500000  )
         2           W   tau(   2) = (   0.7500000   0.7599071   0.2500000  )
         3           W   tau(   3) = (   0.2500000   0.2308271   0.7500000  )
         4           W   tau(   4) = (   0.7500000   0.8273330   0.7500000  )
         5           W   tau(   5) = (   0.7500000   0.2982530   0.7500000  )
         6           W   tau(   6) = (   0.2500000   0.7599071   0.7500000  )
         7           W   tau(   7) = (   0.7500000   0.2308271   0.2500000  )
         8           W   tau(   8) = (   0.2500000   0.8273330   0.2500000  )
         9           O   tau(   9) = (   0.2500000   0.0088039   0.2500000  )
        10           O   tau(  10) = (   0.7500000   1.0493562   0.2500000  )
        11           O   tau(  11) = (   0.2500000   0.5202761   0.7500000  )
        12           O   tau(  12) = (   0.7500000   0.5378839   0.7500000  )
        13           O   tau(  13) = (   0.7500000   0.0088039   0.7500000  )
        14           O   tau(  14) = (   0.2500000   1.0493562   0.7500000  )
        15           O   tau(  15) = (   0.7500000   0.5202761   0.2500000  )
        16           O   tau(  16) = (   0.2500000   0.5378839   0.2500000  )
        17           O   tau(  17) = (   0.5000000   0.2645400   0.6995400  )
        18           O   tau(  18) = (   0.5000000   0.7936200   0.8004600  )
        19           O   tau(  19) = (   0.0000000   0.2645400   1.1995400  )
        20           O   tau(  20) = (   0.0000000   0.7936200   0.3004600  )
        21           O   tau(  21) = (   0.5000000   0.2645400   0.3004600  )
        22           O   tau(  22) = (   0.5000000   0.7936200   1.1995400  )
        23           O   tau(  23) = (   0.0000000   0.2645400   0.8004600  )
        24           O   tau(  24) = (   0.0000000   0.7936200   0.6995400  )
        25           O   tau(  25) = (   0.6995400   0.2645400   1.0000000  )
        26           O   tau(  26) = (   0.3004600   0.7936200   0.5000000  )
        27           O   tau(  27) = (   0.8004600   0.2645400   0.5000000  )
        28           O   tau(  28) = (   0.1995400   0.7936200   1.0000000  )
        29           O   tau(  29) = (   0.3004600   0.2645400   1.0000000  )
        30           O   tau(  30) = (   0.6995400   0.7936200   0.5000000  )
        31           O   tau(  31) = (   0.1995400   0.2645400   0.5000000  )
        32           O   tau(  32) = (   0.8004600   0.7936200   1.0000000  )

     number of k points=    44  gaussian smearing, width (Ry)=  0.0007
                       cart. coord. in units 2pi/alat
        k(    1) = (   0.0000000   0.0000000   0.0000000), wk =   0.0092593
        k(    2) = (   0.0000000   0.0000000   0.1666667), wk =   0.0370370
        k(    3) = (   0.0000000   0.0000000   0.3333333), wk =   0.0370370
        k(    4) = (   0.0000000   0.0000000  -0.5000000), wk =   0.0185185
        k(    5) = (   0.0000000   0.1575061   0.0000000), wk =   0.0185185
        k(    6) = (   0.0000000   0.1575061   0.1666667), wk =   0.0740741
        k(    7) = (   0.0000000   0.1575061   0.3333333), wk =   0.0740741
        k(    8) = (   0.0000000   0.1575061  -0.5000000), wk =   0.0370370
        k(    9) = (   0.0000000   0.3150122   0.0000000), wk =   0.0185185
        k(   10) = (   0.0000000   0.3150122   0.1666667), wk =   0.0740741
        k(   11) = (   0.0000000   0.3150122   0.3333333), wk =   0.0740741
        k(   12) = (   0.0000000   0.3150122  -0.5000000), wk =   0.0370370
        k(   13) = (   0.0000000  -0.4725183   0.0000000), wk =   0.0092593
        k(   14) = (   0.0000000  -0.4725183   0.1666667), wk =   0.0370370
        k(   15) = (   0.0000000  -0.4725183   0.3333333), wk =   0.0370370
        k(   16) = (   0.0000000  -0.4725183  -0.5000000), wk =   0.0185185
        k(   17) = (   0.1666667   0.0000000   0.1666667), wk =   0.0370370
        k(   18) = (   0.1666667   0.0000000   0.3333333), wk =   0.0370370
        k(   19) = (   0.1666667   0.0000000  -0.5000000), wk =   0.0370370
        k(   20) = (   0.1666667   0.1575061   0.1666667), wk =   0.0740741
        k(   21) = (   0.1666667   0.1575061   0.3333333), wk =   0.0740741
        k(   22) = (   0.1666667   0.1575061  -0.5000000), wk =   0.0740741
        k(   23) = (   0.1666667   0.3150122   0.1666667), wk =   0.0740741
        k(   24) = (   0.1666667   0.3150122   0.3333333), wk =   0.0740741
        k(   25) = (   0.1666667   0.3150122  -0.5000000), wk =   0.0740741
        k(   26) = (   0.1666667  -0.4725183   0.1666667), wk =   0.0370370
        k(   27) = (   0.1666667  -0.4725183   0.3333333), wk =   0.0370370
        k(   28) = (   0.1666667  -0.4725183  -0.5000000), wk =   0.0370370
        k(   29) = (   0.3333333   0.0000000   0.3333333), wk =   0.0370370
        k(   30) = (   0.3333333   0.0000000  -0.5000000), wk =   0.0370370
        k(   31) = (   0.3333333   0.1575061   0.3333333), wk =   0.0740741
        k(   32) = (   0.3333333   0.1575061  -0.5000000), wk =   0.0740741
        k(   33) = (   0.3333333   0.3150122   0.3333333), wk =   0.0740741
        k(   34) = (   0.3333333   0.3150122  -0.5000000), wk =   0.0740741
        k(   35) = (   0.3333333  -0.4725183   0.3333333), wk =   0.0370370
        k(   36) = (   0.3333333  -0.4725183  -0.5000000), wk =   0.0370370
        k(   37) = (  -0.5000000   0.0000000  -0.5000000), wk =   0.0092593
        k(   38) = (  -0.5000000   0.1575061  -0.5000000), wk =   0.0185185
        k(   39) = (  -0.5000000   0.3150122  -0.5000000), wk =   0.0185185
        k(   40) = (  -0.5000000  -0.4725183  -0.5000000), wk =   0.0092593
        k(   41) = (   0.3333333   0.0000000   0.1666667), wk =   0.0370370
        k(   42) = (   0.3333333  -0.1575061   0.1666667), wk =   0.0740741
        k(   43) = (   0.3333333  -0.3150122   0.1666667), wk =   0.0740741
        k(   44) = (   0.3333333   0.4725183   0.1666667), wk =   0.0370370

     Initial potential from superposition of free atoms

     starting charge  367.99656, renormalised to  368.00000
     Starting wfc are  232 randomized atomic wfcs

     Self-consistent Calculation

     iteration #  1     ecut=   120.00 Ry     beta= 0.70
     Davidson diagonalization with overlap
     ethr =  1.00E-02,  avg # of iterations =  5.0

     total energy              =   -6253.97872812 Ry
     Harris-Foulkes estimate   =   -6264.58683706 Ry
     estimated scf accuracy    <      13.43200569 Ry

[...]

     End of self-consistent calculation

          k = 0.0000 0.0000 0.0000 ( 62239 PWs)   bands (ev):

   -66.1759 -66.1755 -66.1749 -66.1749 -66.1745 -66.1744 -66.1738 -66.1735
   -30.5697 -30.5664 -30.5664 -30.5633 -30.5204 -30.5204 -30.5171 -30.5171
   -30.5151 -30.5151 -30.5118 -30.5118 -30.5106 -30.5079 -30.5079 -30.5054
   -30.4197 -30.4197 -30.4170 -30.4170 -30.4153 -30.4153 -30.4126 -30.4126
   -20.3361 -20.3361 -20.3361 -20.3360 -20.3358 -20.3358 -20.3358 -20.3358
   -20.3185 -20.3182 -20.3182 -20.3180 -20.3133 -20.3133 -20.3130 -20.3128
   -20.3128 -20.3128 -20.3128 -20.3127 -20.3127 -20.3124 -20.3122 -20.3122
   -20.3117 -20.3117 -20.3114 -20.3114 -20.3110 -20.3110 -20.3107 -20.3107
   -20.3040 -20.3040 -20.3036 -20.3036 -20.3033 -20.3033 -20.3030 -20.3030
   -20.3027 -20.3026 -20.3023 -20.3023 -20.3021 -20.3021 -20.3019 -20.3018
   -20.2961 -20.2961 -20.2955 -20.2955 -20.2955 -20.2955 -20.2950 -20.2950
    -9.9514  -9.6762  -9.5092  -9.5092  -9.2441  -9.2441  -9.0731  -9.0558
    -9.0438  -8.8767  -8.8509  -8.8509  -7.8546  -7.7957  -7.7957  -7.7826
    -7.7826  -7.7569  -7.7569  -7.7442  -7.6271  -7.6271  -7.6062  -7.6062
     1.1825   1.1830   1.2653   1.2653   1.2831   1.2831   1.3666   1.6288
     1.6288   1.6355   1.6359   1.8549   2.3862   2.4591   2.5794   2.5794
     2.7274   2.7274   4.1319   4.1319   4.3519   4.3519   4.8371   4.8371
     4.8432   4.8432   4.8700   4.8701   5.0334   5.0334   5.0655   5.4409
[...]
W        0.750000000   0.218140012   0.250000000    0   0   0
W        0.250000000   0.781859972   0.250000000    0   0   0
O        0.250000000   0.008320000   0.250000000    0   0   0
O        0.750000000   0.991680023   0.250000000    0   0   0
O        0.250000000   0.491679992   0.750000000    0   0   0
O        0.750000000   0.508319977   0.750000000    0   0   0
O        0.750000000   0.008320000   0.750000000    0   0   0
O        0.250000000   0.991680023   0.750000000    0   0   0
O        0.750000000   0.491679992   0.250000000    0   0   0
O        0.250000000   0.508319977   0.250000000    0   0   0
O        0.500000000   0.250000000   0.699540004    0   0   0
O        0.500000000   0.749999985   0.800459963    0   0   0
O        0.000000000   0.250000000   1.199540037    0   0   0
O        0.000000000   0.749999985   0.300460012    0   0   0
O        0.500000000   0.250000000   0.300460012    0   0   0
O        0.500000000   0.749999985   1.199540037    0   0   0
O        0.000000000   0.250000000   0.800459963    0   0   0
O        0.000000000   0.749999985   0.699540004    0   0   0
O        0.699540037   0.250000000   1.000000000    0   0   0
O        0.300459996   0.749999985   0.500000000    0   0   0
O        0.800459963   0.250000000   0.500000000    0   0   0
O        0.199540020   0.749999985   1.000000000    0   0   0
O        0.300459996   0.250000000   1.000000000    0   0   0
O        0.699540037   0.749999985   0.500000000    0   0   0
O        0.199540020   0.250000000   0.500000000    0   0   0
O        0.800459963   0.749999985   1.000000000    0   0   0
End final coordinates

     A final scf calculation at the relaxed structure.
     The G-vectors are recalculated for the final unit cell
     Results may differ from those at the preceding step.

     bravais-lattice index     =            0
     lattice parameter (alat)  =      13.8397  a.u.
     unit-cell volume          =    2804.9816 (a.u.)^3
     number of atoms/cell      =           32
     number of atomic types    =            2
     number of electrons       =       368.00
     number of Kohn-Sham states=          221
     kinetic-energy cutoff     =     120.0000  Ry
     charge density cutoff     =     480.0000  Ry
     convergence threshold     =      1.0E-08
     mixing beta               =       0.7000
     number of iterations used =            8  plain     mixing
     Exchange-correlation      = SLA PW NOGX NOGC ( 1  4  0  0 0 0)

     celldm(1)=  13.839685  celldm(2)=   0.000000  celldm(3)=   0.000000
     celldm(4)=   0.000000  celldm(5)=   0.000000  celldm(6)=   0.000000

     crystal axes: (cart. coord. in units of alat)
               a(1) = (   1.000000   0.000000   0.000000 )
               a(2) = (   0.000000   1.058160   0.000000 )
               a(3) = (   0.000000   0.000000   1.000000 )

     reciprocal axes: (cart. coord. in units 2 pi/alat)
               b(1) = (  1.000000  0.000000  0.000000 )
               b(2) = (  0.000000  0.945037  0.000000 )
               b(3) = (  0.000000  0.000000  1.000000 )

     PseudoPot. # 1 for W  read from file:
     /cluster/scratch/mnoe/QE/pps/W_ONCV_LDA-4.0.upf
     MD5 check sum: ba0307d5d4cd419d6f1d13dc49d7c13a
     Pseudo is Norm-conserving + core correction, Zval = 28.0
     Generated using ONCVPSP code by D. R. Hamann
     Using radial grid of 1380 points,  8 beta functions with:
                l(1) =   0
                l(2) =   0
                l(3) =   1
                l(4) =   1
                l(5) =   2
                l(6) =   2
                l(7) =   3
                l(8) =   3

     PseudoPot. # 2 for O  read from file:
     /cluster/scratch/mnoe/QE/pps/O_ONCV_LDA-3.0.upf
     MD5 check sum: a1bd6164e7280c17a38c229939bfbd54
     Pseudo is Norm-conserving + core correction, Zval =  6.0
     Generated using ONCVPSP code by D. R. Hamann
     Using radial grid of  926 points,  5 beta functions with:
                l(1) =   0
                l(2) =   0
                l(3) =   1
                l(4) =   1
                l(5) =   2

     atomic species   valence    mass     pseudopotential
        W             28.00   183.84000     W ( 1.00)
        O              6.00    15.99940     O ( 1.00)

      4 Sym. Ops. (no inversion) found

   Cartesian axes

     site n.     atom                  positions (alat units)
         1           W   tau(   1) = (   0.2500000   0.2982530   0.2500000  )
         2           W   tau(   2) = (   0.7500000   0.7599071   0.2500000  )
         3           W   tau(   3) = (   0.2500000   0.2308271   0.7500000  )
         4           W   tau(   4) = (   0.7500000   0.8273330   0.7500000  )
         5           W   tau(   5) = (   0.7500000   0.2982530   0.7500000  )
         6           W   tau(   6) = (   0.2500000   0.7599071   0.7500000  )
         7           W   tau(   7) = (   0.7500000   0.2308271   0.2500000  )
         8           W   tau(   8) = (   0.2500000   0.8273330   0.2500000  )
         9           O   tau(   9) = (   0.2500000   0.0088039   0.2500000  )
        10           O   tau(  10) = (   0.7500000   1.0493562   0.2500000  )
        11           O   tau(  11) = (   0.2500000   0.5202761   0.7500000  )
        12           O   tau(  12) = (   0.7500000   0.5378839   0.7500000  )
        13           O   tau(  13) = (   0.7500000   0.0088039   0.7500000  )
        14           O   tau(  14) = (   0.2500000   1.0493562   0.7500000  )
        15           O   tau(  15) = (   0.7500000   0.5202761   0.2500000  )
        16           O   tau(  16) = (   0.2500000   0.5378839   0.2500000  )
        17           O   tau(  17) = (   0.5000000   0.2645400   0.6995400  )
        18           O   tau(  18) = (   0.5000000   0.7936200   0.8004600  )
        19           O   tau(  19) = (   0.0000000   0.2645400   1.1995400  )
        20           O   tau(  20) = (   0.0000000   0.7936200   0.3004600  )
        21           O   tau(  21) = (   0.5000000   0.2645400   0.3004600  )
        22           O   tau(  22) = (   0.5000000   0.7936200   1.1995400  )
        23           O   tau(  23) = (   0.0000000   0.2645400   0.8004600  )
        24           O   tau(  24) = (   0.0000000   0.7936200   0.6995400  )
        25           O   tau(  25) = (   0.6995400   0.2645400   1.0000000  )
        26           O   tau(  26) = (   0.3004600   0.7936200   0.5000000  )
        27           O   tau(  27) = (   0.8004600   0.2645400   0.5000000  )
        28           O   tau(  28) = (   0.1995400   0.7936200   1.0000000  )
        29           O   tau(  29) = (   0.3004600   0.2645400   1.0000000  )
        30           O   tau(  30) = (   0.6995400   0.7936200   0.5000000  )
        31           O   tau(  31) = (   0.1995400   0.2645400   0.5000000  )
        32           O   tau(  32) = (   0.8004600   0.7936200   1.0000000  )

     number of k points=    44  gaussian smearing, width (Ry)=  0.0007
                       cart. coord. in units 2pi/alat
        k(    1) = (   0.0000000   0.0000000   0.0000000), wk =   0.0092593
        k(    2) = (   0.0000000   0.0000000   0.1666667), wk =   0.0370370
        k(    3) = (   0.0000000   0.0000000   0.3333333), wk =   0.0370370
        k(    4) = (   0.0000000   0.0000000  -0.5000000), wk =   0.0185185
        k(    5) = (   0.0000000   0.1575061   0.0000000), wk =   0.0185185
        k(    6) = (   0.0000000   0.1575061   0.1666667), wk =   0.0740741
        k(    7) = (   0.0000000   0.1575061   0.3333333), wk =   0.0740741
        k(    8) = (   0.0000000   0.1575061  -0.5000000), wk =   0.0370370
        k(    9) = (   0.0000000   0.3150122   0.0000000), wk =   0.0185185
        k(   10) = (   0.0000000   0.3150122   0.1666667), wk =   0.0740741
        k(   11) = (   0.0000000   0.3150122   0.3333333), wk =   0.0740741
        k(   12) = (   0.0000000   0.3150122  -0.5000000), wk =   0.0370370
        k(   13) = (   0.0000000  -0.4725183   0.0000000), wk =   0.0092593
        k(   14) = (   0.0000000  -0.4725183   0.1666667), wk =   0.0370370
        k(   15) = (   0.0000000  -0.4725183   0.3333333), wk =   0.0370370
        k(   16) = (   0.0000000  -0.4725183  -0.5000000), wk =   0.0185185
        k(   17) = (   0.1666667   0.0000000   0.1666667), wk =   0.0370370
        k(   18) = (   0.1666667   0.0000000   0.3333333), wk =   0.0370370
        k(   19) = (   0.1666667   0.0000000  -0.5000000), wk =   0.0370370
        k(   20) = (   0.1666667   0.1575061   0.1666667), wk =   0.0740741
        k(   21) = (   0.1666667   0.1575061   0.3333333), wk =   0.0740741
        k(   22) = (   0.1666667   0.1575061  -0.5000000), wk =   0.0740741
        k(   23) = (   0.1666667   0.3150122   0.1666667), wk =   0.0740741
        k(   24) = (   0.1666667   0.3150122   0.3333333), wk =   0.0740741
        k(   25) = (   0.1666667   0.3150122  -0.5000000), wk =   0.0740741
        k(   26) = (   0.1666667  -0.4725183   0.1666667), wk =   0.0370370
        k(   27) = (   0.1666667  -0.4725183   0.3333333), wk =   0.0370370
        k(   28) = (   0.1666667  -0.4725183  -0.5000000), wk =   0.0370370
        k(   29) = (   0.3333333   0.0000000   0.3333333), wk =   0.0370370
        k(   30) = (   0.3333333   0.0000000  -0.5000000), wk =   0.0370370
        k(   31) = (   0.3333333   0.1575061   0.3333333), wk =   0.0740741
        k(   32) = (   0.3333333   0.1575061  -0.5000000), wk =   0.0740741
        k(   33) = (   0.3333333   0.3150122   0.3333333), wk =   0.0740741
        k(   34) = (   0.3333333   0.3150122  -0.5000000), wk =   0.0740741
        k(   35) = (   0.3333333  -0.4725183   0.3333333), wk =   0.0370370
        k(   36) = (   0.3333333  -0.4725183  -0.5000000), wk =   0.0370370
        k(   37) = (  -0.5000000   0.0000000  -0.5000000), wk =   0.0092593
        k(   38) = (  -0.5000000   0.1575061  -0.5000000), wk =   0.0185185
        k(   39) = (  -0.5000000   0.3150122  -0.5000000), wk =   0.0185185
        k(   40) = (  -0.5000000  -0.4725183  -0.5000000), wk =   0.0092593
        k(   41) = (   0.3333333   0.0000000   0.1666667), wk =   0.0370370
        k(   42) = (   0.3333333  -0.1575061   0.1666667), wk =   0.0740741
        k(   43) = (   0.3333333  -0.3150122   0.1666667), wk =   0.0740741
        k(   44) = (   0.3333333   0.4725183   0.1666667), wk =   0.0370370

     Initial potential from superposition of free atoms

     starting charge  367.99656, renormalised to  368.00000
     Starting wfc are  232 randomized atomic wfcs

     Writing output data file Landau_0.save

     Self-consistent Calculation

[...]

     total energy              =   -6261.10937718 Ry
     Harris-Foulkes estimate   =   -6261.10937719 Ry
     estimated scf accuracy    <       0.00000002 Ry

     iteration # 14     ecut=   120.00 Ry     beta= 0.70
     Davidson diagonalization with overlap
     ethr =  4.58E-12,  avg # of iterations =  2.9

     End of self-consistent calculation

[...]

          k =-0.5000-0.4725-0.5000 ( 62272 PWs)   bands (ev):

[...]

          k = 0.3333 0.4725 0.1667 ( 62252 PWs)   bands (ev):

   -66.1753 -66.1753 -66.1748 -66.1748 -66.1745 -66.1745 -66.1740 -66.1740
   -30.5405 -30.5405 -30.5387 -30.5387 -30.5378 -30.5378 -30.5359 -30.5359
   -30.5103 -30.5103 -30.5078 -30.5078 -30.4927 -30.4926 -30.4884 -30.4884
   -30.4429 -30.4429 -30.4390 -30.4390 -30.4239 -30.4239 -30.4217 -30.4217
   -20.3360 -20.3360 -20.3359 -20.3359 -20.3359 -20.3359 -20.3359 -20.3359
   -20.3157 -20.3157 -20.3156 -20.3156 -20.3155 -20.3155 -20.3154 -20.3154
   -20.3127 -20.3127 -20.3125 -20.3125 -20.3125 -20.3124 -20.3121 -20.3121
   -20.3117 -20.3117 -20.3114 -20.3114 -20.3113 -20.3113 -20.3112 -20.3112
   -20.3037 -20.3037 -20.3035 -20.3035 -20.3032 -20.3032 -20.3025 -20.3025
   -20.3024 -20.3024 -20.3021 -20.3021 -20.3007 -20.3007 -20.3005 -20.3005
   -20.2974 -20.2974 -20.2970 -20.2970 -20.2961 -20.2960 -20.2958 -20.2958
    -9.5337  -9.5336  -9.3040  -9.3038  -9.0162  -9.0158  -8.8432  -8.8431
    -8.5471  -8.5463  -8.4676  -8.4659  -8.4276  -8.4266  -8.4163  -8.4163
    -8.1707  -8.1700  -8.0694  -8.0688  -7.8525  -7.8520  -7.7776  -7.7772
     1.5619   1.5629   1.5801   1.5814   2.2241   2.2248   2.4092   2.4104
     2.8761   2.8810   3.2211   3.2215   3.2229   3.2260   3.2303   3.2413
     3.2727   3.3055   3.4241   3.4706   3.4828   3.5155   3.6543   3.6649
     3.7549   3.7694   3.8790   3.9466   4.4533   4.5045   4.6085   4.6090
     4.6665   4.7289   4.7387   4.7794   4.9783   4.9905   4.9981   5.0647
     5.1419   5.1989   5.3219   5.3976   5.7690   5.7850   6.1966   6.1973
     6.6086   6.6164   6.7017   6.7162   6.8621   6.8690   7.0142   7.0800
     7.0965   7.1201   7.1728   7.1981   7.2110   7.2139   7.4244   7.4362
     7.4536   7.4653   7.4684   7.4938   7.4949   7.5320   7.7632   7.7665
    10.4810  10.4845  11.3700  11.3867  11.4029  11.4167  11.7482  11.7571
    11.7635  11.7770  11.8538  11.9061  12.3904  12.4440  12.7055  12.7297
    12.9192  12.9480  13.0931  13.1711  13.4009  13.4284  13.4522  13.5045
    15.6267  15.6452  15.8315  15.8489  16.2349  16.2615  16.6007  16.6265
    16.8463  16.8504  17.4239  17.4648  17.9448

     the Fermi energy is     8.5399 ev

!    total energy              =   -6261.10937718 Ry
     Harris-Foulkes estimate   =   -6261.10937718 Ry
     estimated scf accuracy    <          1.4E-09 Ry

     The total energy is the sum of the following terms:

     one-electron contribution =   -4721.71347203 Ry
     hartree contribution      =    2597.55236487 Ry
     xc contribution           =    -965.66714202 Ry
     ewald contribution        =   -3171.28112800 Ry
     smearing contrib. (-TS)   =      -0.00000000 Ry

     convergence has been achieved in  14 iterations

     Forces acting on atoms (cartesian axes, Ry/au):

     atom    1 type  1   force =    -0.00001550    0.00007819   -0.00001354
     atom    2 type  1   force =     0.00001354   -0.00007819   -0.00001550
     atom    3 type  1   force =    -0.00001195   -0.00006072    0.00001090
     atom    4 type  1   force =     0.00001090    0.00006072    0.00001195
     atom    5 type  1   force =     0.00001550    0.00007819    0.00001354
     atom    6 type  1   force =    -0.00001354   -0.00007819    0.00001550
     atom    7 type  1   force =     0.00001195   -0.00006072   -0.00001090
     atom    8 type  1   force =    -0.00001090    0.00006072   -0.00001195
     atom    9 type  2   force =    -0.00000007   -0.00008125   -0.00000001
     atom   10 type  2   force =     0.00000001    0.00008125   -0.00000007
     atom   11 type  2   force =    -0.00000024    0.00008159    0.00000018
     atom   12 type  2   force =     0.00000018   -0.00008159    0.00000024
     atom   13 type  2   force =     0.00000007   -0.00008125    0.00000001
     atom   14 type  2   force =    -0.00000001    0.00008125    0.00000007
     atom   15 type  2   force =     0.00000024    0.00008159   -0.00000018
     atom   16 type  2   force =    -0.00000018   -0.00008159   -0.00000024
     atom   17 type  2   force =    -0.00000028    0.00000014   -0.00000595
     atom   18 type  2   force =     0.00000027   -0.00000033    0.00000667
     atom   19 type  2   force =    -0.00000016    0.00000025   -0.00000690
     atom   20 type  2   force =     0.00000029   -0.00000049    0.00000662
     atom   21 type  2   force =     0.00000028    0.00000014    0.00000595
     atom   22 type  2   force =    -0.00000027   -0.00000033   -0.00000667
     atom   23 type  2   force =     0.00000016    0.00000025    0.00000690
     atom   24 type  2   force =    -0.00000029   -0.00000049   -0.00000662
     atom   25 type  2   force =    -0.00000662    0.00000049    0.00000029
     atom   26 type  2   force =     0.00000595   -0.00000014   -0.00000028
     atom   27 type  2   force =     0.00000667    0.00000033   -0.00000027
     atom   28 type  2   force =    -0.00000690   -0.00000025    0.00000016
     atom   29 type  2   force =     0.00000662    0.00000049   -0.00000029
     atom   30 type  2   force =    -0.00000595   -0.00000014    0.00000028
     atom   31 type  2   force =    -0.00000667    0.00000033    0.00000027
     atom   32 type  2   force =     0.00000690   -0.00000025   -0.00000016

     Total force =     0.000000     Total SCF correction =     0.000000

     Computing stress (Cartesian axis) and pressure

          total   stress  (Ry/bohr**3)                   (kbar)     P=   -0.25
  -0.00000158   0.00000000  -0.00000000         -0.23      0.00     -0.00
   0.00000000  -0.00000198   0.00000000          0.00     -0.29      0.00
   0.00000000   0.00000000  -0.00000158          0.00      0.00     -0.23

     Writing output data file Landau_0.save

     General routines

     Parallel routines

   This run was terminated on:  20:22:30  30Apr2019

   JOB DONE.