     Program PWSCF v.6.2 (svn rev. 14038) starts on 23Mar2020 at 23: 0:25

     K-points division:     npool     =      40
     Reading input from rscf.in

     Current dimensions of program PWSCF are:
     Max number of different atomic species (ntypx) = 10
     Max number of k-points (npk) =  40000
     Max angular momentum in pseudopotentials (lmaxx) =  3

     Subspace diagonalization in iterative solution of the eigenvalue problem:
     a serial algorithm will be used

     bravais-lattice index     =            0
     lattice parameter (alat)  =      13.8397  a.u.
     unit-cell volume          =    2804.9816 (a.u.)^3
     number of atoms/cell      =           32
     number of atomic types    =            2
     number of electrons       =       368.00
     number of Kohn-Sham states=          221
     kinetic-energy cutoff     =     120.0000  Ry
     charge density cutoff     =     480.0000  Ry
     convergence threshold     =      1.0E-08
     mixing beta               =       0.7000
     number of iterations used =            8  plain     mixing
     Exchange-correlation      = SLA PW NOGX NOGC ( 1  4  0  0 0 0)
     nstep                     =           50

     celldm(1)=  13.839685  celldm(2)=   0.000000  celldm(3)=   0.000000
     celldm(4)=   0.000000  celldm(5)=   0.000000  celldm(6)=   0.000000

     crystal axes: (cart. coord. in units of alat)
               a(1) = (   1.000000   0.000000   0.000000 )
               a(2) = (   0.000000   1.058160   0.000000 )
               a(3) = (   0.000000   0.000000   1.000000 )

     reciprocal axes: (cart. coord. in units 2 pi/alat)
               b(1) = (  1.000000  0.000000  0.000000 )
               b(2) = (  0.000000  0.945037  0.000000 )
               b(3) = (  0.000000  0.000000  1.000000 )

     PseudoPot. # 1 for W  read from file:
     /cluster/scratch/mnoe/QE/pps/W_ONCV_LDA-4.0.upf
     MD5 check sum: ba0307d5d4cd419d6f1d13dc49d7c13a
     Pseudo is Norm-conserving + core correction, Zval = 28.0
     Generated using ONCVPSP code by D. R. Hamann
     Using radial grid of 1380 points,  8 beta functions with:
                l(1) =   0
                l(2) =   0
                l(3) =   1
                l(4) =   1
                l(5) =   2
                l(6) =   2
                l(7) =   3
                l(8) =   3

     PseudoPot. # 2 for O  read from file:
     /cluster/scratch/mnoe/QE/pps/O_ONCV_LDA-3.0.upf
     MD5 check sum: a1bd6164e7280c17a38c229939bfbd54
     Pseudo is Norm-conserving + core correction, Zval =  6.0
     Generated using ONCVPSP code by D. R. Hamann
     Using radial grid of  926 points,  5 beta functions with:
                l(1) =   0
                l(2) =   0
                l(3) =   1
                l(4) =   1
                l(5) =   2

     atomic species   valence    mass     pseudopotential
        W             28.00   183.84000     W ( 1.00)
        O              6.00    15.99940     O ( 1.00)

      4 Sym. Ops. (no inversion) found ( 3 have fractional translation)

   Cartesian axes

     site n.     atom                  positions (alat units)
         1           W   tau(   1) = (   0.2424568   0.2900522  -0.0033616  )
         2           W   tau(   2) = (   0.7470755   0.7681078  -0.0077232  )
         3           W   tau(   3) = (   0.2575432   0.2390278   0.4966383  )
         4           W   tau(   4) = (   0.7529245   0.8191323   0.4922768  )
         5           W   tau(   5) = (   0.7575431   0.2900522   0.5033617  )
         6           W   tau(   6) = (   0.2529245   0.7681078   0.5077232  )
         7           W   tau(   7) = (   0.7424568   0.2390278   0.0033617  )
         8           W   tau(   8) = (   0.2470755   0.8191323   0.0077232  )
         9           O   tau(   9) = (   0.2441128   0.0065698  -0.0095472  )
        10           O   tau(  10) = (   0.7526336  -0.0065698  -0.0109028  )
        11           O   tau(  11) = (   0.2558872   0.5225103   0.4904528  )
        12           O   tau(  12) = (   0.7473663   0.5356498   0.4890972  )
        13           O   tau(  13) = (   0.7558872   0.0065698   0.5095472  )
        14           O   tau(  14) = (   0.2473663  -0.0065698   0.5109028  )
        15           O   tau(  15) = (   0.7441128   0.5225103   0.0095472  )
        16           O   tau(  16) = (   0.2526336   0.5356498   0.0109028  )
        17           O   tau(  17) = (   0.5029295   0.2574936   0.4684904  )
        18           O   tau(  18) = (   0.5016662   0.7958226   0.5315097  )
        19           O   tau(  19) = (  -0.0029295   0.2715865   0.9684904  )
        20           O   tau(  20) = (  -0.0016662   0.7914176   0.0315096  )
        21           O   tau(  21) = (   0.4970705   0.2574936   0.0315096  )
        22           O   tau(  22) = (   0.4983338   0.7958226   0.9684904  )
        23           O   tau(  23) = (   0.0029295   0.2715865   0.5315097  )
        24           O   tau(  24) = (   0.0016662   0.7914176   0.4684904  )
        25           O   tau(  25) = (   0.7184903   0.2746295   0.7505585  )
        26           O   tau(  26) = (   0.2815096   0.8057279   0.2524734  )
        27           O   tau(  27) = (   0.7815097   0.2544505   0.2505585  )
        28           O   tau(  28) = (   0.2184904   0.7815123   0.7524733  )
        29           O   tau(  29) = (   0.2815096   0.2746295   0.7494415  )
        30           O   tau(  30) = (   0.7184903   0.8057279   0.2475266  )
        31           O   tau(  31) = (   0.2184904   0.2544505   0.2494415  )
        32           O   tau(  32) = (   0.7815097   0.7815123   0.7475266  )

     number of k points=    64  gaussian smearing, width (Ry)=  0.0007
                       cart. coord. in units 2pi/alat
        k(    1) = (   0.0000000   0.0000000   0.0000000), wk =   0.0092593
        k(    2) = (   0.0000000   0.0000000   0.1666667), wk =   0.0185185
        k(    3) = (   0.0000000   0.0000000   0.3333333), wk =   0.0185185
        k(    4) = (   0.0000000   0.0000000  -0.5000000), wk =   0.0092593
        k(    5) = (   0.0000000   0.1575061   0.0000000), wk =   0.0185185
        k(    6) = (   0.0000000   0.1575061   0.1666667), wk =   0.0370370
        k(    7) = (   0.0000000   0.1575061   0.3333333), wk =   0.0370370
        k(    8) = (   0.0000000   0.1575061  -0.5000000), wk =   0.0185185
        k(    9) = (   0.0000000   0.3150122   0.0000000), wk =   0.0185185
        k(   10) = (   0.0000000   0.3150122   0.1666667), wk =   0.0370370
        k(   11) = (   0.0000000   0.3150122   0.3333333), wk =   0.0370370
        k(   12) = (   0.0000000   0.3150122  -0.5000000), wk =   0.0185185
        k(   13) = (   0.0000000  -0.4725183   0.0000000), wk =   0.0092593
        k(   14) = (   0.0000000  -0.4725183   0.1666667), wk =   0.0185185
        k(   15) = (   0.0000000  -0.4725183   0.3333333), wk =   0.0185185
        k(   16) = (   0.0000000  -0.4725183  -0.5000000), wk =   0.0092593
        k(   17) = (   0.1666667   0.0000000   0.1666667), wk =   0.0370370
        k(   18) = (   0.1666667   0.0000000   0.3333333), wk =   0.0370370
        k(   19) = (   0.1666667   0.0000000  -0.5000000), wk =   0.0185185
        k(   20) = (   0.1666667   0.1575061   0.1666667), wk =   0.0740741
        k(   21) = (   0.1666667   0.1575061   0.3333333), wk =   0.0740741
        k(   22) = (   0.1666667   0.1575061  -0.5000000), wk =   0.0370370
        k(   23) = (   0.1666667   0.3150122   0.1666667), wk =   0.0740741
        k(   24) = (   0.1666667   0.3150122   0.3333333), wk =   0.0740741
        k(   25) = (   0.1666667   0.3150122  -0.5000000), wk =   0.0370370
        k(   26) = (   0.1666667  -0.4725183   0.1666667), wk =   0.0370370
        k(   27) = (   0.1666667  -0.4725183   0.3333333), wk =   0.0370370
        k(   28) = (   0.1666667  -0.4725183  -0.5000000), wk =   0.0185185
        k(   29) = (   0.3333333   0.0000000   0.3333333), wk =   0.0370370
        k(   30) = (   0.3333333   0.0000000  -0.5000000), wk =   0.0185185
        k(   31) = (   0.3333333   0.1575061   0.3333333), wk =   0.0740741
        k(   32) = (   0.3333333   0.1575061  -0.5000000), wk =   0.0370370
        k(   33) = (   0.3333333   0.3150122   0.3333333), wk =   0.0740741
        k(   34) = (   0.3333333   0.3150122  -0.5000000), wk =   0.0370370
        k(   35) = (   0.3333333  -0.4725183   0.3333333), wk =   0.0370370
        k(   36) = (   0.3333333  -0.4725183  -0.5000000), wk =   0.0185185
        k(   37) = (  -0.5000000   0.0000000  -0.5000000), wk =   0.0092593
        k(   38) = (  -0.5000000   0.1575061  -0.5000000), wk =   0.0185185
        k(   39) = (  -0.5000000   0.3150122  -0.5000000), wk =   0.0185185
        k(   40) = (  -0.5000000  -0.4725183  -0.5000000), wk =   0.0092593
        k(   41) = (   0.1666667   0.0000000   0.0000000), wk =   0.0185185
        k(   42) = (   0.3333333   0.0000000   0.0000000), wk =   0.0185185
        k(   43) = (  -0.5000000   0.0000000   0.0000000), wk =   0.0092593
        k(   44) = (   0.1666667  -0.1575061   0.0000000), wk =   0.0370370
        k(   45) = (   0.3333333  -0.1575061   0.0000000), wk =   0.0370370
        k(   46) = (  -0.5000000  -0.1575061   0.0000000), wk =   0.0185185
        k(   47) = (   0.1666667  -0.3150122   0.0000000), wk =   0.0370370
        k(   48) = (   0.3333333  -0.3150122   0.0000000), wk =   0.0370370
        k(   49) = (  -0.5000000  -0.3150122   0.0000000), wk =   0.0185185
        k(   50) = (   0.1666667   0.4725183   0.0000000), wk =   0.0185185
        k(   51) = (   0.3333333   0.4725183   0.0000000), wk =   0.0185185
        k(   52) = (  -0.5000000   0.4725183   0.0000000), wk =   0.0092593
        k(   53) = (   0.3333333   0.0000000   0.1666667), wk =   0.0370370
        k(   54) = (  -0.5000000   0.0000000   0.1666667), wk =   0.0185185
        k(   55) = (   0.3333333  -0.1575061   0.1666667), wk =   0.0740741
        k(   56) = (  -0.5000000  -0.1575061   0.1666667), wk =   0.0370370
        k(   57) = (   0.3333333  -0.3150122   0.1666667), wk =   0.0740741
        k(   58) = (  -0.5000000  -0.3150122   0.1666667), wk =   0.0370370
        k(   59) = (   0.3333333   0.4725183   0.1666667), wk =   0.0370370
        k(   60) = (  -0.5000000   0.4725183   0.1666667), wk =   0.0185185
        k(   61) = (  -0.5000000   0.0000000   0.3333333), wk =   0.0185185
        k(   62) = (  -0.5000000  -0.1575061   0.3333333), wk =   0.0370370
        k(   63) = (  -0.5000000  -0.3150122   0.3333333), wk =   0.0370370
        k(   64) = (  -0.5000000   0.4725183   0.3333333), wk =   0.0185185

     Initial potential from superposition of free atoms

     starting charge  367.99656, renormalised to  368.00000
     Starting wfc are  232 randomized atomic wfcs

     Self-consistent Calculation

     iteration #  1     ecut=   120.00 Ry     beta= 0.70
     Davidson diagonalization with overlap
     ethr =  1.00E-02,  avg # of iterations =  5.1

     total energy              =   -6254.04857920 Ry
     Harris-Foulkes estimate   =   -6264.56013993 Ry
     estimated scf accuracy    <      13.33777497 Ry

[...]

     End of self-consistent calculation

[...]
End final coordinates

     A final scf calculation at the relaxed structure.
     The G-vectors are recalculated for the final unit cell
     Results may differ from those at the preceding step.

     bravais-lattice index     =            0
     lattice parameter (alat)  =      13.8397  a.u.
     unit-cell volume          =    2857.1065 (a.u.)^3
     number of atoms/cell      =           32
     number of atomic types    =            2
     number of electrons       =       368.00
     number of Kohn-Sham states=          221
     kinetic-energy cutoff     =     120.0000  Ry
     charge density cutoff     =     480.0000  Ry
     convergence threshold     =      1.0E-10
     mixing beta               =       0.7000
     number of iterations used =            8  plain     mixing
     Exchange-correlation      = SLA PW NOGX NOGC ( 1  4  0  0 0 0)

     celldm(1)=  13.839685  celldm(2)=   0.000000  celldm(3)=   0.000000
     celldm(4)=   0.000000  celldm(5)=   0.000000  celldm(6)=   0.000000

     crystal axes: (cart. coord. in units of alat)
               a(1) = (   1.016168   0.000000   0.000000 )
               a(2) = (   0.000000   1.044258   0.000000 )
               a(3) = (   0.000000   0.000000   1.015721 )

     reciprocal axes: (cart. coord. in units 2 pi/alat)
               b(1) = (  0.984090  0.000000  0.000000 )
               b(2) = (  0.000000  0.957617  0.000000 )
               b(3) = (  0.000000  0.000000  0.984522 )

     PseudoPot. # 1 for W  read from file:
     /cluster/scratch/mnoe/QE/pps/W_ONCV_LDA-4.0.upf
     MD5 check sum: ba0307d5d4cd419d6f1d13dc49d7c13a
     Pseudo is Norm-conserving + core correction, Zval = 28.0
     Generated using ONCVPSP code by D. R. Hamann
     Using radial grid of 1380 points,  8 beta functions with:
                l(1) =   0
                l(2) =   0
                l(3) =   1
                l(4) =   1
                l(5) =   2
                l(6) =   2
                l(7) =   3
                l(8) =   3

     PseudoPot. # 2 for O  read from file:
     /cluster/scratch/mnoe/QE/pps/O_ONCV_LDA-3.0.upf
     MD5 check sum: a1bd6164e7280c17a38c229939bfbd54
     Pseudo is Norm-conserving + core correction, Zval =  6.0
     Generated using ONCVPSP code by D. R. Hamann
     Using radial grid of  926 points,  5 beta functions with:
                l(1) =   0
                l(2) =   0
                l(3) =   1
                l(4) =   1
                l(5) =   2

     atomic species   valence    mass     pseudopotential
        W             28.00   183.84000     W ( 1.00)
        O              6.00    15.99940     O ( 1.00)

      4 Sym. Ops. (no inversion) found ( 3 have fractional translation)

   Cartesian axes

     site n.     atom                  positions (alat units)
         1           W   tau(   1) = (   0.2463768   0.2862416  -0.0034145  )
         2           W   tau(   2) = (   0.7591540   0.7580167  -0.0078446  )
         3           W   tau(   3) = (   0.2617071   0.2358876   0.5044460  )
         4           W   tau(   4) = (   0.7650975   0.8083709   0.5000159  )
         5           W   tau(   5) = (   0.7697909   0.2862416   0.5112750  )
         6           W   tau(   6) = (   0.2570137   0.7580167   0.5157051  )
         7           W   tau(   7) = (   0.7544606   0.2358876   0.0034145  )
         8           W   tau(   8) = (   0.2510701   0.8083709   0.0078446  )
         9           O   tau(   9) = (   0.2480595   0.0064834  -0.0096973  )
        10           O   tau(  10) = (   0.7648020  -0.0064835  -0.0110742  )
        11           O   tau(  11) = (   0.2600243   0.5156458   0.4981632  )
        12           O   tau(  12) = (   0.7594495   0.5286127   0.4967862  )
        13           O   tau(  13) = (   0.7681081   0.0064834   0.5175578  )
        14           O   tau(  14) = (   0.2513657  -0.0064835   0.5189347  )
        15           O   tau(  15) = (   0.7561434   0.5156458   0.0096973  )
        16           O   tau(  16) = (   0.2567182   0.5286127   0.0110742  )
        17           O   tau(  17) = (   0.5110607   0.2541107   0.4758555  )
        18           O   tau(  18) = (   0.5097770   0.7853673   0.5398656  )
        19           O   tau(  19) = (  -0.0029768   0.2680185   0.9837160  )
        20           O   tau(  20) = (  -0.0016931   0.7810203   0.0320050  )
        21           O   tau(  21) = (   0.5051070   0.2541107   0.0320050  )
        22           O   tau(  22) = (   0.5063907   0.7853673   0.9837160  )
        23           O   tau(  23) = (   0.0029768   0.2680185   0.5398656  )
        24           O   tau(  24) = (   0.0016932   0.7810203   0.4758555  )
        25           O   tau(  25) = (   0.7301067   0.2710216   0.7623580  )
        26           O   tau(  26) = (   0.2860610   0.7951426   0.2564425  )
        27           O   tau(  27) = (   0.7941450   0.2511076   0.2544975  )
        28           O   tau(  28) = (   0.2220229   0.7712451   0.7643030  )
        29           O   tau(  29) = (   0.2860610   0.2710216   0.7612234  )
        30           O   tau(  30) = (   0.7301067   0.7951426   0.2514180  )
        31           O   tau(  31) = (   0.2220229   0.2511076   0.2533630  )
        32           O   tau(  32) = (   0.7941450   0.7712451   0.7592785  )

     number of k points=    64  gaussian smearing, width (Ry)=  0.0007
                       cart. coord. in units 2pi/alat
        k(    1) = (   0.0000000   0.0000000   0.0000000), wk =   0.0092593
        k(    2) = (   0.0000000   0.0000000   0.1640871), wk =   0.0185185
        k(    3) = (   0.0000000   0.0000000   0.3281741), wk =   0.0185185
        k(    4) = (   0.0000000   0.0000000  -0.4922612), wk =   0.0092593
        k(    5) = (   0.0000000   0.1596029   0.0000000), wk =   0.0185185
        k(    6) = (   0.0000000   0.1596029   0.1640871), wk =   0.0370370
        k(    7) = (   0.0000000   0.1596029   0.3281741), wk =   0.0370370
        k(    8) = (   0.0000000   0.1596029  -0.4922612), wk =   0.0185185
        k(    9) = (   0.0000000   0.3192058   0.0000000), wk =   0.0185185
        k(   10) = (   0.0000000   0.3192058   0.1640871), wk =   0.0370370
        k(   11) = (   0.0000000   0.3192058   0.3281741), wk =   0.0370370
        k(   12) = (   0.0000000   0.3192058  -0.4922612), wk =   0.0185185
        k(   13) = (   0.0000000  -0.4788087   0.0000000), wk =   0.0092593
        k(   14) = (   0.0000000  -0.4788087   0.1640871), wk =   0.0185185
        k(   15) = (   0.0000000  -0.4788087   0.3281741), wk =   0.0185185
        k(   16) = (   0.0000000  -0.4788087  -0.4922612), wk =   0.0092593
        k(   17) = (   0.1640149   0.0000000   0.1640871), wk =   0.0370370
        k(   18) = (   0.1640149   0.0000000   0.3281741), wk =   0.0370370
        k(   19) = (   0.1640149   0.0000000  -0.4922612), wk =   0.0185185
        k(   20) = (   0.1640149   0.1596029   0.1640871), wk =   0.0740741
        k(   21) = (   0.1640149   0.1596029   0.3281741), wk =   0.0740741
        k(   22) = (   0.1640149   0.1596029  -0.4922612), wk =   0.0370370
        k(   23) = (   0.1640149   0.3192058   0.1640871), wk =   0.0740741
        k(   24) = (   0.1640149   0.3192058   0.3281741), wk =   0.0740741
        k(   25) = (   0.1640149   0.3192058  -0.4922612), wk =   0.0370370
        k(   26) = (   0.1640149  -0.4788087   0.1640871), wk =   0.0370370
        k(   27) = (   0.1640149  -0.4788087   0.3281741), wk =   0.0370370
        k(   28) = (   0.1640149  -0.4788087  -0.4922612), wk =   0.0185185
        k(   29) = (   0.3280298   0.0000000   0.3281741), wk =   0.0370370
        k(   30) = (   0.3280298   0.0000000  -0.4922612), wk =   0.0185185
        k(   31) = (   0.3280298   0.1596029   0.3281741), wk =   0.0740741
        k(   32) = (   0.3280298   0.1596029  -0.4922612), wk =   0.0370370
        k(   33) = (   0.3280298   0.3192058   0.3281741), wk =   0.0740741
        k(   34) = (   0.3280298   0.3192058  -0.4922612), wk =   0.0370370
        k(   35) = (   0.3280298  -0.4788087   0.3281741), wk =   0.0370370
        k(   36) = (   0.3280298  -0.4788087  -0.4922612), wk =   0.0185185
        k(   37) = (  -0.4920448   0.0000000  -0.4922612), wk =   0.0092593
        k(   38) = (  -0.4920448   0.1596029  -0.4922612), wk =   0.0185185
        k(   39) = (  -0.4920448   0.3192058  -0.4922612), wk =   0.0185185
        k(   40) = (  -0.4920448  -0.4788087  -0.4922612), wk =   0.0092593
        k(   41) = (   0.1640149   0.0000000   0.0000000), wk =   0.0185185
        k(   42) = (   0.3280298   0.0000000   0.0000000), wk =   0.0185185
        k(   43) = (  -0.4920448   0.0000000   0.0000000), wk =   0.0092593
        k(   44) = (   0.1640149  -0.1596029   0.0000000), wk =   0.0370370
        k(   45) = (   0.3280298  -0.1596029   0.0000000), wk =   0.0370370
        k(   46) = (  -0.4920448  -0.1596029   0.0000000), wk =   0.0185185
        k(   47) = (   0.1640149  -0.3192058   0.0000000), wk =   0.0370370
        k(   48) = (   0.3280298  -0.3192058   0.0000000), wk =   0.0370370
        k(   49) = (  -0.4920448  -0.3192058   0.0000000), wk =   0.0185185
        k(   50) = (   0.1640149   0.4788087   0.0000000), wk =   0.0185185
        k(   51) = (   0.3280298   0.4788087   0.0000000), wk =   0.0185185
        k(   52) = (  -0.4920448   0.4788087   0.0000000), wk =   0.0092593
        k(   53) = (   0.3280298   0.0000000   0.1640871), wk =   0.0370370
        k(   54) = (  -0.4920448   0.0000000   0.1640871), wk =   0.0185185
        k(   55) = (   0.3280298  -0.1596029   0.1640871), wk =   0.0740741
        k(   56) = (  -0.4920448  -0.1596029   0.1640871), wk =   0.0370370
        k(   57) = (   0.3280298  -0.3192058   0.1640871), wk =   0.0740741
        k(   58) = (  -0.4920448  -0.3192058   0.1640871), wk =   0.0370370
        k(   59) = (   0.3280298   0.4788087   0.1640871), wk =   0.0370370
        k(   60) = (  -0.4920448   0.4788087   0.1640871), wk =   0.0185185
        k(   61) = (  -0.4920448   0.0000000   0.3281741), wk =   0.0185185
        k(   62) = (  -0.4920448  -0.1596029   0.3281741), wk =   0.0370370
        k(   63) = (  -0.4920448  -0.3192058   0.3281741), wk =   0.0370370
        k(   64) = (  -0.4920448   0.4788087   0.3281741), wk =   0.0185185

     Initial potential from superposition of free atoms

     starting charge  367.99656, renormalised to  368.00000
     Starting wfc are  232 randomized atomic wfcs

     Writing output data file Landau_10.save

     Self-consistent Calculation

[...]

     total energy              =   -6261.10123429 Ry
     Harris-Foulkes estimate   =   -6261.10123429 Ry
     estimated scf accuracy    <          4.8E-10 Ry

     iteration # 16     ecut=   120.00 Ry     beta= 0.70
     Davidson diagonalization with overlap
     ethr =  1.32E-13,  avg # of iterations =  2.1

     End of self-consistent calculation

[...]

          k = 0.3280 0.4788 0.1641 ( 63400 PWs)   bands (ev):

[...]

          k =-0.4920 0.4788 0.3282 ( 63444 PWs)   bands (ev):

   -66.5097 -66.5097 -66.5095 -66.5095 -66.5093 -66.5093 -66.5092 -66.5092
   -30.8447 -30.8447 -30.8423 -30.8423 -30.8396 -30.8396 -30.8390 -30.8390
   -30.8243 -30.8243 -30.8172 -30.8172 -30.8052 -30.8052 -30.8035 -30.8035
   -30.7968 -30.7967 -30.7943 -30.7943 -30.7819 -30.7819 -30.7726 -30.7726
   -20.6789 -20.6789 -20.6789 -20.6789 -20.6788 -20.6788 -20.6787 -20.6787
   -20.6540 -20.6540 -20.6537 -20.6537 -20.6533 -20.6533 -20.6529 -20.6529
   -20.6520 -20.6520 -20.6517 -20.6517 -20.6515 -20.6515 -20.6509 -20.6509
   -20.6503 -20.6503 -20.6500 -20.6500 -20.6500 -20.6500 -20.6498 -20.6498
   -20.6447 -20.6447 -20.6442 -20.6442 -20.6433 -20.6433 -20.6430 -20.6430
   -20.6426 -20.6426 -20.6421 -20.6421 -20.6412 -20.6412 -20.6404 -20.6404
   -20.6402 -20.6402 -20.6398 -20.6398 -20.6392 -20.6392 -20.6382 -20.6382
    -9.4612  -9.4612  -9.4476  -9.4476  -9.0778  -9.0778  -9.0658  -9.0658
    -8.8419  -8.8419  -8.8365  -8.8364  -8.6958  -8.6958  -8.6844  -8.6843
    -8.6690  -8.6690  -8.6552  -8.6552  -8.4036  -8.4036  -8.3820  -8.3820
     1.9341   1.9341   1.9514   1.9514   2.7434   2.7434   2.7675   2.7675
     2.8268   2.8268   2.8447   2.8447   3.0029   3.0029   3.0294   3.0294
     3.0706   3.0706   3.0952   3.0952   3.3647   3.3647   3.4068   3.4068
     3.4922   3.4923   3.5220   3.5220   3.9154   3.9154   3.9484   3.9484
     3.9959   3.9959   4.0337   4.0337   4.1015   4.1015   4.1448   4.1448
     4.3588   4.3588   4.4513   4.4513   4.7375   4.7375   4.7521   4.7521
     6.7637   6.7637   6.7986   6.7986   6.8732   6.8732   6.8802   6.8802
     7.0481   7.0481   7.0730   7.0730   7.0941   7.0941   7.1550   7.1550
     7.2113   7.2113   7.2652   7.2652   7.3750   7.3751   7.3990   7.3991
    11.1090  11.1090  11.1611  11.1611  11.3331  11.3331  11.4100  11.4101
    11.8176  11.8176  11.8452  11.8452  11.8682  11.8682  11.9008  11.9008
    12.1397  12.1397  12.2584  12.2584  12.4807  12.4807  12.5659  12.5659
    16.2975  16.2975  16.3349  16.3349  16.7615  16.7616  16.7750  16.7750
    17.1955  17.1955  17.2996  17.2997  17.3695

     the Fermi energy is     8.6451 ev

!    total energy              =   -6261.10123429 Ry
     Harris-Foulkes estimate   =   -6261.10123429 Ry
     estimated scf accuracy    <          8.6E-11 Ry

     The total energy is the sum of the following terms:

     one-electron contribution =   -4799.92293852 Ry
     hartree contribution      =    2632.43465011 Ry
     xc contribution           =    -965.67250524 Ry
     ewald contribution        =   -3127.94044064 Ry
     smearing contrib. (-TS)   =      -0.00000000 Ry

     convergence has been achieved in  16 iterations

     Forces acting on atoms (cartesian axes, Ry/au):

     atom    1 type  1   force =    -0.00576414    0.01496647   -0.00362715
     atom    2 type  1   force =    -0.00268879   -0.01491293   -0.00620056
     atom    3 type  1   force =     0.00576414   -0.01496647   -0.00362715
     atom    4 type  1   force =     0.00268879    0.01491293   -0.00620056
     atom    5 type  1   force =     0.00576414    0.01496647    0.00362715
     atom    6 type  1   force =     0.00268879   -0.01491293    0.00620056
     atom    7 type  1   force =    -0.00576414   -0.01496647    0.00362715
     atom    8 type  1   force =    -0.00268879    0.01491293    0.00620056
     atom    9 type  2   force =     0.00027957   -0.00785965   -0.00012365
     atom   10 type  2   force =     0.00033868    0.00787119   -0.00004710
     atom   11 type  2   force =    -0.00027957    0.00785965   -0.00012365
     atom   12 type  2   force =    -0.00033868   -0.00787119   -0.00004710
     atom   13 type  2   force =    -0.00027957   -0.00785965    0.00012365
     atom   14 type  2   force =    -0.00033868    0.00787119    0.00004710
     atom   15 type  2   force =     0.00027957    0.00785965    0.00012365
     atom   16 type  2   force =     0.00033868   -0.00787119    0.00004710
     atom   17 type  2   force =    -0.00411510    0.00038607   -0.00157380
     atom   18 type  2   force =    -0.00255002    0.00075794    0.00174432
     atom   19 type  2   force =     0.00411510   -0.00038607   -0.00157380
     atom   20 type  2   force =     0.00255002   -0.00075794    0.00174432
     atom   21 type  2   force =     0.00411510    0.00038607    0.00157380
     atom   22 type  2   force =     0.00255002    0.00075794   -0.00174432
     atom   23 type  2   force =    -0.00411510   -0.00038607    0.00157380
     atom   24 type  2   force =    -0.00255002   -0.00075794   -0.00174432
     atom   25 type  2   force =    -0.00131098    0.00067061   -0.00164999
     atom   26 type  2   force =     0.00118243    0.00033039   -0.00370543
     atom   27 type  2   force =     0.00131098   -0.00067061   -0.00164999
     atom   28 type  2   force =    -0.00118243   -0.00033039   -0.00370543
     atom   29 type  2   force =     0.00131098    0.00067061    0.00164999
     atom   30 type  2   force =    -0.00118243    0.00033039    0.00370543
     atom   31 type  2   force =    -0.00131098   -0.00067061    0.00164999
     atom   32 type  2   force =     0.00118243   -0.00033039    0.00370543

     Total force =     0.000000     Total SCF correction =     0.000000

     Computing stress (Cartesian axis) and pressure

          total   stress  (Ry/bohr**3)                   (kbar)     P=    0.83
   0.00000845   0.00000000   0.00000000          1.24      0.00      0.00
   0.00000000   0.00000037   0.00000000          0.00      0.05      0.00
   0.00000000   0.00000000   0.00000821          0.00      0.00      1.21

     Writing output data file Landau_10.save

     General routines

     Parallel routines

   This run was terminated on:   5: 7: 4  24Mar2020

   JOB DONE.