     Program PWSCF v.6.4.1 starts on 19Nov2019 at 18:23:37

     K-points division:     npool     =      40
     Reading input from rscf.in

     Current dimensions of program PWSCF are:
     Max number of different atomic species (ntypx) = 10
     Max number of k-points (npk) =  40000
     Max angular momentum in pseudopotentials (lmaxx) =  3

     Subspace diagonalization in iterative solution of the eigenvalue problem:
     a serial algorithm will be used

     Message from routine setup:
     using ibrav=0 with symmetry is DISCOURAGED, use correct ibrav instead

     bravais-lattice index     =            0
     lattice parameter (alat)  =       9.7849  a.u.
     unit-cell volume          =    1402.1515 (a.u.)^3
     number of atoms/cell      =           16
     number of atomic types    =            2
     number of electrons       =       184.00
     number of Kohn-Sham states=          110
     kinetic-energy cutoff     =     120.0000  Ry
     charge density cutoff     =     480.0000  Ry
     convergence threshold     =      1.0E-08
     mixing beta               =       0.7000
     number of iterations used =            8  plain     mixing
     Exchange-correlation      = SLA PW NOGX NOGC ( 1  4  0  0 0 0)
     nstep                     =           50

     celldm(1)=   9.784926  celldm(2)=   0.000000  celldm(3)=   0.000000
     celldm(4)=   0.000000  celldm(5)=   0.000000  celldm(6)=   0.000000

     crystal axes: (cart. coord. in units of alat)
               a(1) = (   1.000000   0.000000   0.000000 )
               a(2) = (   0.000000   1.000000   0.000000 )
               a(3) = (   0.000000   0.000000   1.496657 )

     reciprocal axes: (cart. coord. in units 2 pi/alat)
               b(1) = (  1.000000  0.000000  0.000000 )
               b(2) = (  0.000000  1.000000  0.000000 )
               b(3) = (  0.000000  0.000000  0.668156 )

     PseudoPot. # 1 for W  read from file:
     /cluster/scratch/mnoe/QE/pps/W_ONCV_LDA-4.0.upf
     MD5 check sum: ba0307d5d4cd419d6f1d13dc49d7c13a
     Pseudo is Norm-conserving + core correction, Zval = 28.0
     Generated using ONCVPSP code by D. R. Hamann
     Using radial grid of 1380 points,  8 beta functions with:
                l(1) =   0
                l(2) =   0
                l(3) =   1
                l(4) =   1
                l(5) =   2
                l(6) =   2
                l(7) =   3
                l(8) =   3

     PseudoPot. # 2 for O  read from file:
     /cluster/scratch/mnoe/QE/pps/O_ONCV_LDA-3.0.upf
     MD5 check sum: b55cdb4f45ae2203d24ad12cf8d61a31
     Pseudo is Norm-conserving + core correction, Zval =  6.0
     Generated using ONCVPSP code by D. R. Hamann
     Using radial grid of  926 points,  5 beta functions with:
                l(1) =   0
                l(2) =   0
                l(3) =   1
                l(4) =   1
                l(5) =   2

     atomic species   valence    mass     pseudopotential
        W             28.00   183.84000     W ( 1.00)
        O              6.00    15.99940     O ( 1.00)

     16 Sym. Ops., with inversion, found (14 have fractional translation)

   Cartesian axes

     site n.     atom                  positions (alat units)
         1           W   tau(   1) = (   0.2500000   0.2500000   0.3239103  )
         2           W   tau(   2) = (   0.7500000   0.7500000   1.1727468  )
         3           W   tau(   3) = (   0.7500000   0.7500000   0.4244183  )
         4           W   tau(   4) = (   0.2500000   0.2500000   1.0722387  )
         5           O   tau(   5) = (   0.2500000   0.2500000   0.7310536  )
         6           O   tau(   6) = (   0.7500000   0.7500000   0.7656034  )
         7           O   tau(   7) = (   0.7500000   0.7500000   0.0172749  )
         8           O   tau(   8) = (   0.2500000   0.2500000   1.4793821  )
         9           O   tau(   9) = (   0.4581870   0.5418129   0.3741643  )
        10           O   tau(  10) = (   0.5418130   0.4581871   1.1224928  )
        11           O   tau(  11) = (   0.0418129   0.9581871   0.3741643  )
        12           O   tau(  12) = (   0.9581870   0.0418130   1.1224928  )
        13           O   tau(  13) = (   0.9581871   0.4581870   0.3741643  )
        14           O   tau(  14) = (   0.0418130   0.5418130   1.1224928  )
        15           O   tau(  15) = (   0.5418129   0.0418129   0.3741643  )
        16           O   tau(  16) = (   0.4581871   0.9581870   1.1224928  )

     number of k points=    40  gaussian smearing, width (Ry)=  0.0007
                       cart. coord. in units 2pi/alat
        k(    1) = (   0.0000000   0.0000000   0.0000000), wk =   0.0092593
        k(    2) = (   0.0000000   0.0000000   0.1113593), wk =   0.0185185
        k(    3) = (   0.0000000   0.0000000   0.2227186), wk =   0.0185185
        k(    4) = (   0.0000000   0.0000000  -0.3340779), wk =   0.0092593
        k(    5) = (   0.0000000   0.1666667   0.0000000), wk =   0.0370370
        k(    6) = (   0.0000000   0.1666667   0.1113593), wk =   0.0740741
        k(    7) = (   0.0000000   0.1666667   0.2227186), wk =   0.0740741
        k(    8) = (   0.0000000   0.1666667  -0.3340779), wk =   0.0370370
        k(    9) = (   0.0000000   0.3333333   0.0000000), wk =   0.0370370
        k(   10) = (   0.0000000   0.3333333   0.1113593), wk =   0.0740741
        k(   11) = (   0.0000000   0.3333333   0.2227186), wk =   0.0740741
        k(   12) = (   0.0000000   0.3333333  -0.3340779), wk =   0.0370370
        k(   13) = (   0.0000000  -0.5000000   0.0000000), wk =   0.0185185
        k(   14) = (   0.0000000  -0.5000000   0.1113593), wk =   0.0370370
        k(   15) = (   0.0000000  -0.5000000   0.2227186), wk =   0.0370370
        k(   16) = (   0.0000000  -0.5000000  -0.3340779), wk =   0.0185185
        k(   17) = (   0.1666667   0.1666667   0.0000000), wk =   0.0370370
        k(   18) = (   0.1666667   0.1666667   0.1113593), wk =   0.0740741
        k(   19) = (   0.1666667   0.1666667   0.2227186), wk =   0.0740741
        k(   20) = (   0.1666667   0.1666667  -0.3340779), wk =   0.0370370
        k(   21) = (   0.1666667   0.3333333   0.0000000), wk =   0.0740741
        k(   22) = (   0.1666667   0.3333333   0.1113593), wk =   0.1481481
        k(   23) = (   0.1666667   0.3333333   0.2227186), wk =   0.1481481
        k(   24) = (   0.1666667   0.3333333  -0.3340779), wk =   0.0740741
        k(   25) = (   0.1666667  -0.5000000   0.0000000), wk =   0.0370370
        k(   26) = (   0.1666667  -0.5000000   0.1113593), wk =   0.0740741
        k(   27) = (   0.1666667  -0.5000000   0.2227186), wk =   0.0740741
        k(   28) = (   0.1666667  -0.5000000  -0.3340779), wk =   0.0370370
        k(   29) = (   0.3333333   0.3333333   0.0000000), wk =   0.0370370
        k(   30) = (   0.3333333   0.3333333   0.1113593), wk =   0.0740741
        k(   31) = (   0.3333333   0.3333333   0.2227186), wk =   0.0740741
        k(   32) = (   0.3333333   0.3333333  -0.3340779), wk =   0.0370370
        k(   33) = (   0.3333333  -0.5000000   0.0000000), wk =   0.0370370
        k(   34) = (   0.3333333  -0.5000000   0.1113593), wk =   0.0740741
        k(   35) = (   0.3333333  -0.5000000   0.2227186), wk =   0.0740741
        k(   36) = (   0.3333333  -0.5000000  -0.3340779), wk =   0.0370370
        k(   37) = (  -0.5000000  -0.5000000   0.0000000), wk =   0.0092593
        k(   38) = (  -0.5000000  -0.5000000   0.1113593), wk =   0.0185185
        k(   39) = (  -0.5000000  -0.5000000   0.2227186), wk =   0.0185185
        k(   40) = (  -0.5000000  -0.5000000  -0.3340779), wk =   0.0092593

     Initial potential from superposition of free atoms

     starting charge  183.99828, renormalised to  184.00000
     Starting wfcs are  116 randomized atomic wfcs

     Self-consistent Calculation

     iteration #  1     ecut=   120.00 Ry     beta= 0.70
     Davidson diagonalization with overlap
     ethr =  1.00E-02,  avg # of iterations =  4.1

     total energy              =   -3126.99953123 Ry
     Harris-Foulkes estimate   =   -3132.29288876 Ry
     estimated scf accuracy    <       6.70740286 Ry

[...]

     End of self-consistent calculation

          k = 0.0000 0.0000 0.0000 ( 31095 PWs)   bands (ev):

   -66.1568 -66.1564 -66.1548 -66.1545 -30.5276 -30.5213 -30.5211 -30.5211
   -30.5179 -30.5179 -30.4683 -30.4633 -30.4248 -30.4248 -30.4222 -30.4222
   -20.3118 -20.3117 -20.3116 -20.3116 -20.2913 -20.2909 -20.2898 -20.2898
   -20.2896 -20.2896 -20.2888 -20.2888 -20.2887 -20.2887 -20.2857 -20.2853
   -20.2806 -20.2806 -20.2796 -20.2796 -20.2792 -20.2791 -20.2786 -20.2785
   -20.2739 -20.2739 -20.2730 -20.2730  -9.9941  -9.7329  -9.1104  -9.0961
    -9.0212  -8.8336  -7.7949  -7.6800  -7.6657  -7.6657  -7.6448  -7.6448
     1.0530   1.0533   1.3340   1.5155   1.6663   1.7746   2.3314   2.4109
     2.6744   2.6744   4.0947   4.0947   5.0363   5.0413   5.0413   5.5660
     5.5660   5.5713   5.5713   5.8633   5.8633   5.9304   6.0217   6.8001
     6.8001   6.8525   7.0248   7.0671   7.3082   7.3082   7.3435   7.3435
     7.9631   7.9735   8.1333   8.1333   9.1536   9.1592   9.9535   9.9535
    12.3308  12.3308  13.1590  13.1593  13.4733  13.4733  13.7426  14.2286
    14.2286  14.8636  15.3197  15.3290  15.4817  16.8407

[...]

          k =-0.5000-0.5000 0.0000 ( 31144 PWs)   bands (ev):

[...]

     the Fermi energy is     9.0759 ev

!    total energy              =   -3130.55067206 Ry
     Harris-Foulkes estimate   =   -3130.55067206 Ry
     estimated scf accuracy    <          8.4E-10 Ry

     The total energy is the sum of the following terms:

     one-electron contribution =   -2369.60963229 Ry
     hartree contribution      =    1303.24159413 Ry
     xc contribution           =    -482.94619442 Ry
     ewald contribution        =   -1581.23643948 Ry
     smearing contrib. (-TS)   =      -0.00000000 Ry

     convergence has been achieved in  12 iterations

     Forces acting on atoms (cartesian axes, Ry/au):

     atom    1 type  1   force =     0.00000000    0.00000000   -0.01534525
     atom    2 type  1   force =     0.00000000    0.00000000    0.01534525
     atom    3 type  1   force =     0.00000000    0.00000000    0.01534525
     atom    4 type  1   force =     0.00000000    0.00000000   -0.01534525
     atom    5 type  2   force =     0.00000000    0.00000000    0.02028025
     atom    6 type  2   force =     0.00000000    0.00000000   -0.02028025
     atom    7 type  2   force =     0.00000000    0.00000000   -0.02028025
     atom    8 type  2   force =     0.00000000    0.00000000    0.02028025
     atom    9 type  2   force =    -0.00367196    0.00367196    0.00000000
     atom   10 type  2   force =     0.00367196   -0.00367196    0.00000000
     atom   11 type  2   force =     0.00367196   -0.00367196    0.00000000
     atom   12 type  2   force =    -0.00367196    0.00367196    0.00000000
     atom   13 type  2   force =    -0.00367196   -0.00367196    0.00000000
     atom   14 type  2   force =     0.00367196    0.00367196    0.00000000
     atom   15 type  2   force =     0.00367196    0.00367196    0.00000000
[...]
   0.00000000   0.00000000  -0.00009462          0.00      0.00    -13.92

     BFGS Geometry Optimization

     number of scf cycles    =   1
     number of bfgs steps    =   0

     enthalpy new            =   -3130.5506720550 Ry

     new trust radius        =       0.0445604098 bohr
     new conv_thr            =       0.0000000100 Ry

     new unit-cell volume =   1415.53055 a.u.^3 (   209.75998 Ang^3 )
     density =      7.34127 g/cm^3

CELL_PARAMETERS (angstrom)
   5.208769117   0.000000000   0.000000000
   0.000000000   5.208769117   0.000000000
   0.000000000   0.000000000   7.731298233

ATOMIC_POSITIONS (crystal)
W        0.250000000   0.250000000   0.216422510    0   0   0
W        0.750000023   0.750000023   0.783577505    0   0   0
W        0.750000023   0.750000023   0.283577505    0   0   0
W        0.250000000   0.250000000   0.716422495    0   0   0
O        0.250000000   0.250000000   0.488457691    0   0   0
O        0.750000023   0.750000023   0.511542309    0   0   0
O        0.750000023   0.750000023   0.011542322    0   0   0
O        0.250000000   0.250000000   0.988457691    0   0   0
O        0.458187042   0.541812912   0.250000000    0   0   0
O        0.541812958   0.458187088   0.750000000    0   0   0
O        0.041812941   0.958187088   0.250000000    0   0   0
O        0.958186996   0.041812975   0.750000000    0   0   0
O        0.958187088   0.458187042   0.250000000    0   0   0
O        0.041812975   0.541812958   0.750000000    0   0   0
O        0.541812912   0.041812941   0.250000000    0   0   0
O        0.458187088   0.958186996   0.750000000    0   0   0

     Writing output data file Landau_5.save/
     NEW-OLD atomic charge density approx. for the potential
     extrapolated charge  185.73908, renormalised to  184.00000

[...]

     enthalpy old            =   -3130.5506720550 Ry
     enthalpy new            =   -3130.5524422388 Ry

     CASE: enthalpy_new < enthalpy_old

[...]

     number of scf cycles    =   4
     number of bfgs steps    =   3

     enthalpy old            =   -3130.5525257392 Ry
     enthalpy new            =   -3130.5525277445 Ry

     CASE: enthalpy_new < enthalpy_old

     new trust radius        =       0.0001082586 bohr
     new conv_thr            =            1.0E-10 Ry

     new unit-cell volume =   1411.89401 a.u.^3 (   209.22110 Ang^3 )
     density =      7.36018 g/cm^3

[...]

ATOMIC_POSITIONS (crystal)
W        0.250000000   0.250000000   0.216422510    0   0   0
W        0.750000023   0.750000023   0.783577505    0   0   0
W        0.750000023   0.750000023   0.283577505    0   0   0
W        0.250000000   0.250000000   0.716422495    0   0   0
O        0.250000000   0.250000000   0.488457691    0   0   0
O        0.750000023   0.750000023   0.511542309    0   0   0
O        0.750000023   0.750000023   0.011542322    0   0   0
O        0.250000000   0.250000000   0.988457691    0   0   0
O        0.458187042   0.541812912   0.250000000    0   0   0
O        0.541812958   0.458187088   0.750000000    0   0   0
O        0.041812941   0.958187088   0.250000000    0   0   0
O        0.958186996   0.041812975   0.750000000    0   0   0
O        0.958187088   0.458187042   0.250000000    0   0   0
O        0.041812975   0.541812958   0.750000000    0   0   0
O        0.541812912   0.041812941   0.250000000    0   0   0
O        0.458187088   0.958186996   0.750000000    0   0   0

     Writing output data file Landau_5.save/
     NEW-OLD atomic charge density approx. for the potential
     extrapolated charge  184.00161, renormalised to  184.00000

[...]

     Threshold (ethr) on eigenvalues was too large:
     Diagonalizing with lowered threshold

     Davidson diagonalization with overlap
     ethr =  1.41E-10,  avg # of iterations =  3.0

[...]

     bfgs converged in   5 scf cycles and   4 bfgs steps
     (criteria: energy <  1.0E-07 Ry, force <  1.0E-07Ry/Bohr, cell <  5.0E-01kbar)

     End of BFGS Geometry Optimization

     Final enthalpy =   -3130.5525277571 Ry
Begin final coordinates
     new unit-cell volume =   1411.89401 a.u.^3 (   209.22110 Ang^3 )
     density =      7.36018 g/cm^3

CELL_PARAMETERS (angstrom)
   5.203819157   0.000000000   0.000000000
   0.000000000   5.203819157   0.000000000
   0.000000000   0.000000000   7.726113745

ATOMIC_POSITIONS (crystal)
W        0.250000000   0.250000000   0.216422510    0   0   0
W        0.750000023   0.750000023   0.783577505    0   0   0
W        0.750000023   0.750000023   0.283577505    0   0   0
W        0.250000000   0.250000000   0.716422495    0   0   0
O        0.250000000   0.250000000   0.488457691    0   0   0
O        0.750000023   0.750000023   0.511542309    0   0   0
O        0.750000023   0.750000023   0.011542322    0   0   0
O        0.250000000   0.250000000   0.988457691    0   0   0
O        0.458187042   0.541812912   0.250000000    0   0   0
O        0.541812958   0.458187088   0.750000000    0   0   0
O        0.041812941   0.958187088   0.250000000    0   0   0
O        0.958186996   0.041812975   0.750000000    0   0   0
O        0.958187088   0.458187042   0.250000000    0   0   0
O        0.041812975   0.541812958   0.750000000    0   0   0
O        0.541812912   0.041812941   0.250000000    0   0   0
O        0.458187088   0.958186996   0.750000000    0   0   0
End final coordinates

     Writing output data file Landau_5.save/

     Final scf calculation at the relaxed structure.
     The G-vectors are recalculated for the final unit cell
     Results may differ from those at the preceding step.

     bravais-lattice index     =            0
     lattice parameter (alat)  =       9.7849  a.u.
     unit-cell volume          =    1411.8940 (a.u.)^3
     number of atoms/cell      =           16
     number of atomic types    =            2
     number of electrons       =       184.00
     number of Kohn-Sham states=          110
     kinetic-energy cutoff     =     120.0000  Ry
     charge density cutoff     =     480.0000  Ry
     convergence threshold     =      1.0E-10
     mixing beta               =       0.7000
     number of iterations used =            8  plain     mixing
     Exchange-correlation      = SLA PW NOGX NOGC ( 1  4  0  0 0 0)

     celldm(1)=   9.784926  celldm(2)=   0.000000  celldm(3)=   0.000000
     celldm(4)=   0.000000  celldm(5)=   0.000000  celldm(6)=   0.000000

     crystal axes: (cart. coord. in units of alat)
               a(1) = (   1.004994   0.000000   0.000000 )
               a(2) = (   0.000000   1.004994   0.000000 )
               a(3) = (   0.000000   0.000000   1.492115 )

     reciprocal axes: (cart. coord. in units 2 pi/alat)
               b(1) = (  0.995031  0.000000  0.000000 )
               b(2) = (  0.000000  0.995031  0.000000 )
               b(3) = (  0.000000  0.000000  0.670189 )

     PseudoPot. # 1 for W  read from file:
     /cluster/scratch/mnoe/QE/pps/W_ONCV_LDA-4.0.upf
     MD5 check sum: ba0307d5d4cd419d6f1d13dc49d7c13a
     Pseudo is Norm-conserving + core correction, Zval = 28.0
     Generated using ONCVPSP code by D. R. Hamann
     Using radial grid of 1380 points,  8 beta functions with:
                l(1) =   0
                l(2) =   0
                l(3) =   1
                l(4) =   1
                l(5) =   2
                l(6) =   2
                l(7) =   3
                l(8) =   3

     PseudoPot. # 2 for O  read from file:
     /cluster/scratch/mnoe/QE/pps/O_ONCV_LDA-3.0.upf
     MD5 check sum: b55cdb4f45ae2203d24ad12cf8d61a31
     Pseudo is Norm-conserving + core correction, Zval =  6.0
     Generated using ONCVPSP code by D. R. Hamann
     Using radial grid of  926 points,  5 beta functions with:
                l(1) =   0
                l(2) =   0
                l(3) =   1
                l(4) =   1
                l(5) =   2

     atomic species   valence    mass     pseudopotential
        W             28.00   183.84000     W ( 1.00)
        O              6.00    15.99940     O ( 1.00)

     16 Sym. Ops., with inversion, found (14 have fractional translation)

   Cartesian axes

     site n.     atom                  positions (alat units)
         1           W   tau(   1) = (   0.2512485   0.2512485   0.3229274  )
         2           W   tau(   2) = (   0.7537456   0.7537456   1.1691881  )
         3           W   tau(   3) = (   0.7537456   0.7537456   0.4231304  )
         4           W   tau(   4) = (   0.2512485   0.2512485   1.0689850  )
         5           O   tau(   5) = (   0.2512485   0.2512485   0.7288352  )
         6           O   tau(   6) = (   0.7537456   0.7537456   0.7632802  )
         7           O   tau(   7) = (   0.7537456   0.7537456   0.0172225  )
         8           O   tau(   8) = (   0.2512485   0.2512485   1.4748929  )
         9           O   tau(   9) = (   0.4604753   0.5445188   0.3730289  )
        10           O   tau(  10) = (   0.5445188   0.4604753   1.1190866  )
        11           O   tau(  11) = (   0.0420218   0.9629724   0.3730289  )
        12           O   tau(  12) = (   0.9629723   0.0420218   1.1190866  )
        13           O   tau(  13) = (   0.9629724   0.4604753   0.3730289  )
        14           O   tau(  14) = (   0.0420218   0.5445188   1.1190866  )
        15           O   tau(  15) = (   0.5445188   0.0420218   0.3730289  )
        16           O   tau(  16) = (   0.4604753   0.9629723   1.1190866  )

     number of k points=    40  gaussian smearing, width (Ry)=  0.0007
                       cart. coord. in units 2pi/alat
        k(    1) = (   0.0000000   0.0000000   0.0000000), wk =   0.0092593
        k(    2) = (   0.0000000   0.0000000   0.1116982), wk =   0.0185185
        k(    3) = (   0.0000000   0.0000000   0.2233965), wk =   0.0185185
        k(    4) = (   0.0000000   0.0000000  -0.3350947), wk =   0.0092593
        k(    5) = (   0.0000000   0.1658385   0.0000000), wk =   0.0370370
        k(    6) = (   0.0000000   0.1658385   0.1116982), wk =   0.0740741
        k(    7) = (   0.0000000   0.1658385   0.2233965), wk =   0.0740741
        k(    8) = (   0.0000000   0.1658385  -0.3350947), wk =   0.0370370
        k(    9) = (   0.0000000   0.3316769   0.0000000), wk =   0.0370370
        k(   10) = (   0.0000000   0.3316769   0.1116982), wk =   0.0740741
        k(   11) = (   0.0000000   0.3316769   0.2233965), wk =   0.0740741
        k(   12) = (   0.0000000   0.3316769  -0.3350947), wk =   0.0370370
        k(   13) = (   0.0000000  -0.4975154   0.0000000), wk =   0.0185185
        k(   14) = (   0.0000000  -0.4975154   0.1116982), wk =   0.0370370
        k(   15) = (   0.0000000  -0.4975154   0.2233965), wk =   0.0370370
        k(   16) = (   0.0000000  -0.4975154  -0.3350947), wk =   0.0185185
        k(   17) = (   0.1658385   0.1658385   0.0000000), wk =   0.0370370
        k(   18) = (   0.1658385   0.1658385   0.1116982), wk =   0.0740741
        k(   19) = (   0.1658385   0.1658385   0.2233965), wk =   0.0740741
        k(   20) = (   0.1658385   0.1658385  -0.3350947), wk =   0.0370370
        k(   21) = (   0.1658385   0.3316769   0.0000000), wk =   0.0740741
        k(   22) = (   0.1658385   0.3316769   0.1116982), wk =   0.1481481
        k(   23) = (   0.1658385   0.3316769   0.2233965), wk =   0.1481481
        k(   24) = (   0.1658385   0.3316769  -0.3350947), wk =   0.0740741
        k(   25) = (   0.1658385  -0.4975154   0.0000000), wk =   0.0370370
        k(   26) = (   0.1658385  -0.4975154   0.1116982), wk =   0.0740741
        k(   27) = (   0.1658385  -0.4975154   0.2233965), wk =   0.0740741
        k(   28) = (   0.1658385  -0.4975154  -0.3350947), wk =   0.0370370
        k(   29) = (   0.3316769   0.3316769   0.0000000), wk =   0.0370370
        k(   30) = (   0.3316769   0.3316769   0.1116982), wk =   0.0740741
        k(   31) = (   0.3316769   0.3316769   0.2233965), wk =   0.0740741
        k(   32) = (   0.3316769   0.3316769  -0.3350947), wk =   0.0370370
        k(   33) = (   0.3316769  -0.4975154   0.0000000), wk =   0.0370370
        k(   34) = (   0.3316769  -0.4975154   0.1116982), wk =   0.0740741
        k(   35) = (   0.3316769  -0.4975154   0.2233965), wk =   0.0740741
        k(   36) = (   0.3316769  -0.4975154  -0.3350947), wk =   0.0370370
        k(   37) = (  -0.4975154  -0.4975154   0.0000000), wk =   0.0092593
        k(   38) = (  -0.4975154  -0.4975154   0.1116982), wk =   0.0185185
        k(   39) = (  -0.4975154  -0.4975154   0.2233965), wk =   0.0185185
        k(   40) = (  -0.4975154  -0.4975154  -0.3350947), wk =   0.0092593

     Initial potential from superposition of free atoms

     starting charge  183.99828, renormalised to  184.00000
     Starting wfcs are  116 randomized atomic wfcs

     Self-consistent Calculation

[...]

     total energy              =   -3130.55257954 Ry
     Harris-Foulkes estimate   =   -3130.55257954 Ry
     estimated scf accuracy    <          2.0E-10 Ry

     iteration # 14     ecut=   120.00 Ry     beta= 0.70
     Davidson diagonalization with overlap
     ethr =  1.10E-13,  avg # of iterations =  2.0

     End of self-consistent calculation

[...]

          k = 0.3317-0.4975-0.3351 ( 31364 PWs)   bands (ev):

[...]

          k =-0.4975-0.4975-0.3351 ( 31440 PWs)   bands (ev):

   -66.2891 -66.2891 -66.2891 -66.2891 -30.6386 -30.6386 -30.6386 -30.6386
   -30.6323 -30.6323 -30.6323 -30.6323 -30.5329 -30.5329 -30.5329 -30.5329
   -20.4517 -20.4517 -20.4517 -20.4516 -20.4315 -20.4315 -20.4315 -20.4315
   -20.4283 -20.4283 -20.4283 -20.4283 -20.4281 -20.4281 -20.4281 -20.4280
   -20.4192 -20.4192 -20.4192 -20.4192 -20.4190 -20.4190 -20.4190 -20.4190
   -20.4128 -20.4128 -20.4128 -20.4128  -9.4373  -9.4372  -9.4372  -9.4372
    -8.5449  -8.5448  -8.5448  -8.5448  -7.8565  -7.8565  -7.8565  -7.8565
     1.1673   1.1673   1.1673   1.1673   3.0843   3.0843   3.0843   3.0843
     3.3370   3.3370   3.3370   3.3371   4.6955   4.6955   4.6955   4.6955
     5.2282   5.2282   5.2282   5.2282   5.9276   5.9276   5.9276   5.9276
     6.0810   6.0810   6.0810   6.0810   6.6416   6.6416   6.6416   6.6416
     7.3836   7.3836   7.3836   7.3836  11.1975  11.1975  11.1975  11.1975
    12.2451  12.2451  12.2451  12.2451  13.4948  13.4948  13.4948  13.4948
    15.4040  15.4040  15.4040  15.4040  18.1599  18.1599

     the Fermi energy is     8.9388 ev

!    total energy              =   -3130.55257954 Ry
     Harris-Foulkes estimate   =   -3130.55257954 Ry
     estimated scf accuracy    <          1.3E-12 Ry

     The total energy is the sum of the following terms:

     one-electron contribution =   -2374.67647130 Ry
     hartree contribution      =    1304.95609218 Ry
     xc contribution           =    -482.84016227 Ry
     ewald contribution        =   -1577.99203816 Ry
     smearing contrib. (-TS)   =      -0.00000000 Ry

     convergence has been achieved in  14 iterations

     Forces acting on atoms (cartesian axes, Ry/au):

     atom    1 type  1   force =     0.00000000    0.00000000   -0.00256025
     atom    2 type  1   force =     0.00000000    0.00000000    0.00256025
     atom    3 type  1   force =     0.00000000    0.00000000    0.00256025
     atom    4 type  1   force =     0.00000000    0.00000000   -0.00256025
     atom    5 type  2   force =     0.00000000    0.00000000    0.01454362
     atom    6 type  2   force =     0.00000000    0.00000000   -0.01454362
     atom    7 type  2   force =     0.00000000    0.00000000   -0.01454362
     atom    8 type  2   force =     0.00000000    0.00000000    0.01454362
     atom    9 type  2   force =    -0.00106031    0.00106031    0.00000000
     atom   10 type  2   force =     0.00106031   -0.00106031    0.00000000
     atom   11 type  2   force =     0.00106031   -0.00106031    0.00000000
     atom   12 type  2   force =    -0.00106031    0.00106031    0.00000000
     atom   13 type  2   force =    -0.00106031   -0.00106031    0.00000000
     atom   14 type  2   force =     0.00106031    0.00106031    0.00000000
     atom   15 type  2   force =     0.00106031    0.00106031    0.00000000
     atom   16 type  2   force =    -0.00106031   -0.00106031    0.00000000

     Total force =     0.000000     Total SCF correction =     0.000000

     Computing stress (Cartesian axis) and pressure

          total   stress  (Ry/bohr**3)                   (kbar)     P=    0.17
   0.00000169   0.00000000   0.00000000          0.25      0.00      0.00
   0.00000000   0.00000169   0.00000000          0.00      0.25      0.00
   0.00000000   0.00000000   0.00000003          0.00      0.00      0.00

     Writing output data file Landau_5.save/

     General routines

     Parallel routines

   This run was terminated on:  18:47:16  19Nov2019

   JOB DONE.