     Program PWSCF v.6.4.1 starts on 21Nov2019 at 17:35:24

     K-points division:     npool     =      40
     Reading input from rscf.in

     Current dimensions of program PWSCF are:
     Max number of different atomic species (ntypx) = 10
     Max number of k-points (npk) =  40000
     Max angular momentum in pseudopotentials (lmaxx) =  3

     Subspace diagonalization in iterative solution of the eigenvalue problem:
     a serial algorithm will be used

     Message from routine setup:
     using ibrav=0 with symmetry is DISCOURAGED, use correct ibrav instead

     bravais-lattice index     =            0
     lattice parameter (alat)  =       9.7849  a.u.
     unit-cell volume          =    1402.1515 (a.u.)^3
     number of atoms/cell      =           16
     number of atomic types    =            2
     number of electrons       =       184.00
     number of Kohn-Sham states=          110
     kinetic-energy cutoff     =     120.0000  Ry
     charge density cutoff     =     480.0000  Ry
     convergence threshold     =      1.0E-08
     mixing beta               =       0.7000
     number of iterations used =            8  plain     mixing
     Exchange-correlation      = SLA PW NOGX NOGC ( 1  4  0  0 0 0)
     nstep                     =           50

     celldm(1)=   9.784926  celldm(2)=   0.000000  celldm(3)=   0.000000
     celldm(4)=   0.000000  celldm(5)=   0.000000  celldm(6)=   0.000000

     crystal axes: (cart. coord. in units of alat)
               a(1) = (   1.000000   0.000000   0.000000 )
               a(2) = (   0.000000   1.000000   0.000000 )
               a(3) = (   0.000000   0.000000   1.496657 )

     reciprocal axes: (cart. coord. in units 2 pi/alat)
               b(1) = (  1.000000  0.000000  0.000000 )
               b(2) = (  0.000000  1.000000  0.000000 )
               b(3) = (  0.000000  0.000000  0.668156 )

     PseudoPot. # 1 for W  read from file:
     /cluster/scratch/mnoe/QE/pps/W_ONCV_LDA-4.0.upf
     MD5 check sum: ba0307d5d4cd419d6f1d13dc49d7c13a
     Pseudo is Norm-conserving + core correction, Zval = 28.0
     Generated using ONCVPSP code by D. R. Hamann
     Using radial grid of 1380 points,  8 beta functions with:
                l(1) =   0
                l(2) =   0
                l(3) =   1
                l(4) =   1
                l(5) =   2
                l(6) =   2
                l(7) =   3
                l(8) =   3

     PseudoPot. # 2 for O  read from file:
     /cluster/scratch/mnoe/QE/pps/O_ONCV_LDA-3.0.upf
     MD5 check sum: b55cdb4f45ae2203d24ad12cf8d61a31
     Pseudo is Norm-conserving + core correction, Zval =  6.0
     Generated using ONCVPSP code by D. R. Hamann
     Using radial grid of  926 points,  5 beta functions with:
                l(1) =   0
                l(2) =   0
                l(3) =   1
                l(4) =   1
                l(5) =   2

     atomic species   valence    mass     pseudopotential
        W             28.00   183.84000     W ( 1.00)
        O              6.00    15.99940     O ( 1.00)

     16 Sym. Ops., with inversion, found (14 have fractional translation)

   Cartesian axes

     site n.     atom                  positions (alat units)
         1           W   tau(   1) = (   0.2500000   0.2500000   0.3193373  )
         2           W   tau(   2) = (   0.7500000   0.7500000   1.1773197  )
         3           W   tau(   3) = (   0.7500000   0.7500000   0.4289912  )
         4           W   tau(   4) = (   0.2500000   0.2500000   1.0676658  )
         5           O   tau(   5) = (   0.2500000   0.2500000   0.7223997  )
         6           O   tau(   6) = (   0.7500000   0.7500000   0.7742574  )
         7           O   tau(   7) = (   0.7500000   0.7500000   0.0259289  )
         8           O   tau(   8) = (   0.2500000   0.2500000   1.4707282  )
         9           O   tau(   9) = (   0.4739858   0.5260142   0.3741643  )
        10           O   tau(  10) = (   0.5260142   0.4739858   1.1224928  )
        11           O   tau(  11) = (   0.0260142   0.9739858   0.3741643  )
        12           O   tau(  12) = (   0.9739857   0.0260143   1.1224928  )
        13           O   tau(  13) = (   0.9739858   0.4739858   0.3741643  )
        14           O   tau(  14) = (   0.0260143   0.5260142   1.1224928  )
        15           O   tau(  15) = (   0.5260142   0.0260142   0.3741643  )
        16           O   tau(  16) = (   0.4739858   0.9739857   1.1224928  )

     number of k points=    60  gaussian smearing, width (Ry)=  0.0007
                       cart. coord. in units 2pi/alat
        k(    1) = (   0.0000000   0.0000000   0.0000000), wk =   0.0041152
        k(    2) = (   0.0000000   0.0000000   0.1113593), wk =   0.0082305
        k(    3) = (   0.0000000   0.0000000   0.2227186), wk =   0.0082305
        k(    4) = (   0.0000000   0.0000000  -0.3340779), wk =   0.0041152
        k(    5) = (   0.0000000   0.1111111   0.0000000), wk =   0.0164609
        k(    6) = (   0.0000000   0.1111111   0.1113593), wk =   0.0329218
        k(    7) = (   0.0000000   0.1111111   0.2227186), wk =   0.0329218
        k(    8) = (   0.0000000   0.1111111  -0.3340779), wk =   0.0164609
        k(    9) = (   0.0000000   0.2222222   0.0000000), wk =   0.0164609
        k(   10) = (   0.0000000   0.2222222   0.1113593), wk =   0.0329218
        k(   11) = (   0.0000000   0.2222222   0.2227186), wk =   0.0329218
        k(   12) = (   0.0000000   0.2222222  -0.3340779), wk =   0.0164609
        k(   13) = (   0.0000000   0.3333333   0.0000000), wk =   0.0164609
        k(   14) = (   0.0000000   0.3333333   0.1113593), wk =   0.0329218
        k(   15) = (   0.0000000   0.3333333   0.2227186), wk =   0.0329218
        k(   16) = (   0.0000000   0.3333333  -0.3340779), wk =   0.0164609
        k(   17) = (   0.0000000   0.4444444   0.0000000), wk =   0.0164609
        k(   18) = (   0.0000000   0.4444444   0.1113593), wk =   0.0329218
        k(   19) = (   0.0000000   0.4444444   0.2227186), wk =   0.0329218
        k(   20) = (   0.0000000   0.4444444  -0.3340779), wk =   0.0164609
        k(   21) = (   0.1111111   0.1111111   0.0000000), wk =   0.0164609
        k(   22) = (   0.1111111   0.1111111   0.1113593), wk =   0.0329218
        k(   23) = (   0.1111111   0.1111111   0.2227186), wk =   0.0329218
        k(   24) = (   0.1111111   0.1111111  -0.3340779), wk =   0.0164609
        k(   25) = (   0.1111111   0.2222222   0.0000000), wk =   0.0329218
        k(   26) = (   0.1111111   0.2222222   0.1113593), wk =   0.0658436
        k(   27) = (   0.1111111   0.2222222   0.2227186), wk =   0.0658436
        k(   28) = (   0.1111111   0.2222222  -0.3340779), wk =   0.0329218
        k(   29) = (   0.1111111   0.3333333   0.0000000), wk =   0.0329218
        k(   30) = (   0.1111111   0.3333333   0.1113593), wk =   0.0658436
        k(   31) = (   0.1111111   0.3333333   0.2227186), wk =   0.0658436
        k(   32) = (   0.1111111   0.3333333  -0.3340779), wk =   0.0329218
        k(   33) = (   0.1111111   0.4444444   0.0000000), wk =   0.0329218
        k(   34) = (   0.1111111   0.4444444   0.1113593), wk =   0.0658436
        k(   35) = (   0.1111111   0.4444444   0.2227186), wk =   0.0658436
        k(   36) = (   0.1111111   0.4444444  -0.3340779), wk =   0.0329218
        k(   37) = (   0.2222222   0.2222222   0.0000000), wk =   0.0164609
        k(   38) = (   0.2222222   0.2222222   0.1113593), wk =   0.0329218
        k(   39) = (   0.2222222   0.2222222   0.2227186), wk =   0.0329218
        k(   40) = (   0.2222222   0.2222222  -0.3340779), wk =   0.0164609
        k(   41) = (   0.2222222   0.3333333   0.0000000), wk =   0.0329218
        k(   42) = (   0.2222222   0.3333333   0.1113593), wk =   0.0658436
        k(   43) = (   0.2222222   0.3333333   0.2227186), wk =   0.0658436
        k(   44) = (   0.2222222   0.3333333  -0.3340779), wk =   0.0329218
        k(   45) = (   0.2222222   0.4444444   0.0000000), wk =   0.0329218
        k(   46) = (   0.2222222   0.4444444   0.1113593), wk =   0.0658436
        k(   47) = (   0.2222222   0.4444444   0.2227186), wk =   0.0658436
        k(   48) = (   0.2222222   0.4444444  -0.3340779), wk =   0.0329218
        k(   49) = (   0.3333333   0.3333333   0.0000000), wk =   0.0164609
        k(   50) = (   0.3333333   0.3333333   0.1113593), wk =   0.0329218
        k(   51) = (   0.3333333   0.3333333   0.2227186), wk =   0.0329218
        k(   52) = (   0.3333333   0.3333333  -0.3340779), wk =   0.0164609
        k(   53) = (   0.3333333   0.4444444   0.0000000), wk =   0.0329218
        k(   54) = (   0.3333333   0.4444444   0.1113593), wk =   0.0658436
        k(   55) = (   0.3333333   0.4444444   0.2227186), wk =   0.0658436
        k(   56) = (   0.3333333   0.4444444  -0.3340779), wk =   0.0329218
        k(   57) = (   0.4444444   0.4444444   0.0000000), wk =   0.0164609
        k(   58) = (   0.4444444   0.4444444   0.1113593), wk =   0.0329218
        k(   59) = (   0.4444444   0.4444444   0.2227186), wk =   0.0329218
        k(   60) = (   0.4444444   0.4444444  -0.3340779), wk =   0.0164609

     Initial potential from superposition of free atoms

     starting charge  183.99828, renormalised to  184.00000
     Starting wfcs are  116 randomized atomic wfcs

     Self-consistent Calculation

     iteration #  1     ecut=   120.00 Ry     beta= 0.70
     Davidson diagonalization with overlap
     ethr =  1.00E-02,  avg # of iterations =  4.4

     total energy              =   -3126.98072639 Ry
     Harris-Foulkes estimate   =   -3132.28475561 Ry
     estimated scf accuracy    <       6.72522552 Ry

[...]

     End of self-consistent calculation

          k = 0.0000 0.0000 0.0000 ( 31095 PWs)   bands (ev):

   -66.1383 -66.1379 -66.1366 -66.1362 -30.5339 -30.5339 -30.5306 -30.5306
   -30.4725 -30.4667 -30.4379 -30.4379 -30.4352 -30.4352 -30.4130 -30.4084
   -20.2877 -20.2876 -20.2876 -20.2876 -20.2706 -20.2706 -20.2706 -20.2706
   -20.2689 -20.2689 -20.2687 -20.2687 -20.2631 -20.2629 -20.2574 -20.2572
   -20.2571 -20.2570 -20.2568 -20.2567 -20.2560 -20.2560 -20.2548 -20.2548
   -20.2514 -20.2514 -20.2503 -20.2503 -10.0553  -9.8053  -9.1767  -9.1591
    -8.9453  -8.7574  -7.7194  -7.7194  -7.7052  -7.6988  -7.6988  -7.5817
     0.8941   0.8947   1.2674   1.3655   1.6929   1.7085   2.2593   2.3482
     2.5937   2.5937   4.0130   4.0130   4.9892   5.0801   5.0801   5.5982
     5.5982   5.6663   5.6663   5.9240   5.9834   5.9834   6.1078   6.8015
     6.8015   6.8175   7.0375   7.1533   7.2022   7.2022   7.2328   7.2328
     8.2251   8.2262   8.2568   8.2568   9.0468   9.0496   9.8225   9.8225
    12.3795  12.3795  13.5784  13.5784  13.6580  13.6636  13.6821  14.3240
    14.3240  14.7635  15.0585  15.0640  15.4927  16.8310

[...]

     the Fermi energy is     8.8095 ev

!    total energy              =   -3130.53050792 Ry
     Harris-Foulkes estimate   =   -3130.53050793 Ry
     estimated scf accuracy    <          6.9E-09 Ry

     The total energy is the sum of the following terms:

     one-electron contribution =   -2380.75818489 Ry
     hartree contribution      =    1308.92223056 Ry
[...]
O        0.026014256   0.526014239   0.750000000    0   0   0
O        0.526014193   0.026014222   0.250000000    0   0   0
O        0.473985807   0.973985715   0.750000000    0   0   0

     Writing output data file Landau_14.save/
     NEW-OLD atomic charge density approx. for the potential
     extrapolated charge  187.80036, renormalised to  184.00000

[...]

     enthalpy old            =   -3130.5305079214 Ry
     enthalpy new            =   -3130.5401495341 Ry

     CASE: enthalpy_new < enthalpy_old

[...]

     number of scf cycles    =   4
     number of bfgs steps    =   3

     enthalpy old            =   -3130.5406013852 Ry
     enthalpy new            =   -3130.5406137000 Ry

     CASE: enthalpy_new < enthalpy_old

     new trust radius        =       0.0003479281 bohr
     new conv_thr            =            1.0E-10 Ry

     new unit-cell volume =   1423.13662 a.u.^3 (   210.88709 Ang^3 )
     density =      7.30204 g/cm^3

[...]

ATOMIC_POSITIONS (crystal)
W        0.250000000   0.250000000   0.213367043    0   0   0
W        0.750000023   0.750000023   0.786632972    0   0   0
W        0.750000023   0.750000023   0.286632972    0   0   0
W        0.250000000   0.250000000   0.713367028    0   0   0
O        0.250000000   0.250000000   0.482675489    0   0   0
O        0.750000023   0.750000023   0.517324511    0   0   0
O        0.750000023   0.750000023   0.017324524    0   0   0
O        0.250000000   0.250000000   0.982675489    0   0   0
O        0.473985761   0.526014193   0.250000000    0   0   0
O        0.526014239   0.473985807   0.750000000    0   0   0
O        0.026014222   0.973985807   0.250000000    0   0   0
O        0.973985715   0.026014256   0.750000000    0   0   0
O        0.973985807   0.473985761   0.250000000    0   0   0
O        0.026014256   0.526014239   0.750000000    0   0   0
O        0.526014193   0.026014222   0.250000000    0   0   0
O        0.473985807   0.973985715   0.750000000    0   0   0

     Writing output data file Landau_14.save/
     NEW-OLD atomic charge density approx. for the potential
     extrapolated charge  184.00063, renormalised to  184.00000

[...]

     Threshold (ethr) on eigenvalues was too large:
     Diagonalizing with lowered threshold

     Davidson diagonalization with overlap
     ethr =  3.43E-11,  avg # of iterations =  4.0

[...]

     bfgs converged in   5 scf cycles and   4 bfgs steps
     (criteria: energy <  1.0E-07 Ry, force <  1.0E-07Ry/Bohr, cell <  5.0E-01kbar)

     End of BFGS Geometry Optimization

     Final enthalpy =   -3130.5406137958 Ry
Begin final coordinates
     new unit-cell volume =   1423.13662 a.u.^3 (   210.88709 Ang^3 )
     density =      7.30204 g/cm^3

CELL_PARAMETERS (angstrom)
   5.237477696   0.000000000   0.000000000
   0.000000000   5.237477696   0.000000000
   0.000000000   0.000000000   7.687862635

ATOMIC_POSITIONS (crystal)
W        0.250000000   0.250000000   0.213367043    0   0   0
W        0.750000023   0.750000023   0.786632972    0   0   0
W        0.750000023   0.750000023   0.286632972    0   0   0
W        0.250000000   0.250000000   0.713367028    0   0   0
O        0.250000000   0.250000000   0.482675489    0   0   0
O        0.750000023   0.750000023   0.517324511    0   0   0
O        0.750000023   0.750000023   0.017324524    0   0   0
O        0.250000000   0.250000000   0.982675489    0   0   0
O        0.473985761   0.526014193   0.250000000    0   0   0
O        0.526014239   0.473985807   0.750000000    0   0   0
O        0.026014222   0.973985807   0.250000000    0   0   0
O        0.973985715   0.026014256   0.750000000    0   0   0
O        0.973985807   0.473985761   0.250000000    0   0   0
O        0.026014256   0.526014239   0.750000000    0   0   0
O        0.526014193   0.026014222   0.250000000    0   0   0
O        0.473985807   0.973985715   0.750000000    0   0   0
End final coordinates

     Writing output data file Landau_14.save/

     Final scf calculation at the relaxed structure.
     The G-vectors are recalculated for the final unit cell
     Results may differ from those at the preceding step.

     bravais-lattice index     =            0
     lattice parameter (alat)  =       9.7849  a.u.
     unit-cell volume          =    1423.1366 (a.u.)^3
     number of atoms/cell      =           16
     number of atomic types    =            2
     number of electrons       =       184.00
     number of Kohn-Sham states=          110
     kinetic-energy cutoff     =     120.0000  Ry
     charge density cutoff     =     480.0000  Ry
     convergence threshold     =      1.0E-10
     mixing beta               =       0.7000
     number of iterations used =            8  plain     mixing
     Exchange-correlation      = SLA PW NOGX NOGC ( 1  4  0  0 0 0)

     celldm(1)=   9.784926  celldm(2)=   0.000000  celldm(3)=   0.000000
     celldm(4)=   0.000000  celldm(5)=   0.000000  celldm(6)=   0.000000

     crystal axes: (cart. coord. in units of alat)
               a(1) = (   1.011494   0.000000   0.000000 )
               a(2) = (   0.000000   1.011494   0.000000 )
               a(3) = (   0.000000   0.000000   1.484728 )

     reciprocal axes: (cart. coord. in units 2 pi/alat)
               b(1) = (  0.988636  0.000000  0.000000 )
               b(2) = (  0.000000  0.988636  0.000000 )
               b(3) = (  0.000000  0.000000  0.673524 )

     PseudoPot. # 1 for W  read from file:
     /cluster/scratch/mnoe/QE/pps/W_ONCV_LDA-4.0.upf
     MD5 check sum: ba0307d5d4cd419d6f1d13dc49d7c13a
     Pseudo is Norm-conserving + core correction, Zval = 28.0
     Generated using ONCVPSP code by D. R. Hamann
     Using radial grid of 1380 points,  8 beta functions with:
                l(1) =   0
                l(2) =   0
                l(3) =   1
                l(4) =   1
                l(5) =   2
                l(6) =   2
                l(7) =   3
                l(8) =   3

     PseudoPot. # 2 for O  read from file:
     /cluster/scratch/mnoe/QE/pps/O_ONCV_LDA-3.0.upf
     MD5 check sum: b55cdb4f45ae2203d24ad12cf8d61a31
     Pseudo is Norm-conserving + core correction, Zval =  6.0
     Generated using ONCVPSP code by D. R. Hamann
     Using radial grid of  926 points,  5 beta functions with:
                l(1) =   0
                l(2) =   0
                l(3) =   1
                l(4) =   1
                l(5) =   2

     atomic species   valence    mass     pseudopotential
        W             28.00   183.84000     W ( 1.00)
        O              6.00    15.99940     O ( 1.00)

     16 Sym. Ops., with inversion, found (14 have fractional translation)

   Cartesian axes

     site n.     atom                  positions (alat units)
         1           W   tau(   1) = (   0.2528736   0.2528736   0.3167920  )
         2           W   tau(   2) = (   0.7586209   0.7586209   1.1679361  )
         3           W   tau(   3) = (   0.7586209   0.7586209   0.4255720  )
         4           W   tau(   4) = (   0.2528736   0.2528736   1.0591561  )
         5           O   tau(   5) = (   0.2528736   0.2528736   0.7166419  )
         6           O   tau(   6) = (   0.7586209   0.7586209   0.7680862  )
         7           O   tau(   7) = (   0.7586209   0.7586209   0.0257222  )
         8           O   tau(   8) = (   0.2528736   0.2528736   1.4590059  )
         9           O   tau(   9) = (   0.4794340   0.5320604   0.3711820  )
        10           O   tau(  10) = (   0.5320605   0.4794340   1.1135461  )
        11           O   tau(  11) = (   0.0263132   0.9851812   0.3711820  )
        12           O   tau(  12) = (   0.9851811   0.0263133   1.1135461  )
        13           O   tau(  13) = (   0.9851812   0.4794340   0.3711820  )
        14           O   tau(  14) = (   0.0263133   0.5320605   1.1135461  )
        15           O   tau(  15) = (   0.5320604   0.0263132   0.3711820  )
        16           O   tau(  16) = (   0.4794340   0.9851811   1.1135461  )

     number of k points=    60  gaussian smearing, width (Ry)=  0.0007
                       cart. coord. in units 2pi/alat
        k(    1) = (   0.0000000   0.0000000   0.0000000), wk =   0.0041152
        k(    2) = (   0.0000000   0.0000000   0.1122540), wk =   0.0082305
        k(    3) = (   0.0000000   0.0000000   0.2245080), wk =   0.0082305
        k(    4) = (   0.0000000   0.0000000  -0.3367620), wk =   0.0041152
        k(    5) = (   0.0000000   0.1098485   0.0000000), wk =   0.0164609
        k(    6) = (   0.0000000   0.1098485   0.1122540), wk =   0.0329218
        k(    7) = (   0.0000000   0.1098485   0.2245080), wk =   0.0329218
        k(    8) = (   0.0000000   0.1098485  -0.3367620), wk =   0.0164609
        k(    9) = (   0.0000000   0.2196969   0.0000000), wk =   0.0164609
        k(   10) = (   0.0000000   0.2196969   0.1122540), wk =   0.0329218
        k(   11) = (   0.0000000   0.2196969   0.2245080), wk =   0.0329218
        k(   12) = (   0.0000000   0.2196969  -0.3367620), wk =   0.0164609
        k(   13) = (   0.0000000   0.3295454   0.0000000), wk =   0.0164609
        k(   14) = (   0.0000000   0.3295454   0.1122540), wk =   0.0329218
        k(   15) = (   0.0000000   0.3295454   0.2245080), wk =   0.0329218
        k(   16) = (   0.0000000   0.3295454  -0.3367620), wk =   0.0164609
        k(   17) = (   0.0000000   0.4393939   0.0000000), wk =   0.0164609
        k(   18) = (   0.0000000   0.4393939   0.1122540), wk =   0.0329218
        k(   19) = (   0.0000000   0.4393939   0.2245080), wk =   0.0329218
        k(   20) = (   0.0000000   0.4393939  -0.3367620), wk =   0.0164609
        k(   21) = (   0.1098485   0.1098485   0.0000000), wk =   0.0164609
        k(   22) = (   0.1098485   0.1098485   0.1122540), wk =   0.0329218
        k(   23) = (   0.1098485   0.1098485   0.2245080), wk =   0.0329218
        k(   24) = (   0.1098485   0.1098485  -0.3367620), wk =   0.0164609
        k(   25) = (   0.1098485   0.2196969   0.0000000), wk =   0.0329218
        k(   26) = (   0.1098485   0.2196969   0.1122540), wk =   0.0658436
        k(   27) = (   0.1098485   0.2196969   0.2245080), wk =   0.0658436
        k(   28) = (   0.1098485   0.2196969  -0.3367620), wk =   0.0329218
        k(   29) = (   0.1098485   0.3295454   0.0000000), wk =   0.0329218
        k(   30) = (   0.1098485   0.3295454   0.1122540), wk =   0.0658436
        k(   31) = (   0.1098485   0.3295454   0.2245080), wk =   0.0658436
        k(   32) = (   0.1098485   0.3295454  -0.3367620), wk =   0.0329218
        k(   33) = (   0.1098485   0.4393939   0.0000000), wk =   0.0329218
        k(   34) = (   0.1098485   0.4393939   0.1122540), wk =   0.0658436
        k(   35) = (   0.1098485   0.4393939   0.2245080), wk =   0.0658436
        k(   36) = (   0.1098485   0.4393939  -0.3367620), wk =   0.0329218
        k(   37) = (   0.2196969   0.2196969   0.0000000), wk =   0.0164609
        k(   38) = (   0.2196969   0.2196969   0.1122540), wk =   0.0329218
        k(   39) = (   0.2196969   0.2196969   0.2245080), wk =   0.0329218
        k(   40) = (   0.2196969   0.2196969  -0.3367620), wk =   0.0164609
        k(   41) = (   0.2196969   0.3295454   0.0000000), wk =   0.0329218
        k(   42) = (   0.2196969   0.3295454   0.1122540), wk =   0.0658436
        k(   43) = (   0.2196969   0.3295454   0.2245080), wk =   0.0658436
        k(   44) = (   0.2196969   0.3295454  -0.3367620), wk =   0.0329218
        k(   45) = (   0.2196969   0.4393939   0.0000000), wk =   0.0329218
        k(   46) = (   0.2196969   0.4393939   0.1122540), wk =   0.0658436
        k(   47) = (   0.2196969   0.4393939   0.2245080), wk =   0.0658436
        k(   48) = (   0.2196969   0.4393939  -0.3367620), wk =   0.0329218
        k(   49) = (   0.3295454   0.3295454   0.0000000), wk =   0.0164609
        k(   50) = (   0.3295454   0.3295454   0.1122540), wk =   0.0329218
        k(   51) = (   0.3295454   0.3295454   0.2245080), wk =   0.0329218
        k(   52) = (   0.3295454   0.3295454  -0.3367620), wk =   0.0164609
        k(   53) = (   0.3295454   0.4393939   0.0000000), wk =   0.0329218
        k(   54) = (   0.3295454   0.4393939   0.1122540), wk =   0.0658436
        k(   55) = (   0.3295454   0.4393939   0.2245080), wk =   0.0658436
        k(   56) = (   0.3295454   0.4393939  -0.3367620), wk =   0.0329218
        k(   57) = (   0.4393939   0.4393939   0.0000000), wk =   0.0164609
        k(   58) = (   0.4393939   0.4393939   0.1122540), wk =   0.0329218
        k(   59) = (   0.4393939   0.4393939   0.2245080), wk =   0.0329218
        k(   60) = (   0.4393939   0.4393939  -0.3367620), wk =   0.0164609

     Initial potential from superposition of free atoms

     starting charge  183.99828, renormalised to  184.00000
     Starting wfcs are  116 randomized atomic wfcs

     Self-consistent Calculation

[...]

     total energy              =   -3130.54077258 Ry
     Harris-Foulkes estimate   =   -3130.54077258 Ry
     estimated scf accuracy    <          2.9E-10 Ry

     iteration # 14     ecut=   120.00 Ry     beta= 0.70
     Davidson diagonalization with overlap
     ethr =  1.57E-13,  avg # of iterations =  2.1

     End of self-consistent calculation

[...]

          k = 0.4394 0.4394-0.3368 ( 31602 PWs)   bands (ev):

   -66.4223 -66.4223 -66.4223 -66.4223 -30.7631 -30.7631 -30.7612 -30.7612
   -30.7512 -30.7512 -30.7504 -30.7504 -30.6738 -30.6738 -30.6713 -30.6713
   -20.5870 -20.5870 -20.5870 -20.5870 -20.5730 -20.5730 -20.5729 -20.5729
   -20.5680 -20.5680 -20.5680 -20.5680 -20.5594 -20.5594 -20.5594 -20.5594
   -20.5568 -20.5568 -20.5568 -20.5568 -20.5526 -20.5526 -20.5525 -20.5525
   -20.5487 -20.5487 -20.5486 -20.5486  -9.5715  -9.5715  -9.5294  -9.5294
    -8.6606  -8.6606  -8.6554  -8.6554  -8.0158  -8.0158  -7.9595  -7.9595
     1.0411   1.0411   1.1564   1.1564   2.9450   2.9450   2.9503   2.9503
     3.1857   3.1857   3.2112   3.2112   4.3439   4.3439   4.5381   4.5381
     5.0363   5.0363   5.1535   5.1535   5.6736   5.6736   5.8367   5.8367
     6.0268   6.0268   6.1613   6.1613   6.5225   6.5225   6.6188   6.6188
     7.3048   7.3048   7.3139   7.3139  11.0474  11.0474  11.1054  11.1054
    12.1675  12.1676  12.2641  12.2641  13.3273  13.3273  13.4180  13.4180
    15.0550  15.0550  15.2267  15.2267  17.7272  17.7272

     the Fermi energy is     8.5389 ev

!    total energy              =   -3130.54077258 Ry
     Harris-Foulkes estimate   =   -3130.54077258 Ry
     estimated scf accuracy    <          1.5E-12 Ry

     The total energy is the sum of the following terms:

     one-electron contribution =   -2392.03412850 Ry
     hartree contribution      =    1312.80841007 Ry
     xc contribution           =    -482.85072298 Ry
     ewald contribution        =   -1568.46433118 Ry
     smearing contrib. (-TS)   =      -0.00000000 Ry

     convergence has been achieved in  14 iterations

     Forces acting on atoms (cartesian axes, Ry/au):

     atom    1 type  1   force =     0.00000000    0.00000000   -0.00773296
     atom    2 type  1   force =     0.00000000    0.00000000    0.00773296
     atom    3 type  1   force =     0.00000000    0.00000000    0.00773296
     atom    4 type  1   force =     0.00000000    0.00000000   -0.00773296
     atom    5 type  2   force =     0.00000000    0.00000000    0.04215096
     atom    6 type  2   force =     0.00000000    0.00000000   -0.04215096
     atom    7 type  2   force =     0.00000000    0.00000000   -0.04215096
     atom    8 type  2   force =     0.00000000    0.00000000    0.04215096
     atom    9 type  2   force =    -0.00144064    0.00144064    0.00000000
     atom   10 type  2   force =     0.00144064   -0.00144064    0.00000000
     atom   11 type  2   force =     0.00144064   -0.00144064    0.00000000
     atom   12 type  2   force =    -0.00144064    0.00144064    0.00000000
     atom   13 type  2   force =    -0.00144064   -0.00144064    0.00000000
     atom   14 type  2   force =     0.00144064    0.00144064    0.00000000
     atom   15 type  2   force =     0.00144064    0.00144064    0.00000000
     atom   16 type  2   force =    -0.00144064   -0.00144064    0.00000000

     Total force =     0.000000     Total SCF correction =     0.000000

     Computing stress (Cartesian axis) and pressure

          total   stress  (Ry/bohr**3)                   (kbar)     P=    0.53
   0.00000523   0.00000000   0.00000000          0.77      0.00      0.00
   0.00000000   0.00000523   0.00000000          0.00      0.77      0.00
   0.00000000   0.00000000   0.00000037          0.00      0.00      0.05

     Writing output data file Landau_14.save/

     General routines

     Parallel routines

   This run was terminated on:  18: 9:44  21Nov2019

   JOB DONE.