     Program PWSCF v.6.2 (svn rev. 14038) starts on 23Mar2020 at  1: 0:28

     K-points division:     npool     =      40
     Reading input from rscf.in

     Current dimensions of program PWSCF are:
     Max number of different atomic species (ntypx) = 10
     Max number of k-points (npk) =  40000
     Max angular momentum in pseudopotentials (lmaxx) =  3

     Subspace diagonalization in iterative solution of the eigenvalue problem:
     a serial algorithm will be used

     bravais-lattice index     =            0
     lattice parameter (alat)  =      13.8397  a.u.
     unit-cell volume          =    2804.9816 (a.u.)^3
     number of atoms/cell      =           32
     number of atomic types    =            2
     number of electrons       =       368.00
     number of Kohn-Sham states=          221
     kinetic-energy cutoff     =     120.0000  Ry
     charge density cutoff     =     480.0000  Ry
     convergence threshold     =      1.0E-08
     mixing beta               =       0.7000
     number of iterations used =            8  plain     mixing
     Exchange-correlation      = SLA PW NOGX NOGC ( 1  4  0  0 0 0)
     nstep                     =           50

     celldm(1)=  13.839685  celldm(2)=   0.000000  celldm(3)=   0.000000
     celldm(4)=   0.000000  celldm(5)=   0.000000  celldm(6)=   0.000000

     crystal axes: (cart. coord. in units of alat)
               a(1) = (   1.000000   0.000000   0.000000 )
               a(2) = (   0.000000   1.058160   0.000000 )
               a(3) = (   0.000000   0.000000   1.000000 )

     reciprocal axes: (cart. coord. in units 2 pi/alat)
               b(1) = (  1.000000  0.000000  0.000000 )
               b(2) = (  0.000000  0.945037  0.000000 )
               b(3) = (  0.000000  0.000000  1.000000 )

     PseudoPot. # 1 for W  read from file:
     /cluster/scratch/mnoe/QE/pps/W_ONCV_LDA-4.0.upf
     MD5 check sum: ba0307d5d4cd419d6f1d13dc49d7c13a
     Pseudo is Norm-conserving + core correction, Zval = 28.0
     Generated using ONCVPSP code by D. R. Hamann
     Using radial grid of 1380 points,  8 beta functions with:
                l(1) =   0
                l(2) =   0
                l(3) =   1
                l(4) =   1
                l(5) =   2
                l(6) =   2
                l(7) =   3
                l(8) =   3

     PseudoPot. # 2 for O  read from file:
     /cluster/scratch/mnoe/QE/pps/O_ONCV_LDA-3.0.upf
     MD5 check sum: a1bd6164e7280c17a38c229939bfbd54
     Pseudo is Norm-conserving + core correction, Zval =  6.0
     Generated using ONCVPSP code by D. R. Hamann
     Using radial grid of  926 points,  5 beta functions with:
                l(1) =   0
                l(2) =   0
                l(3) =   1
                l(4) =   1
                l(5) =   2

     atomic species   valence    mass     pseudopotential
        W             28.00   183.84000     W ( 1.00)
        O              6.00    15.99940     O ( 1.00)

      4 Sym. Ops. (no inversion) found ( 3 have fractional translation)

   Cartesian axes

     site n.     atom                  positions (alat units)
         1           W   tau(   1) = (   0.2289066   0.2938872   0.0036054  )
         2           W   tau(   2) = (   0.7548065   0.7642729  -0.0208525  )
         3           W   tau(   3) = (   0.2710934   0.2351928   0.5036054  )
         4           W   tau(   4) = (   0.7451934   0.8229673   0.4791474  )
         5           W   tau(   5) = (   0.7710934   0.2938872   0.4963946  )
         6           W   tau(   6) = (   0.2451934   0.7642729   0.5208526  )
         7           W   tau(   7) = (   0.7289066   0.2351928  -0.0036054  )
         8           W   tau(   8) = (   0.2548066   0.8229673   0.0208526  )
         9           O   tau(   9) = (   0.2235779   0.0076145  -0.0121083  )
        10           O   tau(  10) = (   0.7713598  -0.0076145  -0.0197103  )
        11           O   tau(  11) = (   0.2764221   0.5214655   0.4878917  )
        12           O   tau(  12) = (   0.7286401   0.5366946   0.4802897  )
        13           O   tau(  13) = (   0.7764221   0.0076145   0.5121083  )
        14           O   tau(  14) = (   0.2286401  -0.0076145   0.5197103  )
        15           O   tau(  15) = (   0.7235779   0.5214655   0.0121083  )
        16           O   tau(  16) = (   0.2713599   0.5366946   0.0197103  )
        17           O   tau(  17) = (   0.5071173   0.2348393   0.4596284  )
        18           O   tau(  18) = (   0.5000333   0.8157840   0.5403716  )
        19           O   tau(  19) = (  -0.0071173   0.2942407   0.9596285  )
        20           O   tau(  20) = (  -0.0000333   0.7714562   0.0403715  )
        21           O   tau(  21) = (   0.4928827   0.2348393   0.0403715  )
        22           O   tau(  22) = (   0.4999667   0.8157840   0.9596285  )
        23           O   tau(  23) = (   0.0071172   0.2942407   0.5403716  )
        24           O   tau(  24) = (   0.0000332   0.7714562   0.4596284  )
        25           O   tau(  25) = (   0.7096285   0.2761496   0.7469897  )
        26           O   tau(  26) = (   0.2903715   0.8165478   0.2577277  )
        27           O   tau(  27) = (   0.7903716   0.2529304   0.2469897  )
        28           O   tau(  28) = (   0.2096285   0.7706924   0.7577276  )
        29           O   tau(  29) = (   0.2903715   0.2761496   0.7530103  )
        30           O   tau(  30) = (   0.7096285   0.8165478   0.2422724  )
        31           O   tau(  31) = (   0.2096285   0.2529304   0.2530103  )
        32           O   tau(  32) = (   0.7903716   0.7706924   0.7422723  )

     number of k points=    64  gaussian smearing, width (Ry)=  0.0007
                       cart. coord. in units 2pi/alat
        k(    1) = (   0.0000000   0.0000000   0.0000000), wk =   0.0092593
        k(    2) = (   0.0000000   0.0000000   0.1666667), wk =   0.0185185
        k(    3) = (   0.0000000   0.0000000   0.3333333), wk =   0.0185185
        k(    4) = (   0.0000000   0.0000000  -0.5000000), wk =   0.0092593
        k(    5) = (   0.0000000   0.1575061   0.0000000), wk =   0.0185185
        k(    6) = (   0.0000000   0.1575061   0.1666667), wk =   0.0370370
        k(    7) = (   0.0000000   0.1575061   0.3333333), wk =   0.0370370
        k(    8) = (   0.0000000   0.1575061  -0.5000000), wk =   0.0185185
        k(    9) = (   0.0000000   0.3150122   0.0000000), wk =   0.0185185
        k(   10) = (   0.0000000   0.3150122   0.1666667), wk =   0.0370370
        k(   11) = (   0.0000000   0.3150122   0.3333333), wk =   0.0370370
        k(   12) = (   0.0000000   0.3150122  -0.5000000), wk =   0.0185185
        k(   13) = (   0.0000000  -0.4725183   0.0000000), wk =   0.0092593
        k(   14) = (   0.0000000  -0.4725183   0.1666667), wk =   0.0185185
        k(   15) = (   0.0000000  -0.4725183   0.3333333), wk =   0.0185185
        k(   16) = (   0.0000000  -0.4725183  -0.5000000), wk =   0.0092593
        k(   17) = (   0.1666667   0.0000000   0.1666667), wk =   0.0370370
        k(   18) = (   0.1666667   0.0000000   0.3333333), wk =   0.0370370
        k(   19) = (   0.1666667   0.0000000  -0.5000000), wk =   0.0185185
        k(   20) = (   0.1666667   0.1575061   0.1666667), wk =   0.0740741
        k(   21) = (   0.1666667   0.1575061   0.3333333), wk =   0.0740741
        k(   22) = (   0.1666667   0.1575061  -0.5000000), wk =   0.0370370
        k(   23) = (   0.1666667   0.3150122   0.1666667), wk =   0.0740741
        k(   24) = (   0.1666667   0.3150122   0.3333333), wk =   0.0740741
        k(   25) = (   0.1666667   0.3150122  -0.5000000), wk =   0.0370370
        k(   26) = (   0.1666667  -0.4725183   0.1666667), wk =   0.0370370
        k(   27) = (   0.1666667  -0.4725183   0.3333333), wk =   0.0370370
        k(   28) = (   0.1666667  -0.4725183  -0.5000000), wk =   0.0185185
        k(   29) = (   0.3333333   0.0000000   0.3333333), wk =   0.0370370
        k(   30) = (   0.3333333   0.0000000  -0.5000000), wk =   0.0185185
        k(   31) = (   0.3333333   0.1575061   0.3333333), wk =   0.0740741
        k(   32) = (   0.3333333   0.1575061  -0.5000000), wk =   0.0370370
        k(   33) = (   0.3333333   0.3150122   0.3333333), wk =   0.0740741
        k(   34) = (   0.3333333   0.3150122  -0.5000000), wk =   0.0370370
        k(   35) = (   0.3333333  -0.4725183   0.3333333), wk =   0.0370370
        k(   36) = (   0.3333333  -0.4725183  -0.5000000), wk =   0.0185185
        k(   37) = (  -0.5000000   0.0000000  -0.5000000), wk =   0.0092593
        k(   38) = (  -0.5000000   0.1575061  -0.5000000), wk =   0.0185185
        k(   39) = (  -0.5000000   0.3150122  -0.5000000), wk =   0.0185185
        k(   40) = (  -0.5000000  -0.4725183  -0.5000000), wk =   0.0092593
        k(   41) = (   0.1666667   0.0000000   0.0000000), wk =   0.0185185
        k(   42) = (   0.3333333   0.0000000   0.0000000), wk =   0.0185185
        k(   43) = (  -0.5000000   0.0000000   0.0000000), wk =   0.0092593
        k(   44) = (   0.1666667  -0.1575061   0.0000000), wk =   0.0370370
        k(   45) = (   0.3333333  -0.1575061   0.0000000), wk =   0.0370370
        k(   46) = (  -0.5000000  -0.1575061   0.0000000), wk =   0.0185185
        k(   47) = (   0.1666667  -0.3150122   0.0000000), wk =   0.0370370
        k(   48) = (   0.3333333  -0.3150122   0.0000000), wk =   0.0370370
        k(   49) = (  -0.5000000  -0.3150122   0.0000000), wk =   0.0185185
        k(   50) = (   0.1666667   0.4725183   0.0000000), wk =   0.0185185
        k(   51) = (   0.3333333   0.4725183   0.0000000), wk =   0.0185185
        k(   52) = (  -0.5000000   0.4725183   0.0000000), wk =   0.0092593
        k(   53) = (   0.3333333   0.0000000   0.1666667), wk =   0.0370370
        k(   54) = (  -0.5000000   0.0000000   0.1666667), wk =   0.0185185
        k(   55) = (   0.3333333  -0.1575061   0.1666667), wk =   0.0740741
        k(   56) = (  -0.5000000  -0.1575061   0.1666667), wk =   0.0370370
        k(   57) = (   0.3333333  -0.3150122   0.1666667), wk =   0.0740741
        k(   58) = (  -0.5000000  -0.3150122   0.1666667), wk =   0.0370370
        k(   59) = (   0.3333333   0.4725183   0.1666667), wk =   0.0370370
        k(   60) = (  -0.5000000   0.4725183   0.1666667), wk =   0.0185185
        k(   61) = (  -0.5000000   0.0000000   0.3333333), wk =   0.0185185
        k(   62) = (  -0.5000000  -0.1575061   0.3333333), wk =   0.0370370
        k(   63) = (  -0.5000000  -0.3150122   0.3333333), wk =   0.0370370
        k(   64) = (  -0.5000000   0.4725183   0.3333333), wk =   0.0185185

     Initial potential from superposition of free atoms

     starting charge  367.99656, renormalised to  368.00000
     Starting wfc are  232 randomized atomic wfcs

     Self-consistent Calculation

     iteration #  1     ecut=   120.00 Ry     beta= 0.70
     Davidson diagonalization with overlap
     ethr =  1.00E-02,  avg # of iterations =  5.1

     total energy              =   -6253.97851616 Ry
     Harris-Foulkes estimate   =   -6264.53589950 Ry
     estimated scf accuracy    <      13.37410619 Ry

[...]

     End of self-consistent calculation

[...]
End final coordinates

     A final scf calculation at the relaxed structure.
     The G-vectors are recalculated for the final unit cell
     Results may differ from those at the preceding step.

     bravais-lattice index     =            0
     lattice parameter (alat)  =      13.8397  a.u.
     unit-cell volume          =    2808.3735 (a.u.)^3
     number of atoms/cell      =           32
     number of atomic types    =            2
     number of electrons       =       368.00
     number of Kohn-Sham states=          221
     kinetic-energy cutoff     =     120.0000  Ry
     charge density cutoff     =     480.0000  Ry
     convergence threshold     =      1.0E-10
     mixing beta               =       0.7000
     number of iterations used =            8  plain     mixing
     Exchange-correlation      = SLA PW NOGX NOGC ( 1  4  0  0 0 0)

     celldm(1)=  13.839685  celldm(2)=   0.000000  celldm(3)=   0.000000
     celldm(4)=   0.000000  celldm(5)=   0.000000  celldm(6)=   0.000000

     crystal axes: (cart. coord. in units of alat)
               a(1) = (   1.009482   0.000000   0.000000 )
               a(2) = (   0.000000   1.037578   0.000000 )
               a(3) = (   0.000000   0.000000   1.011479 )

     reciprocal axes: (cart. coord. in units 2 pi/alat)
               b(1) = (  0.990607  0.000000  0.000000 )
               b(2) = (  0.000000  0.963783  0.000000 )
               b(3) = (  0.000000  0.000000  0.988651 )

     PseudoPot. # 1 for W  read from file:
     /cluster/scratch/mnoe/QE/pps/W_ONCV_LDA-4.0.upf
     MD5 check sum: ba0307d5d4cd419d6f1d13dc49d7c13a
     Pseudo is Norm-conserving + core correction, Zval = 28.0
     Generated using ONCVPSP code by D. R. Hamann
     Using radial grid of 1380 points,  8 beta functions with:
                l(1) =   0
                l(2) =   0
                l(3) =   1
                l(4) =   1
                l(5) =   2
                l(6) =   2
                l(7) =   3
                l(8) =   3

     PseudoPot. # 2 for O  read from file:
     /cluster/scratch/mnoe/QE/pps/O_ONCV_LDA-3.0.upf
     MD5 check sum: a1bd6164e7280c17a38c229939bfbd54
     Pseudo is Norm-conserving + core correction, Zval =  6.0
     Generated using ONCVPSP code by D. R. Hamann
     Using radial grid of  926 points,  5 beta functions with:
                l(1) =   0
                l(2) =   0
                l(3) =   1
                l(4) =   1
                l(5) =   2

     atomic species   valence    mass     pseudopotential
        W             28.00   183.84000     W ( 1.00)
        O              6.00    15.99940     O ( 1.00)

      4 Sym. Ops. (no inversion) found ( 3 have fractional translation)

   Cartesian axes

     site n.     atom                  positions (alat units)
         1           W   tau(   1) = (   0.2310771   0.2881709   0.0036468  )
         2           W   tau(   2) = (   0.7619637   0.7494072  -0.0210919  )
         3           W   tau(   3) = (   0.2736640   0.2306182   0.5093863  )
         4           W   tau(   4) = (   0.7522594   0.8069600   0.4846475  )
         5           W   tau(   5) = (   0.7784049   0.2881709   0.5020926  )
         6           W   tau(   6) = (   0.2475184   0.7494072   0.5268314  )
         7           W   tau(   7) = (   0.7358181   0.2306182  -0.0036468  )
         8           W   tau(   8) = (   0.2572226   0.8069600   0.0210919  )
         9           O   tau(   9) = (   0.2256978   0.0074664  -0.0122473  )
        10           O   tau(  10) = (   0.7786739  -0.0074664  -0.0199365  )
        11           O   tau(  11) = (   0.2790432   0.5113226   0.4934921  )
        12           O   tau(  12) = (   0.7355491   0.5262555   0.4858029  )
        13           O   tau(  13) = (   0.7837842   0.0074664   0.5179867  )
        14           O   tau(  14) = (   0.2308081  -0.0074664   0.5256760  )
        15           O   tau(  15) = (   0.7304389   0.5113226   0.0122473  )
        16           O   tau(  16) = (   0.2739329   0.5262555   0.0199365  )
        17           O   tau(  17) = (   0.5119258   0.2302715   0.4649044  )
        18           O   tau(  18) = (   0.5047746   0.7999164   0.5465744  )
        19           O   tau(  19) = (  -0.0071848   0.2885176   0.9706439  )
        20           O   tau(  20) = (  -0.0000336   0.7564508   0.0408350  )
        21           O   tau(  21) = (   0.4975563   0.2302715   0.0408350  )
        22           O   tau(  22) = (   0.5047074   0.7999164   0.9706439  )
        23           O   tau(  23) = (   0.0071847   0.2885176   0.5465744  )
        24           O   tau(  24) = (   0.0000336   0.7564508   0.4649044  )
        25           O   tau(  25) = (   0.7163572   0.2707783   0.7555642  )
        26           O   tau(  26) = (   0.2931249   0.8006654   0.2606861  )
        27           O   tau(  27) = (   0.7978659   0.2480107   0.2498249  )
        28           O   tau(  28) = (   0.2116162   0.7557019   0.7664255  )
        29           O   tau(  29) = (   0.2931249   0.2707783   0.7616540  )
        30           O   tau(  30) = (   0.7163572   0.8006654   0.2450534  )
        31           O   tau(  31) = (   0.2116162   0.2480107   0.2559146  )
        32           O   tau(  32) = (   0.7978659   0.7557019   0.7507928  )

     number of k points=    64  gaussian smearing, width (Ry)=  0.0007
                       cart. coord. in units 2pi/alat
        k(    1) = (   0.0000000   0.0000000   0.0000000), wk =   0.0092593
        k(    2) = (   0.0000000   0.0000000   0.1647752), wk =   0.0185185
        k(    3) = (   0.0000000   0.0000000   0.3295505), wk =   0.0185185
        k(    4) = (   0.0000000   0.0000000  -0.4943257), wk =   0.0092593
        k(    5) = (   0.0000000   0.1606305   0.0000000), wk =   0.0185185
        k(    6) = (   0.0000000   0.1606305   0.1647752), wk =   0.0370370
        k(    7) = (   0.0000000   0.1606305   0.3295505), wk =   0.0370370
        k(    8) = (   0.0000000   0.1606305  -0.4943257), wk =   0.0185185
        k(    9) = (   0.0000000   0.3212610   0.0000000), wk =   0.0185185
        k(   10) = (   0.0000000   0.3212610   0.1647752), wk =   0.0370370
        k(   11) = (   0.0000000   0.3212610   0.3295505), wk =   0.0370370
        k(   12) = (   0.0000000   0.3212610  -0.4943257), wk =   0.0185185
        k(   13) = (   0.0000000  -0.4818914   0.0000000), wk =   0.0092593
        k(   14) = (   0.0000000  -0.4818914   0.1647752), wk =   0.0185185
        k(   15) = (   0.0000000  -0.4818914   0.3295505), wk =   0.0185185
        k(   16) = (   0.0000000  -0.4818914  -0.4943257), wk =   0.0092593
        k(   17) = (   0.1651012   0.0000000   0.1647752), wk =   0.0370370
        k(   18) = (   0.1651012   0.0000000   0.3295505), wk =   0.0370370
        k(   19) = (   0.1651012   0.0000000  -0.4943257), wk =   0.0185185
        k(   20) = (   0.1651012   0.1606305   0.1647752), wk =   0.0740741
        k(   21) = (   0.1651012   0.1606305   0.3295505), wk =   0.0740741
        k(   22) = (   0.1651012   0.1606305  -0.4943257), wk =   0.0370370
        k(   23) = (   0.1651012   0.3212610   0.1647752), wk =   0.0740741
        k(   24) = (   0.1651012   0.3212610   0.3295505), wk =   0.0740741
        k(   25) = (   0.1651012   0.3212610  -0.4943257), wk =   0.0370370
        k(   26) = (   0.1651012  -0.4818914   0.1647752), wk =   0.0370370
        k(   27) = (   0.1651012  -0.4818914   0.3295505), wk =   0.0370370
        k(   28) = (   0.1651012  -0.4818914  -0.4943257), wk =   0.0185185
        k(   29) = (   0.3302023   0.0000000   0.3295505), wk =   0.0370370
        k(   30) = (   0.3302023   0.0000000  -0.4943257), wk =   0.0185185
        k(   31) = (   0.3302023   0.1606305   0.3295505), wk =   0.0740741
        k(   32) = (   0.3302023   0.1606305  -0.4943257), wk =   0.0370370
        k(   33) = (   0.3302023   0.3212610   0.3295505), wk =   0.0740741
        k(   34) = (   0.3302023   0.3212610  -0.4943257), wk =   0.0370370
        k(   35) = (   0.3302023  -0.4818914   0.3295505), wk =   0.0370370
        k(   36) = (   0.3302023  -0.4818914  -0.4943257), wk =   0.0185185
        k(   37) = (  -0.4953035   0.0000000  -0.4943257), wk =   0.0092593
        k(   38) = (  -0.4953035   0.1606305  -0.4943257), wk =   0.0185185
        k(   39) = (  -0.4953035   0.3212610  -0.4943257), wk =   0.0185185
        k(   40) = (  -0.4953035  -0.4818914  -0.4943257), wk =   0.0092593
        k(   41) = (   0.1651012   0.0000000   0.0000000), wk =   0.0185185
        k(   42) = (   0.3302023   0.0000000   0.0000000), wk =   0.0185185
        k(   43) = (  -0.4953035   0.0000000   0.0000000), wk =   0.0092593
        k(   44) = (   0.1651012  -0.1606305   0.0000000), wk =   0.0370370
        k(   45) = (   0.3302023  -0.1606305   0.0000000), wk =   0.0370370
        k(   46) = (  -0.4953035  -0.1606305   0.0000000), wk =   0.0185185
        k(   47) = (   0.1651012  -0.3212610   0.0000000), wk =   0.0370370
        k(   48) = (   0.3302023  -0.3212610   0.0000000), wk =   0.0370370
        k(   49) = (  -0.4953035  -0.3212610   0.0000000), wk =   0.0185185
        k(   50) = (   0.1651012   0.4818914   0.0000000), wk =   0.0185185
        k(   51) = (   0.3302023   0.4818914   0.0000000), wk =   0.0185185
        k(   52) = (  -0.4953035   0.4818914   0.0000000), wk =   0.0092593
        k(   53) = (   0.3302023   0.0000000   0.1647752), wk =   0.0370370
        k(   54) = (  -0.4953035   0.0000000   0.1647752), wk =   0.0185185
        k(   55) = (   0.3302023  -0.1606305   0.1647752), wk =   0.0740741
        k(   56) = (  -0.4953035  -0.1606305   0.1647752), wk =   0.0370370
        k(   57) = (   0.3302023  -0.3212610   0.1647752), wk =   0.0740741
        k(   58) = (  -0.4953035  -0.3212610   0.1647752), wk =   0.0370370
        k(   59) = (   0.3302023   0.4818914   0.1647752), wk =   0.0370370
        k(   60) = (  -0.4953035   0.4818914   0.1647752), wk =   0.0185185
        k(   61) = (  -0.4953035   0.0000000   0.3295505), wk =   0.0185185
        k(   62) = (  -0.4953035  -0.1606305   0.3295505), wk =   0.0370370
        k(   63) = (  -0.4953035  -0.3212610   0.3295505), wk =   0.0370370
        k(   64) = (  -0.4953035   0.4818914   0.3295505), wk =   0.0185185

     Initial potential from superposition of free atoms

     starting charge  367.99656, renormalised to  368.00000
     Starting wfc are  232 randomized atomic wfcs

     Writing output data file Landau_14.save

     Self-consistent Calculation

[...]

     total energy              =   -6261.10579039 Ry
     Harris-Foulkes estimate   =   -6261.10579039 Ry
     estimated scf accuracy    <          2.4E-10 Ry

     iteration # 16     ecut=   120.00 Ry     beta= 0.70
     Davidson diagonalization with overlap
     ethr =  1.00E-13,  avg # of iterations =  2.4

     End of self-consistent calculation

[...]

          k = 0.3302 0.4819 0.1648 ( 62350 PWs)   bands (ev):

[...]

          k =-0.4953 0.4819 0.3296 ( 62324 PWs)   bands (ev):

   -66.1861 -66.1860 -66.1857 -66.1857 -66.1836 -66.1836 -66.1831 -66.1831
   -30.5804 -30.5804 -30.5627 -30.5627 -30.5600 -30.5600 -30.5447 -30.5447
   -30.5073 -30.5073 -30.5064 -30.5064 -30.5042 -30.5042 -30.4954 -30.4954
   -30.4719 -30.4719 -30.4502 -30.4502 -30.4480 -30.4479 -30.4309 -30.4309
   -20.3491 -20.3491 -20.3489 -20.3489 -20.3462 -20.3462 -20.3459 -20.3459
   -20.3317 -20.3317 -20.3316 -20.3316 -20.3276 -20.3276 -20.3270 -20.3270
   -20.3212 -20.3212 -20.3211 -20.3211 -20.3210 -20.3210 -20.3203 -20.3203
   -20.3167 -20.3167 -20.3165 -20.3165 -20.3140 -20.3140 -20.3138 -20.3138
   -20.3136 -20.3135 -20.3129 -20.3129 -20.3124 -20.3124 -20.3100 -20.3100
   -20.3083 -20.3082 -20.3057 -20.3057 -20.3044 -20.3044 -20.3042 -20.3042
   -20.3010 -20.3010 -20.2997 -20.2997 -20.2974 -20.2974 -20.2970 -20.2970
    -9.2485  -9.2485  -9.1509  -9.1509  -8.8567  -8.8567  -8.7680  -8.7680
    -8.5655  -8.5655  -8.5264  -8.5264  -8.4174  -8.4174  -8.3991  -8.3990
    -8.3469  -8.3468  -8.3031  -8.3031  -8.2085  -8.2085  -8.0519  -8.0519
     2.1876   2.1876   2.3210   2.3210   2.8938   2.8938   2.9768   2.9768
     3.0718   3.0718   3.1159   3.1160   3.1584   3.1584   3.2054   3.2055
     3.4161   3.4161   3.4533   3.4533   3.5631   3.5631   3.7428   3.7428
     3.8082   3.8082   3.9465   3.9465   4.1513   4.1513   4.2344   4.2344
     4.3242   4.3242   4.3551   4.3552   4.4611   4.4611   4.5255   4.5255
     4.6660   4.6660   4.7927   4.7927   5.0111   5.0111   5.0379   5.0380
     6.9035   6.9035   7.0639   7.0639   7.0967   7.0967   7.1273   7.1273
     7.2279   7.2279   7.3104   7.3104   7.3737   7.3737   7.4202   7.4202
     7.4926   7.4926   7.5575   7.5575   7.5770   7.5770   7.6534   7.6534
    11.4625  11.4625  11.5865  11.5865  11.7047  11.7047  11.8156  11.8156
    12.1036  12.1036  12.1982  12.1982  12.2734  12.2734  12.3606  12.3606
    12.4708  12.4708  12.6135  12.6135  12.8365  12.8365  12.9235  12.9235
    16.3223  16.3223  16.5042  16.5042  16.9710  16.9711  17.1060  17.1060
    17.2940  17.2940  17.4069  17.4070  17.5035

     the Fermi energy is     8.9032 ev

!    total energy              =   -6261.10579039 Ry
     Harris-Foulkes estimate   =   -6261.10579039 Ry
     estimated scf accuracy    <          2.8E-11 Ry

     The total energy is the sum of the following terms:

     one-electron contribution =   -4718.10338699 Ry
     hartree contribution      =    2595.53289323 Ry
     xc contribution           =    -965.65881361 Ry
     ewald contribution        =   -3172.87648302 Ry
     smearing contrib. (-TS)   =      -0.00000000 Ry

     convergence has been achieved in  16 iterations

     Forces acting on atoms (cartesian axes, Ry/au):

     atom    1 type  1   force =     0.01627540   -0.00041342    0.00572942
     atom    2 type  1   force =     0.00132883   -0.00081749    0.01766707
     atom    3 type  1   force =    -0.01627540    0.00041342    0.00572942
     atom    4 type  1   force =    -0.00132883    0.00081749    0.01766707
     atom    5 type  1   force =    -0.01627540   -0.00041342   -0.00572942
     atom    6 type  1   force =    -0.00132883   -0.00081749   -0.01766707
     atom    7 type  1   force =     0.01627540    0.00041342   -0.00572942
     atom    8 type  1   force =     0.00132883    0.00081749   -0.01766707
     atom    9 type  2   force =    -0.00111272   -0.00123186    0.00115999
     atom   10 type  2   force =    -0.00176787    0.00096422   -0.00057153
     atom   11 type  2   force =     0.00111272    0.00123186    0.00115999
     atom   12 type  2   force =     0.00176787   -0.00096422   -0.00057153
     atom   13 type  2   force =     0.00111272   -0.00123186   -0.00115999
     atom   14 type  2   force =     0.00176787    0.00096422    0.00057153
     atom   15 type  2   force =    -0.00111272    0.00123186   -0.00115999
     atom   16 type  2   force =    -0.00176787   -0.00096422    0.00057153
     atom   17 type  2   force =     0.01118701   -0.00159962   -0.00062815
     atom   18 type  2   force =     0.00228936   -0.00145120   -0.00110880
     atom   19 type  2   force =    -0.01118701    0.00159962   -0.00062815
     atom   20 type  2   force =    -0.00228936    0.00145120   -0.00110880
     atom   21 type  2   force =    -0.01118701   -0.00159962    0.00062815
     atom   22 type  2   force =    -0.00228936   -0.00145120    0.00110880
     atom   23 type  2   force =     0.01118701    0.00159962    0.00062815
     atom   24 type  2   force =     0.00228936    0.00145120    0.00110880
     atom   25 type  2   force =    -0.00072295   -0.00098344    0.00288881
     atom   26 type  2   force =     0.00135884    0.00046899    0.01164795
     atom   27 type  2   force =     0.00072295    0.00098344    0.00288881
     atom   28 type  2   force =    -0.00135884   -0.00046899    0.01164795
     atom   29 type  2   force =     0.00072295   -0.00098344   -0.00288881
     atom   30 type  2   force =    -0.00135884    0.00046899   -0.01164795
     atom   31 type  2   force =    -0.00072295    0.00098344   -0.00288881
     atom   32 type  2   force =     0.00135884   -0.00046899   -0.01164795

     Total force =     0.000000     Total SCF correction =     0.000000

     Computing stress (Cartesian axis) and pressure

          total   stress  (Ry/bohr**3)                   (kbar)     P=    0.26
   0.00000312   0.00000000   0.00000000          0.46      0.00      0.00
   0.00000000  -0.00000158   0.00000000          0.00     -0.23      0.00
   0.00000000   0.00000000   0.00000379          0.00      0.00      0.56

     Writing output data file Landau_14.save

     General routines

     Parallel routines

   This run was terminated on:   3:25:36  23Mar2020

   JOB DONE.