     Program PWSCF v.6.2 (svn rev. 14038) starts on  5Mar2020 at  2: 5: 5

     K-points division:     npool     =      64
     Reading input from rscf.in

     Current dimensions of program PWSCF are:
     Max number of different atomic species (ntypx) = 10
     Max number of k-points (npk) =  40000
     Max angular momentum in pseudopotentials (lmaxx) =  3

     Subspace diagonalization in iterative solution of the eigenvalue problem:
     a serial algorithm will be used

     Found symmetry operation: I + (  0.5000  0.0000 -0.5000)
     This is a supercell, fractional translations are disabled

     bravais-lattice index     =            0
     lattice parameter (alat)  =      13.8397  a.u.
     unit-cell volume          =    2804.9816 (a.u.)^3
     number of atoms/cell      =           32
     number of atomic types    =            2
     number of electrons       =       368.00
     number of Kohn-Sham states=          221
     kinetic-energy cutoff     =     120.0000  Ry
     charge density cutoff     =     480.0000  Ry
     convergence threshold     =      1.0E-08
     mixing beta               =       0.7000
     number of iterations used =            8  plain     mixing
     Exchange-correlation      = SLA PW NOGX NOGC ( 1  4  0  0 0 0)
     nstep                     =           50

     celldm(1)=  13.839685  celldm(2)=   0.000000  celldm(3)=   0.000000
     celldm(4)=   0.000000  celldm(5)=   0.000000  celldm(6)=   0.000000

     crystal axes: (cart. coord. in units of alat)
               a(1) = (   1.000000   0.000000   0.000000 )
               a(2) = (   0.000000   1.058160   0.000000 )
               a(3) = (   0.000000   0.000000   1.000000 )

     reciprocal axes: (cart. coord. in units 2 pi/alat)
               b(1) = (  1.000000  0.000000  0.000000 )
               b(2) = (  0.000000  0.945037  0.000000 )
               b(3) = (  0.000000  0.000000  1.000000 )

     PseudoPot. # 1 for W  read from file:
     /cluster/scratch/mnoe/QE/pps/W_ONCV_LDA-4.0.upf
     MD5 check sum: ba0307d5d4cd419d6f1d13dc49d7c13a
     Pseudo is Norm-conserving + core correction, Zval = 28.0
     Generated using ONCVPSP code by D. R. Hamann
     Using radial grid of 1380 points,  8 beta functions with:
                l(1) =   0
                l(2) =   0
                l(3) =   1
                l(4) =   1
                l(5) =   2
                l(6) =   2
                l(7) =   3
                l(8) =   3

     PseudoPot. # 2 for O  read from file:
     /cluster/scratch/mnoe/QE/pps/O_ONCV_LDA-3.0.upf
     MD5 check sum: a1bd6164e7280c17a38c229939bfbd54
     Pseudo is Norm-conserving + core correction, Zval =  6.0
     Generated using ONCVPSP code by D. R. Hamann
     Using radial grid of  926 points,  5 beta functions with:
                l(1) =   0
                l(2) =   0
                l(3) =   1
                l(4) =   1
                l(5) =   2

     atomic species   valence    mass     pseudopotential
        W             28.00   183.84000     W ( 1.00)
        O              6.00    15.99940     O ( 1.00)

      2 Sym. Ops., with inversion, found

   Cartesian axes

     site n.     atom                  positions (alat units)
         1           W   tau(   1) = (   0.2500000   0.2822501   0.0000000  )
         2           W   tau(   2) = (   0.7499999   0.7759100   0.0000000  )
         3           W   tau(   3) = (   0.2500000   0.2468300   0.5000000  )
         4           W   tau(   4) = (   0.7499999   0.8113303   0.5000000  )
         5           W   tau(   5) = (   0.7499999   0.2822501   0.5000000  )
         6           W   tau(   6) = (   0.2500000   0.7759100   0.5000000  )
         7           W   tau(   7) = (   0.7499999   0.2468300   0.0000000  )
         8           W   tau(   8) = (   0.2500000   0.8113303   0.0000000  )
         9           O   tau(   9) = (   0.2500000   0.0044442   0.0000000  )
        10           O   tau(  10) = (   0.7499999   1.0537158   0.0000000  )
        11           O   tau(  11) = (   0.2500000   0.5246359   0.5000000  )
        12           O   tau(  12) = (   0.7499999   0.5335244   0.5000000  )
        13           O   tau(  13) = (   0.7499999   0.0044442   0.5000000  )
        14           O   tau(  14) = (   0.2500000   1.0537158   0.5000000  )
        15           O   tau(  15) = (   0.7499999   0.5246359   0.0000000  )
        16           O   tau(  16) = (   0.2500000   0.5335244   0.0000000  )
        17           O   tau(  17) = (   0.5000000   0.2645400   0.4865195  )
        18           O   tau(  18) = (   0.5000000   0.7936201   0.5134806  )
        19           O   tau(  19) = (   0.0000000   0.2645400   0.9865195  )
        20           O   tau(  20) = (   0.0000000   0.7936201   0.0134804  )
        21           O   tau(  21) = (   0.5000000   0.2645400   0.0134804  )
        22           O   tau(  22) = (   0.5000000   0.7936201   0.9865195  )
        23           O   tau(  23) = (   0.0000000   0.2645400   0.5134806  )
        24           O   tau(  24) = (   0.0000000   0.7936201   0.4865195  )
        25           O   tau(  25) = (   0.7365195   0.2645400   0.7499999  )
        26           O   tau(  26) = (   0.2634804   0.7936201   0.2500000  )
        27           O   tau(  27) = (   0.7634807   0.2645400   0.2500000  )
        28           O   tau(  28) = (   0.2365195   0.7936201   0.7499999  )
        29           O   tau(  29) = (   0.2634804   0.2645400   0.7499999  )
        30           O   tau(  30) = (   0.7365195   0.7936201   0.2500000  )
        31           O   tau(  31) = (   0.2365195   0.2645400   0.2500000  )
        32           O   tau(  32) = (   0.7634807   0.7936201   0.7499999  )

     number of k points=   112  gaussian smearing, width (Ry)=  0.0007

     Number of k-points >= 100: set verbosity='high' to print them.

     Initial potential from superposition of free atoms

     starting charge  367.99656, renormalised to  368.00000
     Starting wfc are  232 randomized atomic wfcs

     Self-consistent Calculation

     iteration #  1     ecut=   120.00 Ry     beta= 0.70
     Davidson diagonalization with overlap
     ethr =  1.00E-02,  avg # of iterations =  5.5

     total energy              =   -6253.99638676 Ry
     Harris-Foulkes estimate   =   -6264.51514781 Ry
     estimated scf accuracy    <      13.36409872 Ry

[...]

     End of self-consistent calculation

     Number of k-points >= 100: set verbosity='high' to print the bands.

     the Fermi energy is     8.4254 ev

!    total energy              =   -6260.96856003 Ry
     Harris-Foulkes estimate   =   -6260.96856004 Ry
     estimated scf accuracy    <          3.0E-09 Ry

     The total energy is the sum of the following terms:

     one-electron contribution =   -4814.65601494 Ry
     hartree contribution      =    2644.20232178 Ry
     xc contribution           =    -966.69298827 Ry
     ewald contribution        =   -3123.82187861 Ry
     smearing contrib. (-TS)   =      -0.00000000 Ry

     convergence has been achieved in  14 iterations

     Forces acting on atoms (cartesian axes, Ry/au):

     atom    1 type  1   force =     0.00001983    0.06562408    0.00000174
     atom    2 type  1   force =    -0.00001983   -0.06562408   -0.00000174
     atom    3 type  1   force =     0.00003436   -0.06567149   -0.00000192
     atom    4 type  1   force =    -0.00003436    0.06567149    0.00000192
     atom    5 type  1   force =    -0.00001716    0.06569786    0.00000424
     atom    6 type  1   force =     0.00001716   -0.06569786   -0.00000424
     atom    7 type  1   force =    -0.00001908   -0.06572382   -0.00000712
     atom    8 type  1   force =     0.00001908    0.06572382    0.00000712
     atom    9 type  2   force =     0.00000064   -0.03254250    0.00000005
     atom   10 type  2   force =    -0.00000064    0.03254250   -0.00000005
     atom   11 type  2   force =     0.00000095    0.03254397   -0.00000006
     atom   12 type  2   force =    -0.00000095   -0.03254397    0.00000006
     atom   13 type  2   force =     0.00000042   -0.03254539   -0.00000013
     atom   14 type  2   force =    -0.00000042    0.03254539    0.00000013
     atom   15 type  2   force =    -0.00000056    0.03254900   -0.00000003
     atom   16 type  2   force =     0.00000056   -0.03254900    0.00000003
     atom   17 type  2   force =    -0.00000222    0.00000031   -0.00796090
     atom   18 type  2   force =     0.00000222   -0.00000031    0.00796090
     atom   19 type  2   force =     0.00000004    0.00000134   -0.00796101
     atom   20 type  2   force =    -0.00000004   -0.00000134    0.00796101
     atom   21 type  2   force =    -0.00000100   -0.00000027    0.00796107
     atom   22 type  2   force =     0.00000100    0.00000027   -0.00796107
     atom   23 type  2   force =     0.00000064   -0.00000079    0.00796063
     atom   24 type  2   force =    -0.00000064    0.00000079   -0.00796063
     atom   25 type  2   force =    -0.00796074    0.00000034   -0.00000008
     atom   26 type  2   force =     0.00796074   -0.00000034    0.00000008
     atom   27 type  2   force =     0.00796126    0.00000013    0.00000026
     atom   28 type  2   force =    -0.00796126   -0.00000013   -0.00000026
     atom   29 type  2   force =     0.00796075    0.00000047   -0.00000013
     atom   30 type  2   force =    -0.00796075   -0.00000047    0.00000013
     atom   31 type  2   force =    -0.00796108    0.00000051    0.00000038
     atom   32 type  2   force =     0.00796108   -0.00000051   -0.00000038

     Total force =     0.000000     Total SCF correction =     0.000000

     Computing stress (Cartesian axis) and pressure

          total   stress  (Ry/bohr**3)                   (kbar)     P=   98.18
   0.00133592  -0.00000000   0.00000000        196.52     -0.00      0.00
  -0.00000000  -0.00066972   0.00000000         -0.00    -98.52      0.00
   0.00000000   0.00000000   0.00133598          0.00      0.00    196.53

     BFGS Geometry Optimization

     number of scf cycles    =   1
     number of bfgs steps    =   0

     enthalpy new            =   -6260.9685600345 Ry

     new trust radius        =       0.3537806919 bohr
     new conv_thr            =       0.0000000100 Ry

     new unit-cell volume =   2945.32248 a.u.^3 (   436.45176 Ang^3 )
     density =      7.05647 g/cm^3

CELL_PARAMETERS (angstrom)
   7.568240839  -0.000000058   0.000000006
  -0.000000062   7.619837911   0.000000044
   0.000000006   0.000000041   7.568251712

ATOMIC_POSITIONS (crystal)
W        0.250000000   0.266736679   0.000000000    0   0   0
W        0.749999920   0.733263321   0.000000000    0   0   0
W        0.250000000   0.233263341   0.500000000    0   0   0
W        0.749999920   0.766736804   0.500000000    0   0   0
W        0.749999920   0.266736679   0.500000000    0   0   0
W        0.250000000   0.733263321   0.500000000    0   0   0
W        0.749999920   0.233263341   0.000000000    0   0   0
W        0.250000000   0.766736804  -0.000000000    0   0   0
O        0.250000000   0.004199958   0.000000000    0   0   0
O        0.749999920   0.995799959   0.000000000    0   0   0
[...]
O        0.500000000   0.750000060   0.513480626    0   0   0
O        0.000000000   0.250000000   0.986519540    0   0   0
O        0.000000000   0.750000060   0.013480368    0   0   0
O        0.500000000   0.250000000   0.013480368    0   0   0
O        0.500000000   0.750000060   0.986519540    0   0   0
O        0.000000000   0.250000000   0.513480626    0   0   0
O        0.000000000   0.750000060   0.486519507    0   0   0
O        0.736519454   0.250000000   0.749999920    0   0   0
O        0.263480413   0.750000060   0.250000000    0   0   0
O        0.763480706   0.250000000   0.250000000    0   0   0
O        0.236519523   0.750000060   0.749999920    0   0   0
O        0.263480413   0.250000000   0.749999920    0   0   0
O        0.736519454   0.750000060   0.250000000    0   0   0
O        0.236519523   0.250000000   0.250000000    0   0   0
O        0.763480706   0.750000060   0.749999920    0   0   0

     Writing output data file Landau_38.save
     NEW-OLD atomic charge density approx. for the potential
     extrapolated charge  385.53456, renormalised to  368.00000

[...]

     iteration #  1     ecut=   120.00 Ry     beta= 0.70
     Davidson diagonalization with overlap
     c_bands:  1 eigenvalues not converged
     ethr =  1.00E-06,  avg # of iterations = 15.4

[...]

     enthalpy old            =   -6260.9685600345 Ry
     enthalpy new            =   -6261.0676430100 Ry

     CASE: enthalpy_new < enthalpy_old

[...]

     Threshold (ethr) on eigenvalues was too large:
     Diagonalizing with lowered threshold

     Davidson diagonalization with overlap
     ethr =  2.64E-08,  avg # of iterations =  3.0

[...]

     number of scf cycles    =   5
     number of bfgs steps    =   4

     enthalpy old            =   -6261.0778219560 Ry
     enthalpy new            =   -6261.0778330955 Ry

     CASE: enthalpy_new < enthalpy_old

     small trust_radius: resetting bfgs history

     new trust radius        =       0.0000603930 bohr
     new conv_thr            =            1.0E-10 Ry

     new unit-cell volume =   2891.59754 a.u.^3 (   428.49054 Ang^3 )
     density =      7.18758 g/cm^3

[...]

ATOMIC_POSITIONS (crystal)
W        0.250000000   0.266736679   0.000000000    0   0   0
W        0.749999920   0.733263321  -0.000000000    0   0   0
W        0.250000000   0.233263341   0.500000000    0   0   0
W        0.749999920   0.766736804   0.500000000    0   0   0
W        0.749999920   0.266736679   0.500000000    0   0   0
W        0.250000000   0.733263321   0.500000000    0   0   0
W        0.749999920   0.233263341   0.000000000    0   0   0
W        0.250000000   0.766736804   0.000000000    0   0   0
O        0.250000000   0.004199958   0.000000000    0   0   0
O        0.749999920   0.995799959   0.000000000    0   0   0
O        0.250000000   0.495800084   0.500000000    0   0   0
O        0.749999920   0.504200041   0.500000000    0   0   0
O        0.749999920   0.004199958   0.500000000    0   0   0
O        0.250000000   0.995799959   0.500000000    0   0   0
O        0.749999920   0.495800084   0.000000000    0   0   0
O        0.250000000   0.504200041  -0.000000000    0   0   0
O        0.500000000   0.250000000   0.486519507    0   0   0
O        0.500000000   0.750000060   0.513480626    0   0   0
O        0.000000000   0.250000000   0.986519540    0   0   0
O        0.000000000   0.750000060   0.013480368    0   0   0
O        0.500000000   0.250000000   0.013480368    0   0   0
O        0.500000000   0.750000060   0.986519540    0   0   0
O        0.000000000   0.250000000   0.513480626    0   0   0
O        0.000000000   0.750000060   0.486519507    0   0   0
O        0.736519454   0.250000000   0.749999920    0   0   0
O        0.263480413   0.750000060   0.250000000    0   0   0
O        0.763480706   0.250000000   0.250000000    0   0   0
O        0.236519523   0.750000060   0.749999920    0   0   0
O        0.263480413   0.250000000   0.749999920    0   0   0
O        0.736519454   0.750000060   0.250000000    0   0   0
O        0.236519523   0.250000000   0.250000000    0   0   0
O        0.763480706   0.750000060   0.749999920    0   0   0

     Writing output data file Landau_38.save
     NEW-OLD atomic charge density approx. for the potential
     extrapolated charge  367.99588, renormalised to  368.00000

[...]

     Threshold (ethr) on eigenvalues was too large:
     Diagonalizing with lowered threshold

     Davidson diagonalization with overlap
     ethr =  2.64E-10,  avg # of iterations =  2.1

[...]

     bfgs converged in   6 scf cycles and   5 bfgs steps
     (criteria: energy <  1.0E-07 Ry, force <  1.0E-07Ry/Bohr, cell <  5.0E-01kbar)

     End of BFGS Geometry Optimization

     Final enthalpy =   -6261.0778330940 Ry
Begin final coordinates
     new unit-cell volume =   2891.59754 a.u.^3 (   428.49054 Ang^3 )
     density =      7.18758 g/cm^3

CELL_PARAMETERS (angstrom)
   7.507761746   0.000000038   0.000000007
   0.000000048   7.601866670   0.000000075
   0.000000007   0.000000066   7.507762222

ATOMIC_POSITIONS (crystal)
W        0.250000000   0.266736679   0.000000000    0   0   0
W        0.749999920   0.733263321  -0.000000000    0   0   0
W        0.250000000   0.233263341   0.500000000    0   0   0
W        0.749999920   0.766736804   0.500000000    0   0   0
W        0.749999920   0.266736679   0.500000000    0   0   0
W        0.250000000   0.733263321   0.500000000    0   0   0
W        0.749999920   0.233263341   0.000000000    0   0   0
W        0.250000000   0.766736804   0.000000000    0   0   0
O        0.250000000   0.004199958   0.000000000    0   0   0
O        0.749999920   0.995799959   0.000000000    0   0   0
O        0.250000000   0.495800084   0.500000000    0   0   0
O        0.749999920   0.504200041   0.500000000    0   0   0
O        0.749999920   0.004199958   0.500000000    0   0   0
O        0.250000000   0.995799959   0.500000000    0   0   0
O        0.749999920   0.495800084   0.000000000    0   0   0
O        0.250000000   0.504200041  -0.000000000    0   0   0
O        0.500000000   0.250000000   0.486519507    0   0   0
O        0.500000000   0.750000060   0.513480626    0   0   0
O        0.000000000   0.250000000   0.986519540    0   0   0
O        0.000000000   0.750000060   0.013480368    0   0   0
O        0.500000000   0.250000000   0.013480368    0   0   0
O        0.500000000   0.750000060   0.986519540    0   0   0
O        0.000000000   0.250000000   0.513480626    0   0   0
O        0.000000000   0.750000060   0.486519507    0   0   0
O        0.736519454   0.250000000   0.749999920    0   0   0
O        0.263480413   0.750000060   0.250000000    0   0   0
O        0.763480706   0.250000000   0.250000000    0   0   0
O        0.236519523   0.750000060   0.749999920    0   0   0
O        0.263480413   0.250000000   0.749999920    0   0   0
O        0.736519454   0.750000060   0.250000000    0   0   0
O        0.236519523   0.250000000   0.250000000    0   0   0
O        0.763480706   0.750000060   0.749999920    0   0   0
End final coordinates

     A final scf calculation at the relaxed structure.
     The G-vectors are recalculated for the final unit cell
     Results may differ from those at the preceding step.

     bravais-lattice index     =            0
     lattice parameter (alat)  =      13.8397  a.u.
     unit-cell volume          =    2891.5975 (a.u.)^3
     number of atoms/cell      =           32
     number of atomic types    =            2
     number of electrons       =       368.00
     number of Kohn-Sham states=          221
     kinetic-energy cutoff     =     120.0000  Ry
     charge density cutoff     =     480.0000  Ry
     convergence threshold     =      1.0E-10
     mixing beta               =       0.7000
     number of iterations used =            8  plain     mixing
     Exchange-correlation      = SLA PW NOGX NOGC ( 1  4  0  0 0 0)

     celldm(1)=  13.839685  celldm(2)=   0.000000  celldm(3)=   0.000000
     celldm(4)=   0.000000  celldm(5)=   0.000000  celldm(6)=   0.000000

     crystal axes: (cart. coord. in units of alat)
               a(1) = (   1.025140   0.000000   0.000000 )
               a(2) = (   0.000000   1.037989   0.000000 )
               a(3) = (   0.000000   0.000000   1.025140 )

     reciprocal axes: (cart. coord. in units 2 pi/alat)
               b(1) = (  0.975477 -0.000000 -0.000000 )
               b(2) = ( -0.000000  0.963401 -0.000000 )
               b(3) = ( -0.000000 -0.000000  0.975477 )

     PseudoPot. # 1 for W  read from file:
     /cluster/scratch/mnoe/QE/pps/W_ONCV_LDA-4.0.upf
     MD5 check sum: ba0307d5d4cd419d6f1d13dc49d7c13a
     Pseudo is Norm-conserving + core correction, Zval = 28.0
     Generated using ONCVPSP code by D. R. Hamann
     Using radial grid of 1380 points,  8 beta functions with:
                l(1) =   0
                l(2) =   0
                l(3) =   1
                l(4) =   1
                l(5) =   2
                l(6) =   2
                l(7) =   3
                l(8) =   3

     PseudoPot. # 2 for O  read from file:
     /cluster/scratch/mnoe/QE/pps/O_ONCV_LDA-3.0.upf
     MD5 check sum: a1bd6164e7280c17a38c229939bfbd54
     Pseudo is Norm-conserving + core correction, Zval =  6.0
     Generated using ONCVPSP code by D. R. Hamann
     Using radial grid of  926 points,  5 beta functions with:
                l(1) =   0
                l(2) =   0
                l(3) =   1
                l(4) =   1
                l(5) =   2

     atomic species   valence    mass     pseudopotential
        W             28.00   183.84000     W ( 1.00)
        O              6.00    15.99940     O ( 1.00)

      2 Sym. Ops., with inversion, found

   Cartesian axes

     site n.     atom                  positions (alat units)
         1           W   tau(   1) = (   0.2562850   0.2768698   0.0000000  )
         2           W   tau(   2) = (   0.7688548   0.7611195   0.0000000  )
         3           W   tau(   3) = (   0.2562850   0.2421249   0.5125700  )
         4           W   tau(   4) = (   0.7688548   0.7958646   0.5125700  )
         5           W   tau(   5) = (   0.7688548   0.2768698   0.5125700  )
         6           W   tau(   6) = (   0.2562850   0.7611195   0.5125700  )
         7           W   tau(   7) = (   0.7688548   0.2421249   0.0000000  )
         8           W   tau(   8) = (   0.2562850   0.7958646   0.0000000  )
         9           O   tau(   9) = (   0.2562850   0.0043595   0.0000000  )
        10           O   tau(  10) = (   0.7688548   1.0336298   0.0000000  )
        11           O   tau(  11) = (   0.2562850   0.5146352   0.5125700  )
        12           O   tau(  12) = (   0.7688548   0.5233543   0.5125700  )
        13           O   tau(  13) = (   0.7688548   0.0043595   0.5125700  )
        14           O   tau(  14) = (   0.2562850   1.0336298   0.5125700  )
        15           O   tau(  15) = (   0.7688548   0.5146352   0.0000000  )
        16           O   tau(  16) = (   0.2562850   0.5233543   0.0000000  )
        17           O   tau(  17) = (   0.5125699   0.2594973   0.4987506  )
        18           O   tau(  18) = (   0.5125700   0.7784921   0.5263895  )
        19           O   tau(  19) = (   0.0000000   0.2594973   1.0113206  )
        20           O   tau(  20) = (   0.0000000   0.7784921   0.0138193  )
        21           O   tau(  21) = (   0.5125699   0.2594973   0.0138193  )
        22           O   tau(  22) = (   0.5125700   0.7784921   1.0113206  )
        23           O   tau(  23) = (   0.0000000   0.2594973   0.5263895  )
        24           O   tau(  24) = (   0.0000000   0.7784921   0.4987506  )
        25           O   tau(  25) = (   0.7550355   0.2594973   0.7688549  )
        26           O   tau(  26) = (   0.2701043   0.7784921   0.2562850  )
        27           O   tau(  27) = (   0.7826745   0.2594973   0.2562850  )
        28           O   tau(  28) = (   0.2424656   0.7784921   0.7688549  )
        29           O   tau(  29) = (   0.2701043   0.2594973   0.7688549  )
        30           O   tau(  30) = (   0.7550355   0.7784921   0.2562850  )
        31           O   tau(  31) = (   0.2424656   0.2594973   0.2562850  )
        32           O   tau(  32) = (   0.7826745   0.7784921   0.7688549  )

     number of k points=   112  gaussian smearing, width (Ry)=  0.0007

     Number of k-points >= 100: set verbosity='high' to print them.

     Initial potential from superposition of free atoms

     starting charge  367.99656, renormalised to  368.00000
     Starting wfc are  232 randomized atomic wfcs

     Writing output data file Landau_38.save

     Self-consistent Calculation

[...]

     total energy              =   -6261.07916564 Ry
     Harris-Foulkes estimate   =   -6261.07916564 Ry
     estimated scf accuracy    <          2.6E-10 Ry

     iteration # 17     ecut=   120.00 Ry     beta= 0.70
     Davidson diagonalization with overlap
     ethr =  1.00E-13,  avg # of iterations =  2.3

     End of self-consistent calculation

     Number of k-points >= 100: set verbosity='high' to print the bands.

     the Fermi energy is     8.3758 ev

!    total energy              =   -6261.07916564 Ry
     Harris-Foulkes estimate   =   -6261.07916564 Ry
     estimated scf accuracy    <          3.9E-11 Ry

     The total energy is the sum of the following terms:

     one-electron contribution =   -4856.12972663 Ry
     hartree contribution      =    2657.75424676 Ry
     xc contribution           =    -965.68124977 Ry
     ewald contribution        =   -3097.02243600 Ry
     smearing contrib. (-TS)   =      -0.00000000 Ry

     convergence has been achieved in  17 iterations

     Forces acting on atoms (cartesian axes, Ry/au):

     atom    1 type  1   force =     0.00000042    0.02200307    0.00000458
     atom    2 type  1   force =    -0.00000042   -0.02200307   -0.00000458
     atom    3 type  1   force =    -0.00000944   -0.02198670   -0.00000406
     atom    4 type  1   force =     0.00000944    0.02198670    0.00000406
     atom    5 type  1   force =     0.00000925    0.02200240   -0.00000231
     atom    6 type  1   force =    -0.00000925   -0.02200240    0.00000231
     atom    7 type  1   force =    -0.00000292   -0.02198585    0.00000475
     atom    8 type  1   force =     0.00000292    0.02198585   -0.00000475
     atom    9 type  2   force =     0.00000007   -0.01208516   -0.00000001
     atom   10 type  2   force =    -0.00000007    0.01208516    0.00000001
     atom   11 type  2   force =    -0.00000001    0.01208494    0.00000001
     atom   12 type  2   force =     0.00000001   -0.01208494   -0.00000001
     atom   13 type  2   force =    -0.00000008   -0.01208492   -0.00000002
     atom   14 type  2   force =     0.00000008    0.01208492    0.00000002
     atom   15 type  2   force =    -0.00000007    0.01208519    0.00000001
     atom   16 type  2   force =     0.00000007   -0.01208519   -0.00000001
     atom   17 type  2   force =     0.00000009    0.00000007   -0.00089129
     atom   18 type  2   force =    -0.00000009   -0.00000007    0.00089129
     atom   19 type  2   force =     0.00000001    0.00000001   -0.00089151
     atom   20 type  2   force =    -0.00000001   -0.00000001    0.00089151
     atom   21 type  2   force =    -0.00000009    0.00000010    0.00089154
     atom   22 type  2   force =     0.00000009   -0.00000010   -0.00089154
     atom   23 type  2   force =     0.00000004   -0.00000002    0.00089132
     atom   24 type  2   force =    -0.00000004    0.00000002   -0.00089132
     atom   25 type  2   force =    -0.00089139    0.00000005    0.00000046
     atom   26 type  2   force =     0.00089139   -0.00000005   -0.00000046
     atom   27 type  2   force =     0.00089110    0.00000004   -0.00000043
     atom   28 type  2   force =    -0.00089110   -0.00000004    0.00000043
     atom   29 type  2   force =     0.00089138    0.00000010    0.00000066
     atom   30 type  2   force =    -0.00089138   -0.00000010   -0.00000066
     atom   31 type  2   force =    -0.00089110    0.00000012   -0.00000067
     atom   32 type  2   force =     0.00089110   -0.00000012    0.00000067

     Total force =     0.000000     Total SCF correction =     0.000000

     Computing stress (Cartesian axis) and pressure

          total   stress  (Ry/bohr**3)                   (kbar)     P=    1.97
   0.00001899   0.00000000  -0.00000000          2.79      0.00     -0.00
   0.00000000   0.00000220  -0.00000000          0.00      0.32     -0.00
  -0.00000000  -0.00000000   0.00001900         -0.00     -0.00      2.80

     Writing output data file Landau_38.save

     General routines

     Parallel routines

   This run was terminated on:   7:21:53   5Mar2020

   JOB DONE.