     Program PWSCF v.6.4.1 starts on 21Nov2019 at 18: 4: 1

     K-points division:     npool     =      40
     Reading input from rscf.in

     Current dimensions of program PWSCF are:
     Max number of different atomic species (ntypx) = 10
     Max number of k-points (npk) =  40000
     Max angular momentum in pseudopotentials (lmaxx) =  3

     Subspace diagonalization in iterative solution of the eigenvalue problem:
     a serial algorithm will be used

     Message from routine setup:
     using ibrav=0 with symmetry is DISCOURAGED, use correct ibrav instead

     bravais-lattice index     =            0
     lattice parameter (alat)  =       9.7849  a.u.
     unit-cell volume          =    1402.1515 (a.u.)^3
     number of atoms/cell      =           16
     number of atomic types    =            2
     number of electrons       =       184.00
     number of Kohn-Sham states=          110
     kinetic-energy cutoff     =     120.0000  Ry
     charge density cutoff     =     480.0000  Ry
     convergence threshold     =      1.0E-08
     mixing beta               =       0.7000
     number of iterations used =            8  plain     mixing
     Exchange-correlation      = SLA PW NOGX NOGC ( 1  4  0  0 0 0)
     nstep                     =           50

     celldm(1)=   9.784926  celldm(2)=   0.000000  celldm(3)=   0.000000
     celldm(4)=   0.000000  celldm(5)=   0.000000  celldm(6)=   0.000000

     crystal axes: (cart. coord. in units of alat)
               a(1) = (   1.000000   0.000000   0.000000 )
               a(2) = (   0.000000   1.000000   0.000000 )
               a(3) = (   0.000000   0.000000   1.496657 )

     reciprocal axes: (cart. coord. in units 2 pi/alat)
               b(1) = (  1.000000  0.000000  0.000000 )
               b(2) = (  0.000000  1.000000  0.000000 )
               b(3) = (  0.000000  0.000000  0.668156 )

     PseudoPot. # 1 for W  read from file:
     /cluster/scratch/mnoe/QE/pps/W_ONCV_LDA-4.0.upf
     MD5 check sum: ba0307d5d4cd419d6f1d13dc49d7c13a
     Pseudo is Norm-conserving + core correction, Zval = 28.0
     Generated using ONCVPSP code by D. R. Hamann
     Using radial grid of 1380 points,  8 beta functions with:
                l(1) =   0
                l(2) =   0
                l(3) =   1
                l(4) =   1
                l(5) =   2
                l(6) =   2
                l(7) =   3
                l(8) =   3

     PseudoPot. # 2 for O  read from file:
     /cluster/scratch/mnoe/QE/pps/O_ONCV_LDA-3.0.upf
     MD5 check sum: b55cdb4f45ae2203d24ad12cf8d61a31
     Pseudo is Norm-conserving + core correction, Zval =  6.0
     Generated using ONCVPSP code by D. R. Hamann
     Using radial grid of  926 points,  5 beta functions with:
                l(1) =   0
                l(2) =   0
                l(3) =   1
                l(4) =   1
                l(5) =   2

     atomic species   valence    mass     pseudopotential
        W             28.00   183.84000     W ( 1.00)
        O              6.00    15.99940     O ( 1.00)

     16 Sym. Ops., with inversion, found (14 have fractional translation)

   Cartesian axes

     site n.     atom                  positions (alat units)
         1           W   tau(   1) = (   0.2500000   0.2500000   0.3071427  )
         2           W   tau(   2) = (   0.7500000   0.7500000   1.1895144  )
         3           W   tau(   3) = (   0.7500000   0.7500000   0.4411859  )
         4           W   tau(   4) = (   0.2500000   0.2500000   1.0554711  )
         5           O   tau(   5) = (   0.2500000   0.2500000   0.6993224  )
         6           O   tau(   6) = (   0.7500000   0.7500000   0.7973346  )
         7           O   tau(   7) = (   0.7500000   0.7500000   0.0490061  )
         8           O   tau(   8) = (   0.2500000   0.2500000   1.4476509  )
         9           O   tau(   9) = (   0.5161157   0.4838843   0.3741643  )
        10           O   tau(  10) = (   0.4838843   0.5161157   1.1224928  )
        11           O   tau(  11) = (  -0.0161157   1.0161157   0.3741643  )
        12           O   tau(  12) = (   1.0161156  -0.0161157   1.1224928  )
        13           O   tau(  13) = (   1.0161157   0.5161157   0.3741643  )
        14           O   tau(  14) = (  -0.0161157   0.4838843   1.1224928  )
        15           O   tau(  15) = (   0.4838843  -0.0161157   0.3741643  )
        16           O   tau(  16) = (   0.5161157   1.0161156   1.1224928  )

     number of k points=    60  gaussian smearing, width (Ry)=  0.0007
                       cart. coord. in units 2pi/alat
        k(    1) = (   0.0000000   0.0000000   0.0000000), wk =   0.0041152
        k(    2) = (   0.0000000   0.0000000   0.1113593), wk =   0.0082305
        k(    3) = (   0.0000000   0.0000000   0.2227186), wk =   0.0082305
        k(    4) = (   0.0000000   0.0000000  -0.3340779), wk =   0.0041152
        k(    5) = (   0.0000000   0.1111111   0.0000000), wk =   0.0164609
        k(    6) = (   0.0000000   0.1111111   0.1113593), wk =   0.0329218
        k(    7) = (   0.0000000   0.1111111   0.2227186), wk =   0.0329218
        k(    8) = (   0.0000000   0.1111111  -0.3340779), wk =   0.0164609
        k(    9) = (   0.0000000   0.2222222   0.0000000), wk =   0.0164609
        k(   10) = (   0.0000000   0.2222222   0.1113593), wk =   0.0329218
        k(   11) = (   0.0000000   0.2222222   0.2227186), wk =   0.0329218
        k(   12) = (   0.0000000   0.2222222  -0.3340779), wk =   0.0164609
        k(   13) = (   0.0000000   0.3333333   0.0000000), wk =   0.0164609
        k(   14) = (   0.0000000   0.3333333   0.1113593), wk =   0.0329218
        k(   15) = (   0.0000000   0.3333333   0.2227186), wk =   0.0329218
        k(   16) = (   0.0000000   0.3333333  -0.3340779), wk =   0.0164609
        k(   17) = (   0.0000000   0.4444444   0.0000000), wk =   0.0164609
        k(   18) = (   0.0000000   0.4444444   0.1113593), wk =   0.0329218
        k(   19) = (   0.0000000   0.4444444   0.2227186), wk =   0.0329218
        k(   20) = (   0.0000000   0.4444444  -0.3340779), wk =   0.0164609
        k(   21) = (   0.1111111   0.1111111   0.0000000), wk =   0.0164609
        k(   22) = (   0.1111111   0.1111111   0.1113593), wk =   0.0329218
        k(   23) = (   0.1111111   0.1111111   0.2227186), wk =   0.0329218
        k(   24) = (   0.1111111   0.1111111  -0.3340779), wk =   0.0164609
        k(   25) = (   0.1111111   0.2222222   0.0000000), wk =   0.0329218
        k(   26) = (   0.1111111   0.2222222   0.1113593), wk =   0.0658436
        k(   27) = (   0.1111111   0.2222222   0.2227186), wk =   0.0658436
        k(   28) = (   0.1111111   0.2222222  -0.3340779), wk =   0.0329218
        k(   29) = (   0.1111111   0.3333333   0.0000000), wk =   0.0329218
        k(   30) = (   0.1111111   0.3333333   0.1113593), wk =   0.0658436
        k(   31) = (   0.1111111   0.3333333   0.2227186), wk =   0.0658436
        k(   32) = (   0.1111111   0.3333333  -0.3340779), wk =   0.0329218
        k(   33) = (   0.1111111   0.4444444   0.0000000), wk =   0.0329218
        k(   34) = (   0.1111111   0.4444444   0.1113593), wk =   0.0658436
        k(   35) = (   0.1111111   0.4444444   0.2227186), wk =   0.0658436
        k(   36) = (   0.1111111   0.4444444  -0.3340779), wk =   0.0329218
        k(   37) = (   0.2222222   0.2222222   0.0000000), wk =   0.0164609
        k(   38) = (   0.2222222   0.2222222   0.1113593), wk =   0.0329218
        k(   39) = (   0.2222222   0.2222222   0.2227186), wk =   0.0329218
        k(   40) = (   0.2222222   0.2222222  -0.3340779), wk =   0.0164609
        k(   41) = (   0.2222222   0.3333333   0.0000000), wk =   0.0329218
        k(   42) = (   0.2222222   0.3333333   0.1113593), wk =   0.0658436
        k(   43) = (   0.2222222   0.3333333   0.2227186), wk =   0.0658436
        k(   44) = (   0.2222222   0.3333333  -0.3340779), wk =   0.0329218
        k(   45) = (   0.2222222   0.4444444   0.0000000), wk =   0.0329218
        k(   46) = (   0.2222222   0.4444444   0.1113593), wk =   0.0658436
        k(   47) = (   0.2222222   0.4444444   0.2227186), wk =   0.0658436
        k(   48) = (   0.2222222   0.4444444  -0.3340779), wk =   0.0329218
        k(   49) = (   0.3333333   0.3333333   0.0000000), wk =   0.0164609
        k(   50) = (   0.3333333   0.3333333   0.1113593), wk =   0.0329218
        k(   51) = (   0.3333333   0.3333333   0.2227186), wk =   0.0329218
        k(   52) = (   0.3333333   0.3333333  -0.3340779), wk =   0.0164609
        k(   53) = (   0.3333333   0.4444444   0.0000000), wk =   0.0329218
        k(   54) = (   0.3333333   0.4444444   0.1113593), wk =   0.0658436
        k(   55) = (   0.3333333   0.4444444   0.2227186), wk =   0.0658436
        k(   56) = (   0.3333333   0.4444444  -0.3340779), wk =   0.0329218
        k(   57) = (   0.4444444   0.4444444   0.0000000), wk =   0.0164609
        k(   58) = (   0.4444444   0.4444444   0.1113593), wk =   0.0329218
        k(   59) = (   0.4444444   0.4444444   0.2227186), wk =   0.0329218
        k(   60) = (   0.4444444   0.4444444  -0.3340779), wk =   0.0164609

     Initial potential from superposition of free atoms

     starting charge  183.99828, renormalised to  184.00000
     Starting wfcs are  116 randomized atomic wfcs

     Self-consistent Calculation

     iteration #  1     ecut=   120.00 Ry     beta= 0.70
     Davidson diagonalization with overlap
     ethr =  1.00E-02,  avg # of iterations =  4.4

     total energy              =   -3126.72717812 Ry
     Harris-Foulkes estimate   =   -3132.26446339 Ry
     estimated scf accuracy    <       7.00049489 Ry

[...]

     End of self-consistent calculation

          k = 0.0000 0.0000 0.0000 ( 31095 PWs)   bands (ev):

   -66.2033 -66.2030 -66.2018 -66.2014 -30.5843 -30.5843 -30.5809 -30.5809
   -30.4956 -30.4956 -30.4931 -30.4931 -30.4532 -30.4499 -30.3937 -30.3918
   -20.3698 -20.3698 -20.3697 -20.3696 -20.3691 -20.3691 -20.3690 -20.3690
   -20.3664 -20.3664 -20.3664 -20.3664 -20.3433 -20.3432 -20.3426 -20.3425
   -20.3346 -20.3341 -20.3310 -20.3310 -20.3298 -20.3298 -20.3287 -20.3286
   -20.3286 -20.3282 -20.3273 -20.3273 -10.0555  -9.7743  -9.1027  -9.0829
    -8.8401  -8.5784  -7.7803  -7.7803  -7.7631  -7.7631  -7.5701  -7.4181
     0.9553   0.9605   1.3517   1.4103   1.6176   1.7540   2.3127   2.4102
     2.5510   2.5510   3.8431   3.8431   4.9616   5.2912   5.2912   5.6107
     5.6107   5.9383   5.9383   6.0203   6.2052   6.2904   6.2904   6.8277
     6.8277   6.8750   7.1130   7.1740   7.1740   7.2518   7.2518   7.3827
     8.3719   8.3765   8.5151   8.5151   8.9512   8.9686   9.6348   9.6348
    12.3124  12.3124  13.4516  13.5355  13.5355  13.7200  13.7343  14.2341
    14.2341  14.5699  14.5707  14.6745  15.2933  16.4586

[...]

     the Fermi energy is     8.7762 ev

!    total energy              =   -3130.45872119 Ry
     Harris-Foulkes estimate   =   -3130.45872120 Ry
     estimated scf accuracy    <          2.6E-09 Ry

     The total energy is the sum of the following terms:

     one-electron contribution =   -2370.74725846 Ry
     hartree contribution      =    1303.82174933 Ry
[...]
O        0.483884275  -0.016115696   0.250000000    0   0   0
O        0.516115725   1.016115633   0.750000000    0   0   0

     Writing output data file Landau_38.save/
     NEW-OLD atomic charge density approx. for the potential
     extrapolated charge  184.77217, renormalised to  184.00000

[...]

     enthalpy old            =   -3130.4587211948 Ry
     enthalpy new            =   -3130.4738060324 Ry

     CASE: enthalpy_new < enthalpy_old

[...]

     number of scf cycles    =   4
     number of bfgs steps    =   3

     enthalpy old            =   -3130.4738256047 Ry
     enthalpy new            =   -3130.4738285320 Ry

     CASE: enthalpy_new < enthalpy_old

     small trust_radius: resetting bfgs history

     new trust radius        =       0.0000679207 bohr
     new conv_thr            =            1.0E-10 Ry

     new unit-cell volume =   1407.17301 a.u.^3 (   208.52152 Ang^3 )
     density =      7.38488 g/cm^3

[...]

ATOMIC_POSITIONS (crystal)
W        0.250000000   0.250000000   0.205219132    0   0   0
W        0.750000023   0.750000023   0.794780883    0   0   0
W        0.750000023   0.750000023   0.294780883    0   0   0
W        0.250000000   0.250000000   0.705219117    0   0   0
O        0.250000000   0.250000000   0.467256283    0   0   0
O        0.750000023   0.750000023   0.532743717    0   0   0
O        0.750000023   0.750000023   0.032743730    0   0   0
O        0.250000000   0.250000000   0.967256283    0   0   0
O        0.516115679   0.483884275   0.250000000    0   0   0
O        0.483884321   0.516115725   0.750000000    0   0   0
O       -0.016115696   1.016115725   0.250000000    0   0   0
O        1.016115633  -0.016115662   0.750000000    0   0   0
O        1.016115725   0.516115679   0.250000000    0   0   0
O       -0.016115662   0.483884321   0.750000000    0   0   0
O        0.483884275  -0.016115696   0.250000000    0   0   0
O        0.516115725   1.016115633   0.750000000    0   0   0

     Writing output data file Landau_38.save/
     NEW-OLD atomic charge density approx. for the potential
     extrapolated charge  183.99862, renormalised to  184.00000

[...]

     Threshold (ethr) on eigenvalues was too large:
     Diagonalizing with lowered threshold

     Davidson diagonalization with overlap
     ethr =  9.57E-11,  avg # of iterations =  3.0

[...]

     bfgs converged in   5 scf cycles and   4 bfgs steps
     (criteria: energy <  1.0E-07 Ry, force <  1.0E-07Ry/Bohr, cell <  5.0E-01kbar)

     End of BFGS Geometry Optimization

     Final enthalpy =   -3130.4738285385 Ry
Begin final coordinates
     new unit-cell volume =   1407.17301 a.u.^3 (   208.52152 Ang^3 )
     density =      7.38488 g/cm^3

CELL_PARAMETERS (angstrom)
   5.233899972   0.000000000   0.000000000
   0.000000000   5.233899972   0.000000000
   0.000000000   0.000000000   7.612022335

ATOMIC_POSITIONS (crystal)
W        0.250000000   0.250000000   0.205219132    0   0   0
W        0.750000023   0.750000023   0.794780883    0   0   0
W        0.750000023   0.750000023   0.294780883    0   0   0
W        0.250000000   0.250000000   0.705219117    0   0   0
O        0.250000000   0.250000000   0.467256283    0   0   0
O        0.750000023   0.750000023   0.532743717    0   0   0
O        0.750000023   0.750000023   0.032743730    0   0   0
O        0.250000000   0.250000000   0.967256283    0   0   0
O        0.516115679   0.483884275   0.250000000    0   0   0
O        0.483884321   0.516115725   0.750000000    0   0   0
O       -0.016115696   1.016115725   0.250000000    0   0   0
O        1.016115633  -0.016115662   0.750000000    0   0   0
O        1.016115725   0.516115679   0.250000000    0   0   0
O       -0.016115662   0.483884321   0.750000000    0   0   0
O        0.483884275  -0.016115696   0.250000000    0   0   0
O        0.516115725   1.016115633   0.750000000    0   0   0
End final coordinates

     Writing output data file Landau_38.save/

     Final scf calculation at the relaxed structure.
     The G-vectors are recalculated for the final unit cell
     Results may differ from those at the preceding step.

     bravais-lattice index     =            0
     lattice parameter (alat)  =       9.7849  a.u.
     unit-cell volume          =    1407.1730 (a.u.)^3
     number of atoms/cell      =           16
     number of atomic types    =            2
     number of electrons       =       184.00
     number of Kohn-Sham states=          110
     kinetic-energy cutoff     =     120.0000  Ry
     charge density cutoff     =     480.0000  Ry
     convergence threshold     =      1.0E-10
     mixing beta               =       0.7000
     number of iterations used =            8  plain     mixing
     Exchange-correlation      = SLA PW NOGX NOGC ( 1  4  0  0 0 0)

     celldm(1)=   9.784926  celldm(2)=   0.000000  celldm(3)=   0.000000
     celldm(4)=   0.000000  celldm(5)=   0.000000  celldm(6)=   0.000000

     crystal axes: (cart. coord. in units of alat)
               a(1) = (   1.010803   0.000000   0.000000 )
               a(2) = (   0.000000   1.010803   0.000000 )
               a(3) = (   0.000000   0.000000   1.470081 )

     reciprocal axes: (cart. coord. in units 2 pi/alat)
               b(1) = (  0.989312  0.000000  0.000000 )
               b(2) = (  0.000000  0.989312  0.000000 )
               b(3) = (  0.000000  0.000000  0.680234 )

     PseudoPot. # 1 for W  read from file:
     /cluster/scratch/mnoe/QE/pps/W_ONCV_LDA-4.0.upf
     MD5 check sum: ba0307d5d4cd419d6f1d13dc49d7c13a
     Pseudo is Norm-conserving + core correction, Zval = 28.0
     Generated using ONCVPSP code by D. R. Hamann
     Using radial grid of 1380 points,  8 beta functions with:
                l(1) =   0
                l(2) =   0
                l(3) =   1
                l(4) =   1
                l(5) =   2
                l(6) =   2
                l(7) =   3
                l(8) =   3

     PseudoPot. # 2 for O  read from file:
     /cluster/scratch/mnoe/QE/pps/O_ONCV_LDA-3.0.upf
     MD5 check sum: b55cdb4f45ae2203d24ad12cf8d61a31
     Pseudo is Norm-conserving + core correction, Zval =  6.0
     Generated using ONCVPSP code by D. R. Hamann
     Using radial grid of  926 points,  5 beta functions with:
                l(1) =   0
                l(2) =   0
                l(3) =   1
                l(4) =   1
                l(5) =   2

     atomic species   valence    mass     pseudopotential
        W             28.00   183.84000     W ( 1.00)
        O              6.00    15.99940     O ( 1.00)

     16 Sym. Ops., with inversion, found (14 have fractional translation)

   Cartesian axes

     site n.     atom                  positions (alat units)
         1           W   tau(   1) = (   0.2527009   0.2527009   0.3016888  )
         2           W   tau(   2) = (   0.7581026   0.7581026   1.1683926  )
         3           W   tau(   3) = (   0.7581026   0.7581026   0.4333519  )
         4           W   tau(   4) = (   0.2527009   0.2527009   1.0367295  )
         5           O   tau(   5) = (   0.2527009   0.2527009   0.6869047  )
         6           O   tau(   6) = (   0.7581026   0.7581026   0.7831766  )
         7           O   tau(   7) = (   0.7581026   0.7581026   0.0481359  )
         8           O   tau(   8) = (   0.2527009   0.2527009   1.4219454  )
         9           O   tau(   9) = (   0.5216915   0.4891119   0.3675203  )
        10           O   tau(  10) = (   0.4891120   0.5216916   1.1025610  )
        11           O   tau(  11) = (  -0.0162898   1.0270933   0.3675203  )
        12           O   tau(  12) = (   1.0270932  -0.0162898   1.1025610  )
        13           O   tau(  13) = (   1.0270933   0.5216915   0.3675203  )
        14           O   tau(  14) = (  -0.0162898   0.4891120   1.1025610  )
        15           O   tau(  15) = (   0.4891119  -0.0162898   0.3675203  )
        16           O   tau(  16) = (   0.5216916   1.0270932   1.1025610  )

     number of k points=    60  gaussian smearing, width (Ry)=  0.0007
                       cart. coord. in units 2pi/alat
        k(    1) = (   0.0000000   0.0000000   0.0000000), wk =   0.0041152
        k(    2) = (   0.0000000   0.0000000   0.1133724), wk =   0.0082305
        k(    3) = (   0.0000000   0.0000000   0.2267448), wk =   0.0082305
        k(    4) = (   0.0000000   0.0000000  -0.3401172), wk =   0.0041152
        k(    5) = (   0.0000000   0.1099236   0.0000000), wk =   0.0164609
        k(    6) = (   0.0000000   0.1099236   0.1133724), wk =   0.0329218
        k(    7) = (   0.0000000   0.1099236   0.2267448), wk =   0.0329218
        k(    8) = (   0.0000000   0.1099236  -0.3401172), wk =   0.0164609
        k(    9) = (   0.0000000   0.2198471   0.0000000), wk =   0.0164609
        k(   10) = (   0.0000000   0.2198471   0.1133724), wk =   0.0329218
        k(   11) = (   0.0000000   0.2198471   0.2267448), wk =   0.0329218
        k(   12) = (   0.0000000   0.2198471  -0.3401172), wk =   0.0164609
        k(   13) = (   0.0000000   0.3297707   0.0000000), wk =   0.0164609
        k(   14) = (   0.0000000   0.3297707   0.1133724), wk =   0.0329218
        k(   15) = (   0.0000000   0.3297707   0.2267448), wk =   0.0329218
        k(   16) = (   0.0000000   0.3297707  -0.3401172), wk =   0.0164609
        k(   17) = (   0.0000000   0.4396942   0.0000000), wk =   0.0164609
        k(   18) = (   0.0000000   0.4396942   0.1133724), wk =   0.0329218
        k(   19) = (   0.0000000   0.4396942   0.2267448), wk =   0.0329218
        k(   20) = (   0.0000000   0.4396942  -0.3401172), wk =   0.0164609
        k(   21) = (   0.1099236   0.1099236   0.0000000), wk =   0.0164609
        k(   22) = (   0.1099236   0.1099236   0.1133724), wk =   0.0329218
        k(   23) = (   0.1099236   0.1099236   0.2267448), wk =   0.0329218
        k(   24) = (   0.1099236   0.1099236  -0.3401172), wk =   0.0164609
        k(   25) = (   0.1099236   0.2198471   0.0000000), wk =   0.0329218
        k(   26) = (   0.1099236   0.2198471   0.1133724), wk =   0.0658436
        k(   27) = (   0.1099236   0.2198471   0.2267448), wk =   0.0658436
        k(   28) = (   0.1099236   0.2198471  -0.3401172), wk =   0.0329218
        k(   29) = (   0.1099236   0.3297707   0.0000000), wk =   0.0329218
        k(   30) = (   0.1099236   0.3297707   0.1133724), wk =   0.0658436
        k(   31) = (   0.1099236   0.3297707   0.2267448), wk =   0.0658436
        k(   32) = (   0.1099236   0.3297707  -0.3401172), wk =   0.0329218
        k(   33) = (   0.1099236   0.4396942   0.0000000), wk =   0.0329218
        k(   34) = (   0.1099236   0.4396942   0.1133724), wk =   0.0658436
        k(   35) = (   0.1099236   0.4396942   0.2267448), wk =   0.0658436
        k(   36) = (   0.1099236   0.4396942  -0.3401172), wk =   0.0329218
        k(   37) = (   0.2198471   0.2198471   0.0000000), wk =   0.0164609
        k(   38) = (   0.2198471   0.2198471   0.1133724), wk =   0.0329218
        k(   39) = (   0.2198471   0.2198471   0.2267448), wk =   0.0329218
        k(   40) = (   0.2198471   0.2198471  -0.3401172), wk =   0.0164609
        k(   41) = (   0.2198471   0.3297707   0.0000000), wk =   0.0329218
        k(   42) = (   0.2198471   0.3297707   0.1133724), wk =   0.0658436
        k(   43) = (   0.2198471   0.3297707   0.2267448), wk =   0.0658436
        k(   44) = (   0.2198471   0.3297707  -0.3401172), wk =   0.0329218
        k(   45) = (   0.2198471   0.4396942   0.0000000), wk =   0.0329218
        k(   46) = (   0.2198471   0.4396942   0.1133724), wk =   0.0658436
        k(   47) = (   0.2198471   0.4396942   0.2267448), wk =   0.0658436
        k(   48) = (   0.2198471   0.4396942  -0.3401172), wk =   0.0329218
        k(   49) = (   0.3297707   0.3297707   0.0000000), wk =   0.0164609
        k(   50) = (   0.3297707   0.3297707   0.1133724), wk =   0.0329218
        k(   51) = (   0.3297707   0.3297707   0.2267448), wk =   0.0329218
        k(   52) = (   0.3297707   0.3297707  -0.3401172), wk =   0.0164609
        k(   53) = (   0.3297707   0.4396942   0.0000000), wk =   0.0329218
        k(   54) = (   0.3297707   0.4396942   0.1133724), wk =   0.0658436
        k(   55) = (   0.3297707   0.4396942   0.2267448), wk =   0.0658436
        k(   56) = (   0.3297707   0.4396942  -0.3401172), wk =   0.0329218
        k(   57) = (   0.4396942   0.4396942   0.0000000), wk =   0.0164609
        k(   58) = (   0.4396942   0.4396942   0.1133724), wk =   0.0329218
        k(   59) = (   0.4396942   0.4396942   0.2267448), wk =   0.0329218
        k(   60) = (   0.4396942   0.4396942  -0.3401172), wk =   0.0164609

     Initial potential from superposition of free atoms

     starting charge  183.99828, renormalised to  184.00000
     Starting wfcs are  116 randomized atomic wfcs

     Self-consistent Calculation

[...]

     total energy              =   -3130.47391993 Ry
     Harris-Foulkes estimate   =   -3130.47391993 Ry
     estimated scf accuracy    <          6.3E-10 Ry

     iteration # 13     ecut=   120.00 Ry     beta= 0.70
     Davidson diagonalization with overlap
     ethr =  3.42E-13,  avg # of iterations =  2.9

     End of self-consistent calculation

[...]

          k = 0.4397 0.4397-0.3401 ( 31298 PWs)   bands (ev):

   -66.2636 -66.2635 -66.2635 -66.2635 -30.6022 -30.6022 -30.6000 -30.6000
   -30.5465 -30.5465 -30.5460 -30.5460 -30.5178 -30.5178 -30.5157 -30.5157
   -20.4377 -20.4377 -20.4376 -20.4376 -20.4346 -20.4346 -20.4346 -20.4346
   -20.4321 -20.4321 -20.4320 -20.4320 -20.4079 -20.4079 -20.4079 -20.4079
   -20.3951 -20.3951 -20.3951 -20.3951 -20.3916 -20.3916 -20.3915 -20.3915
   -20.3893 -20.3893 -20.3893 -20.3893  -9.3928  -9.3928  -9.3526  -9.3526
    -8.4303  -8.4303  -8.4245  -8.4245  -7.8588  -7.8588  -7.8084  -7.8084
     1.2800   1.2801   1.3894   1.3894   3.0302   3.0302   3.0405   3.0405
     3.3174   3.3174   3.3378   3.3378   4.5345   4.5345   4.7288   4.7288
     5.2964   5.2964   5.4366   5.4366   5.8369   5.8369   5.9982   5.9983
     6.3019   6.3019   6.4309   6.4309   6.7749   6.7749   6.8858   6.8858
     7.6387   7.6387   7.6455   7.6455  11.1846  11.1846  11.2411  11.2411
    12.3339  12.3339  12.4391  12.4391  13.5190  13.5190  13.6148  13.6148
    14.9853  14.9853  15.1722  15.1722  17.9058  17.9058

     the Fermi energy is     8.7153 ev

!    total energy              =   -3130.47391993 Ry
     Harris-Foulkes estimate   =   -3130.47391993 Ry
     estimated scf accuracy    <          1.4E-11 Ry

     The total energy is the sum of the following terms:

     one-electron contribution =   -2373.56326478 Ry
     hartree contribution      =    1304.84113614 Ry
     xc contribution           =    -482.86612927 Ry
     ewald contribution        =   -1578.88566202 Ry
     smearing contrib. (-TS)   =      -0.00000000 Ry

     convergence has been achieved in  13 iterations

     Forces acting on atoms (cartesian axes, Ry/au):

     atom    1 type  1   force =     0.00000000    0.00000000   -0.02628073
     atom    2 type  1   force =     0.00000000    0.00000000    0.02628073
     atom    3 type  1   force =     0.00000000    0.00000000    0.02628073
     atom    4 type  1   force =     0.00000000    0.00000000   -0.02628073
     atom    5 type  2   force =     0.00000000    0.00000000    0.12229764
     atom    6 type  2   force =     0.00000000    0.00000000   -0.12229764
     atom    7 type  2   force =     0.00000000    0.00000000   -0.12229764
     atom    8 type  2   force =     0.00000000    0.00000000    0.12229764
     atom    9 type  2   force =     0.00136525   -0.00136525    0.00000000
     atom   10 type  2   force =    -0.00136525    0.00136525    0.00000000
     atom   11 type  2   force =    -0.00136525    0.00136525    0.00000000
     atom   12 type  2   force =     0.00136525   -0.00136525    0.00000000
     atom   13 type  2   force =     0.00136525    0.00136525    0.00000000
     atom   14 type  2   force =    -0.00136525   -0.00136525    0.00000000
     atom   15 type  2   force =    -0.00136525   -0.00136525    0.00000000
     atom   16 type  2   force =     0.00136525    0.00136525    0.00000000

     Total force =     0.000000     Total SCF correction =     0.000000

     Computing stress (Cartesian axis) and pressure

          total   stress  (Ry/bohr**3)                   (kbar)     P=    0.31
   0.00000383   0.00000000   0.00000000          0.56      0.00      0.00
   0.00000000   0.00000383   0.00000000          0.00      0.56      0.00
   0.00000000   0.00000000  -0.00000127          0.00      0.00     -0.19

     Writing output data file Landau_38.save/

     General routines

     Parallel routines

   This run was terminated on:  18:45: 6  21Nov2019

   JOB DONE.