     Program PWSCF v.6.4.1 starts on 19Nov2019 at 19: 9:27

     K-points division:     npool     =      40
     Reading input from rscf.in

     Current dimensions of program PWSCF are:
     Max number of different atomic species (ntypx) = 10
     Max number of k-points (npk) =  40000
     Max angular momentum in pseudopotentials (lmaxx) =  3

     Subspace diagonalization in iterative solution of the eigenvalue problem:
     a serial algorithm will be used

     Message from routine setup:
     using ibrav=0 with symmetry is DISCOURAGED, use correct ibrav instead

     bravais-lattice index     =            0
     lattice parameter (alat)  =       9.7849  a.u.
     unit-cell volume          =    1402.1515 (a.u.)^3
     number of atoms/cell      =           16
     number of atomic types    =            2
     number of electrons       =       184.00
     number of Kohn-Sham states=          110
     kinetic-energy cutoff     =     120.0000  Ry
     charge density cutoff     =     480.0000  Ry
     convergence threshold     =      1.0E-08
     mixing beta               =       0.7000
     number of iterations used =            8  plain     mixing
     Exchange-correlation      = SLA PW NOGX NOGC ( 1  4  0  0 0 0)
     nstep                     =           50

     celldm(1)=   9.784926  celldm(2)=   0.000000  celldm(3)=   0.000000
     celldm(4)=   0.000000  celldm(5)=   0.000000  celldm(6)=   0.000000

     crystal axes: (cart. coord. in units of alat)
               a(1) = (   1.000000   0.000000   0.000000 )
               a(2) = (   0.000000   1.000000   0.000000 )
               a(3) = (   0.000000   0.000000   1.496657 )

     reciprocal axes: (cart. coord. in units 2 pi/alat)
               b(1) = (  1.000000  0.000000  0.000000 )
               b(2) = (  0.000000  1.000000  0.000000 )
               b(3) = (  0.000000  0.000000  0.668156 )

     PseudoPot. # 1 for W  read from file:
     /cluster/scratch/mnoe/QE/pps/W_ONCV_LDA-4.0.upf
     MD5 check sum: ba0307d5d4cd419d6f1d13dc49d7c13a
     Pseudo is Norm-conserving + core correction, Zval = 28.0
     Generated using ONCVPSP code by D. R. Hamann
     Using radial grid of 1380 points,  8 beta functions with:
                l(1) =   0
                l(2) =   0
                l(3) =   1
                l(4) =   1
                l(5) =   2
                l(6) =   2
                l(7) =   3
                l(8) =   3

     PseudoPot. # 2 for O  read from file:
     /cluster/scratch/mnoe/QE/pps/O_ONCV_LDA-3.0.upf
     MD5 check sum: b55cdb4f45ae2203d24ad12cf8d61a31
     Pseudo is Norm-conserving + core correction, Zval =  6.0
     Generated using ONCVPSP code by D. R. Hamann
     Using radial grid of  926 points,  5 beta functions with:
                l(1) =   0
                l(2) =   0
                l(3) =   1
                l(4) =   1
                l(5) =   2

     atomic species   valence    mass     pseudopotential
        W             28.00   183.84000     W ( 1.00)
        O              6.00    15.99940     O ( 1.00)

     16 Sym. Ops., with inversion, found (14 have fractional translation)

   Cartesian axes

     site n.     atom                  positions (alat units)
         1           W   tau(   1) = (   0.2500000   0.2500000   0.3071427  )
         2           W   tau(   2) = (   0.7500000   0.7500000   1.1895144  )
         3           W   tau(   3) = (   0.7500000   0.7500000   0.4411859  )
         4           W   tau(   4) = (   0.2500000   0.2500000   1.0554711  )
         5           O   tau(   5) = (   0.2500000   0.2500000   0.6993224  )
         6           O   tau(   6) = (   0.7500000   0.7500000   0.7973346  )
         7           O   tau(   7) = (   0.7500000   0.7500000   0.0490061  )
         8           O   tau(   8) = (   0.2500000   0.2500000   1.4476509  )
         9           O   tau(   9) = (   0.5161157   0.4838843   0.3741643  )
        10           O   tau(  10) = (   0.4838843   0.5161157   1.1224928  )
        11           O   tau(  11) = (  -0.0161157   1.0161157   0.3741643  )
        12           O   tau(  12) = (   1.0161156  -0.0161157   1.1224928  )
        13           O   tau(  13) = (   1.0161157   0.5161157   0.3741643  )
        14           O   tau(  14) = (  -0.0161157   0.4838843   1.1224928  )
        15           O   tau(  15) = (   0.4838843  -0.0161157   0.3741643  )
        16           O   tau(  16) = (   0.5161157   1.0161156   1.1224928  )

     number of k points=    40  gaussian smearing, width (Ry)=  0.0007
                       cart. coord. in units 2pi/alat
        k(    1) = (   0.0000000   0.0000000   0.0000000), wk =   0.0092593
        k(    2) = (   0.0000000   0.0000000   0.1113593), wk =   0.0185185
        k(    3) = (   0.0000000   0.0000000   0.2227186), wk =   0.0185185
        k(    4) = (   0.0000000   0.0000000  -0.3340779), wk =   0.0092593
        k(    5) = (   0.0000000   0.1666667   0.0000000), wk =   0.0370370
        k(    6) = (   0.0000000   0.1666667   0.1113593), wk =   0.0740741
        k(    7) = (   0.0000000   0.1666667   0.2227186), wk =   0.0740741
        k(    8) = (   0.0000000   0.1666667  -0.3340779), wk =   0.0370370
        k(    9) = (   0.0000000   0.3333333   0.0000000), wk =   0.0370370
        k(   10) = (   0.0000000   0.3333333   0.1113593), wk =   0.0740741
        k(   11) = (   0.0000000   0.3333333   0.2227186), wk =   0.0740741
        k(   12) = (   0.0000000   0.3333333  -0.3340779), wk =   0.0370370
        k(   13) = (   0.0000000  -0.5000000   0.0000000), wk =   0.0185185
        k(   14) = (   0.0000000  -0.5000000   0.1113593), wk =   0.0370370
        k(   15) = (   0.0000000  -0.5000000   0.2227186), wk =   0.0370370
        k(   16) = (   0.0000000  -0.5000000  -0.3340779), wk =   0.0185185
        k(   17) = (   0.1666667   0.1666667   0.0000000), wk =   0.0370370
        k(   18) = (   0.1666667   0.1666667   0.1113593), wk =   0.0740741
        k(   19) = (   0.1666667   0.1666667   0.2227186), wk =   0.0740741
        k(   20) = (   0.1666667   0.1666667  -0.3340779), wk =   0.0370370
        k(   21) = (   0.1666667   0.3333333   0.0000000), wk =   0.0740741
        k(   22) = (   0.1666667   0.3333333   0.1113593), wk =   0.1481481
        k(   23) = (   0.1666667   0.3333333   0.2227186), wk =   0.1481481
        k(   24) = (   0.1666667   0.3333333  -0.3340779), wk =   0.0740741
        k(   25) = (   0.1666667  -0.5000000   0.0000000), wk =   0.0370370
        k(   26) = (   0.1666667  -0.5000000   0.1113593), wk =   0.0740741
        k(   27) = (   0.1666667  -0.5000000   0.2227186), wk =   0.0740741
        k(   28) = (   0.1666667  -0.5000000  -0.3340779), wk =   0.0370370
        k(   29) = (   0.3333333   0.3333333   0.0000000), wk =   0.0370370
        k(   30) = (   0.3333333   0.3333333   0.1113593), wk =   0.0740741
        k(   31) = (   0.3333333   0.3333333   0.2227186), wk =   0.0740741
        k(   32) = (   0.3333333   0.3333333  -0.3340779), wk =   0.0370370
        k(   33) = (   0.3333333  -0.5000000   0.0000000), wk =   0.0370370
        k(   34) = (   0.3333333  -0.5000000   0.1113593), wk =   0.0740741
        k(   35) = (   0.3333333  -0.5000000   0.2227186), wk =   0.0740741
        k(   36) = (   0.3333333  -0.5000000  -0.3340779), wk =   0.0370370
        k(   37) = (  -0.5000000  -0.5000000   0.0000000), wk =   0.0092593
        k(   38) = (  -0.5000000  -0.5000000   0.1113593), wk =   0.0185185
        k(   39) = (  -0.5000000  -0.5000000   0.2227186), wk =   0.0185185
        k(   40) = (  -0.5000000  -0.5000000  -0.3340779), wk =   0.0092593

     Initial potential from superposition of free atoms

     starting charge  183.99828, renormalised to  184.00000
     Starting wfcs are  116 randomized atomic wfcs

     Self-consistent Calculation

     iteration #  1     ecut=   120.00 Ry     beta= 0.70
     Davidson diagonalization with overlap
     ethr =  1.00E-02,  avg # of iterations =  4.2

     total energy              =   -3126.72710565 Ry
     Harris-Foulkes estimate   =   -3132.26443024 Ry
     estimated scf accuracy    <       7.00059288 Ry

[...]

     End of self-consistent calculation

          k = 0.0000 0.0000 0.0000 ( 31095 PWs)   bands (ev):

   -66.2043 -66.2039 -66.2027 -66.2023 -30.5852 -30.5852 -30.5818 -30.5818
   -30.4965 -30.4965 -30.4940 -30.4940 -30.4538 -30.4505 -30.3943 -30.3924
   -20.3708 -20.3708 -20.3707 -20.3706 -20.3702 -20.3702 -20.3702 -20.3702
   -20.3676 -20.3676 -20.3676 -20.3676 -20.3442 -20.3441 -20.3435 -20.3434
   -20.3354 -20.3349 -20.3319 -20.3319 -20.3307 -20.3307 -20.3295 -20.3294
   -20.3294 -20.3290 -20.3282 -20.3282 -10.0552  -9.7739  -9.1023  -9.0824
    -8.8403  -8.5784  -7.7798  -7.7798  -7.7626  -7.7626  -7.5703  -7.4182
     0.9553   0.9605   1.3517   1.4105   1.6175   1.7538   2.3129   2.4104
     2.5510   2.5510   3.8433   3.8433   4.9617   5.2910   5.2910   5.6111
     5.6111   5.9385   5.9385   6.0206   6.2050   6.2902   6.2902   6.8278
     6.8278   6.8754   7.1135   7.1746   7.1746   7.2523   7.2523   7.3828
     8.3726   8.3773   8.5152   8.5152   8.9505   8.9679   9.6344   9.6344
    12.3120  12.3120  13.4512  13.5353  13.5353  13.7196  13.7338  14.2337
    14.2337  14.5694  14.5702  14.6745  15.2929  16.4584

[...]

          k =-0.5000-0.5000 0.0000 ( 31144 PWs)   bands (ev):

[...]

     the Fermi energy is     8.6437 ev

!    total energy              =   -3130.45860233 Ry
     Harris-Foulkes estimate   =   -3130.45860233 Ry
     estimated scf accuracy    <          3.2E-09 Ry

     The total energy is the sum of the following terms:

     one-electron contribution =   -2370.74253612 Ry
     hartree contribution      =    1303.81731019 Ry
     xc contribution           =    -482.90750293 Ry
     ewald contribution        =   -1580.62587347 Ry
     smearing contrib. (-TS)   =      -0.00000000 Ry

     convergence has been achieved in  12 iterations

     Forces acting on atoms (cartesian axes, Ry/au):

     atom    1 type  1   force =     0.00000000    0.00000000   -0.06313898
     atom    2 type  1   force =     0.00000000    0.00000000    0.06313898
     atom    3 type  1   force =     0.00000000    0.00000000    0.06313898
     atom    4 type  1   force =     0.00000000    0.00000000   -0.06313898
     atom    5 type  2   force =     0.00000000    0.00000000    0.14222882
     atom    6 type  2   force =     0.00000000    0.00000000   -0.14222882
     atom    7 type  2   force =     0.00000000    0.00000000   -0.14222882
     atom    8 type  2   force =     0.00000000    0.00000000    0.14222882
     atom    9 type  2   force =     0.00330994   -0.00330994    0.00000000
     atom   10 type  2   force =    -0.00330994    0.00330994    0.00000000
     atom   11 type  2   force =    -0.00330994    0.00330994    0.00000000
     atom   12 type  2   force =     0.00330994   -0.00330994    0.00000000
     atom   13 type  2   force =     0.00330994    0.00330994    0.00000000
     atom   14 type  2   force =    -0.00330994   -0.00330994    0.00000000
     atom   15 type  2   force =    -0.00330994   -0.00330994    0.00000000
[...]
   0.00000000   0.00000000  -0.00067729          0.00      0.00    -99.63

     BFGS Geometry Optimization

     number of scf cycles    =   1
     number of bfgs steps    =   0

     enthalpy new            =   -3130.4586023253 Ry

     new trust radius        =       0.1268059822 bohr
     new conv_thr            =       0.0000000100 Ry

     new unit-cell volume =   1408.06969 a.u.^3 (   208.65440 Ang^3 )
     density =      7.38017 g/cm^3

CELL_PARAMETERS (angstrom)
   5.233371242   0.000000000   0.000000000
   0.000000000   5.233371242   0.000000000
   0.000000000   0.000000000   7.618412025

ATOMIC_POSITIONS (crystal)
W        0.250000000   0.250000000   0.205219132    0   0   0
W        0.750000023   0.750000023   0.794780883    0   0   0
W        0.750000023   0.750000023   0.294780883    0   0   0
W        0.250000000   0.250000000   0.705219117    0   0   0
O        0.250000000   0.250000000   0.467256283    0   0   0
O        0.750000023   0.750000023   0.532743717    0   0   0
O        0.750000023   0.750000023   0.032743730    0   0   0
O        0.250000000   0.250000000   0.967256283    0   0   0
O        0.516115679   0.483884275   0.250000000    0   0   0
O        0.483884321   0.516115725   0.750000000    0   0   0
O       -0.016115696   1.016115725   0.250000000    0   0   0
O        1.016115633  -0.016115662   0.750000000    0   0   0
O        1.016115725   0.516115679   0.250000000    0   0   0
O       -0.016115662   0.483884321   0.750000000    0   0   0
O        0.483884275  -0.016115696   0.250000000    0   0   0
O        0.516115725   1.016115633   0.750000000    0   0   0

     Writing output data file Landau_38.save/
     NEW-OLD atomic charge density approx. for the potential
     extrapolated charge  184.77335, renormalised to  184.00000

[...]

     enthalpy old            =   -3130.4586023253 Ry
     enthalpy new            =   -3130.4736868549 Ry

     CASE: enthalpy_new < enthalpy_old

[...]

     number of scf cycles    =   4
     number of bfgs steps    =   3

     enthalpy old            =   -3130.4737065009 Ry
     enthalpy new            =   -3130.4737094503 Ry

     CASE: enthalpy_new < enthalpy_old

     small trust_radius: resetting bfgs history

     new trust radius        =       0.0000738259 bohr
     new conv_thr            =            1.0E-10 Ry

     new unit-cell volume =   1407.16531 a.u.^3 (   208.52038 Ang^3 )
     density =      7.38492 g/cm^3

[...]

ATOMIC_POSITIONS (crystal)
W        0.250000000   0.250000000   0.205219132    0   0   0
W        0.750000023   0.750000023   0.794780883    0   0   0
W        0.750000023   0.750000023   0.294780883    0   0   0
W        0.250000000   0.250000000   0.705219117    0   0   0
O        0.250000000   0.250000000   0.467256283    0   0   0
O        0.750000023   0.750000023   0.532743717    0   0   0
O        0.750000023   0.750000023   0.032743730    0   0   0
O        0.250000000   0.250000000   0.967256283    0   0   0
O        0.516115679   0.483884275   0.250000000    0   0   0
O        0.483884321   0.516115725   0.750000000    0   0   0
O       -0.016115696   1.016115725   0.250000000    0   0   0
O        1.016115633  -0.016115662   0.750000000    0   0   0
O        1.016115725   0.516115679   0.250000000    0   0   0
O       -0.016115662   0.483884321   0.750000000    0   0   0
O        0.483884275  -0.016115696   0.250000000    0   0   0
O        0.516115725   1.016115633   0.750000000    0   0   0

     Writing output data file Landau_38.save/
     NEW-OLD atomic charge density approx. for the potential
     extrapolated charge  183.99770, renormalised to  184.00000

[...]

     Threshold (ethr) on eigenvalues was too large:
     Diagonalizing with lowered threshold

     Davidson diagonalization with overlap
     ethr =  2.84E-10,  avg # of iterations =  3.0

[...]

     bfgs converged in   5 scf cycles and   4 bfgs steps
     (criteria: energy <  1.0E-07 Ry, force <  1.0E-07Ry/Bohr, cell <  5.0E-01kbar)

     End of BFGS Geometry Optimization

     Final enthalpy =   -3130.4737094558 Ry
Begin final coordinates
     new unit-cell volume =   1407.16531 a.u.^3 (   208.52038 Ang^3 )
     density =      7.38492 g/cm^3

CELL_PARAMETERS (angstrom)
   5.233889347   0.000000000   0.000000000
   0.000000000   5.233889347   0.000000000
   0.000000000   0.000000000   7.612011560

ATOMIC_POSITIONS (crystal)
W        0.250000000   0.250000000   0.205219132    0   0   0
W        0.750000023   0.750000023   0.794780883    0   0   0
W        0.750000023   0.750000023   0.294780883    0   0   0
W        0.250000000   0.250000000   0.705219117    0   0   0
O        0.250000000   0.250000000   0.467256283    0   0   0
O        0.750000023   0.750000023   0.532743717    0   0   0
O        0.750000023   0.750000023   0.032743730    0   0   0
O        0.250000000   0.250000000   0.967256283    0   0   0
O        0.516115679   0.483884275   0.250000000    0   0   0
O        0.483884321   0.516115725   0.750000000    0   0   0
O       -0.016115696   1.016115725   0.250000000    0   0   0
O        1.016115633  -0.016115662   0.750000000    0   0   0
O        1.016115725   0.516115679   0.250000000    0   0   0
O       -0.016115662   0.483884321   0.750000000    0   0   0
O        0.483884275  -0.016115696   0.250000000    0   0   0
O        0.516115725   1.016115633   0.750000000    0   0   0
End final coordinates

     Writing output data file Landau_38.save/

     Final scf calculation at the relaxed structure.
     The G-vectors are recalculated for the final unit cell
     Results may differ from those at the preceding step.

     bravais-lattice index     =            0
     lattice parameter (alat)  =       9.7849  a.u.
     unit-cell volume          =    1407.1653 (a.u.)^3
     number of atoms/cell      =           16
     number of atomic types    =            2
     number of electrons       =       184.00
     number of Kohn-Sham states=          110
     kinetic-energy cutoff     =     120.0000  Ry
     charge density cutoff     =     480.0000  Ry
     convergence threshold     =      1.0E-10
     mixing beta               =       0.7000
     number of iterations used =            8  plain     mixing
     Exchange-correlation      = SLA PW NOGX NOGC ( 1  4  0  0 0 0)

     celldm(1)=   9.784926  celldm(2)=   0.000000  celldm(3)=   0.000000
     celldm(4)=   0.000000  celldm(5)=   0.000000  celldm(6)=   0.000000

     crystal axes: (cart. coord. in units of alat)
               a(1) = (   1.010801   0.000000   0.000000 )
               a(2) = (   0.000000   1.010801   0.000000 )
               a(3) = (   0.000000   0.000000   1.470079 )

     reciprocal axes: (cart. coord. in units 2 pi/alat)
               b(1) = (  0.989314  0.000000  0.000000 )
               b(2) = (  0.000000  0.989314  0.000000 )
               b(3) = (  0.000000  0.000000  0.680235 )

     PseudoPot. # 1 for W  read from file:
     /cluster/scratch/mnoe/QE/pps/W_ONCV_LDA-4.0.upf
     MD5 check sum: ba0307d5d4cd419d6f1d13dc49d7c13a
     Pseudo is Norm-conserving + core correction, Zval = 28.0
     Generated using ONCVPSP code by D. R. Hamann
     Using radial grid of 1380 points,  8 beta functions with:
                l(1) =   0
                l(2) =   0
                l(3) =   1
                l(4) =   1
                l(5) =   2
                l(6) =   2
                l(7) =   3
                l(8) =   3

     PseudoPot. # 2 for O  read from file:
     /cluster/scratch/mnoe/QE/pps/O_ONCV_LDA-3.0.upf
     MD5 check sum: b55cdb4f45ae2203d24ad12cf8d61a31
     Pseudo is Norm-conserving + core correction, Zval =  6.0
     Generated using ONCVPSP code by D. R. Hamann
     Using radial grid of  926 points,  5 beta functions with:
                l(1) =   0
                l(2) =   0
                l(3) =   1
                l(4) =   1
                l(5) =   2

     atomic species   valence    mass     pseudopotential
        W             28.00   183.84000     W ( 1.00)
        O              6.00    15.99940     O ( 1.00)

     16 Sym. Ops., with inversion, found (14 have fractional translation)

   Cartesian axes

     site n.     atom                  positions (alat units)
         1           W   tau(   1) = (   0.2527004   0.2527004   0.3016884  )
         2           W   tau(   2) = (   0.7581011   0.7581011   1.1683909  )
         3           W   tau(   3) = (   0.7581011   0.7581011   0.4333513  )
         4           W   tau(   4) = (   0.2527004   0.2527004   1.0367280  )
         5           O   tau(   5) = (   0.2527004   0.2527004   0.6869038  )
         6           O   tau(   6) = (   0.7581011   0.7581011   0.7831755  )
         7           O   tau(   7) = (   0.7581011   0.7581011   0.0481359  )
         8           O   tau(   8) = (   0.2527004   0.2527004   1.4219434  )
         9           O   tau(   9) = (   0.5216905   0.4891109   0.3675198  )
        10           O   tau(  10) = (   0.4891110   0.5216905   1.1025595  )
        11           O   tau(  11) = (  -0.0162898   1.0270912   0.3675198  )
        12           O   tau(  12) = (   1.0270911  -0.0162897   1.1025595  )
        13           O   tau(  13) = (   1.0270912   0.5216905   0.3675198  )
        14           O   tau(  14) = (  -0.0162897   0.4891110   1.1025595  )
        15           O   tau(  15) = (   0.4891109  -0.0162898   0.3675198  )
        16           O   tau(  16) = (   0.5216905   1.0270911   1.1025595  )

     number of k points=    40  gaussian smearing, width (Ry)=  0.0007
                       cart. coord. in units 2pi/alat
        k(    1) = (   0.0000000   0.0000000   0.0000000), wk =   0.0092593
        k(    2) = (   0.0000000   0.0000000   0.1133726), wk =   0.0185185
        k(    3) = (   0.0000000   0.0000000   0.2267451), wk =   0.0185185
        k(    4) = (   0.0000000   0.0000000  -0.3401177), wk =   0.0092593
        k(    5) = (   0.0000000   0.1648857   0.0000000), wk =   0.0370370
        k(    6) = (   0.0000000   0.1648857   0.1133726), wk =   0.0740741
        k(    7) = (   0.0000000   0.1648857   0.2267451), wk =   0.0740741
        k(    8) = (   0.0000000   0.1648857  -0.3401177), wk =   0.0370370
        k(    9) = (   0.0000000   0.3297713   0.0000000), wk =   0.0370370
        k(   10) = (   0.0000000   0.3297713   0.1133726), wk =   0.0740741
        k(   11) = (   0.0000000   0.3297713   0.2267451), wk =   0.0740741
        k(   12) = (   0.0000000   0.3297713  -0.3401177), wk =   0.0370370
        k(   13) = (   0.0000000  -0.4946570   0.0000000), wk =   0.0185185
        k(   14) = (   0.0000000  -0.4946570   0.1133726), wk =   0.0370370
        k(   15) = (   0.0000000  -0.4946570   0.2267451), wk =   0.0370370
        k(   16) = (   0.0000000  -0.4946570  -0.3401177), wk =   0.0185185
        k(   17) = (   0.1648857   0.1648857   0.0000000), wk =   0.0370370
        k(   18) = (   0.1648857   0.1648857   0.1133726), wk =   0.0740741
        k(   19) = (   0.1648857   0.1648857   0.2267451), wk =   0.0740741
        k(   20) = (   0.1648857   0.1648857  -0.3401177), wk =   0.0370370
        k(   21) = (   0.1648857   0.3297713   0.0000000), wk =   0.0740741
        k(   22) = (   0.1648857   0.3297713   0.1133726), wk =   0.1481481
        k(   23) = (   0.1648857   0.3297713   0.2267451), wk =   0.1481481
        k(   24) = (   0.1648857   0.3297713  -0.3401177), wk =   0.0740741
        k(   25) = (   0.1648857  -0.4946570   0.0000000), wk =   0.0370370
        k(   26) = (   0.1648857  -0.4946570   0.1133726), wk =   0.0740741
        k(   27) = (   0.1648857  -0.4946570   0.2267451), wk =   0.0740741
        k(   28) = (   0.1648857  -0.4946570  -0.3401177), wk =   0.0370370
        k(   29) = (   0.3297713   0.3297713   0.0000000), wk =   0.0370370
        k(   30) = (   0.3297713   0.3297713   0.1133726), wk =   0.0740741
        k(   31) = (   0.3297713   0.3297713   0.2267451), wk =   0.0740741
        k(   32) = (   0.3297713   0.3297713  -0.3401177), wk =   0.0370370
        k(   33) = (   0.3297713  -0.4946570   0.0000000), wk =   0.0370370
        k(   34) = (   0.3297713  -0.4946570   0.1133726), wk =   0.0740741
        k(   35) = (   0.3297713  -0.4946570   0.2267451), wk =   0.0740741
        k(   36) = (   0.3297713  -0.4946570  -0.3401177), wk =   0.0370370
        k(   37) = (  -0.4946570  -0.4946570   0.0000000), wk =   0.0092593
        k(   38) = (  -0.4946570  -0.4946570   0.1133726), wk =   0.0185185
        k(   39) = (  -0.4946570  -0.4946570   0.2267451), wk =   0.0185185
        k(   40) = (  -0.4946570  -0.4946570  -0.3401177), wk =   0.0092593

     Initial potential from superposition of free atoms

     starting charge  183.99828, renormalised to  184.00000
     Starting wfcs are  116 randomized atomic wfcs

     Self-consistent Calculation

[...]

     total energy              =   -3130.47380088 Ry
     Harris-Foulkes estimate   =   -3130.47380088 Ry
     estimated scf accuracy    <          6.2E-10 Ry

     iteration # 13     ecut=   120.00 Ry     beta= 0.70
     Davidson diagonalization with overlap
     ethr =  3.35E-13,  avg # of iterations =  2.9

     End of self-consistent calculation

[...]

          k = 0.3298-0.4947-0.3401 ( 31260 PWs)   bands (ev):

[...]

          k =-0.4947-0.4947-0.3401 ( 31312 PWs)   bands (ev):

   -66.2644 -66.2644 -66.2643 -66.2643 -30.6032 -30.6032 -30.6032 -30.6032
   -30.5467 -30.5467 -30.5467 -30.5467 -30.5164 -30.5164 -30.5164 -30.5164
   -20.4388 -20.4388 -20.4388 -20.4388 -20.4356 -20.4355 -20.4355 -20.4355
   -20.4331 -20.4331 -20.4331 -20.4331 -20.4087 -20.4087 -20.4087 -20.4087
   -20.3958 -20.3958 -20.3958 -20.3958 -20.3923 -20.3923 -20.3923 -20.3923
   -20.3900 -20.3900 -20.3900 -20.3900  -9.3868  -9.3868  -9.3868  -9.3868
    -8.4274  -8.4274  -8.4274  -8.4274  -7.8096  -7.8096  -7.8096  -7.8096
     1.2797   1.2797   1.2797   1.2797   3.0318   3.0318   3.0318   3.0318
     3.3178   3.3178   3.3179   3.3179   4.6957   4.6957   4.6958   4.6958
     5.4099   5.4099   5.4099   5.4099   5.9922   5.9922   5.9922   5.9922
     6.2977   6.2977   6.2977   6.2977   6.7773   6.7773   6.7773   6.7773
     7.6430   7.6430   7.6430   7.6430  11.1858  11.1858  11.1858  11.1858
    12.4167  12.4167  12.4167  12.4167  13.6137  13.6137  13.6137  13.6137
    14.9912  14.9912  14.9912  14.9912  18.0786  18.0786

     the Fermi energy is     8.8691 ev

!    total energy              =   -3130.47380088 Ry
     Harris-Foulkes estimate   =   -3130.47380088 Ry
     estimated scf accuracy    <          8.3E-12 Ry

     The total energy is the sum of the following terms:

     one-electron contribution =   -2373.55358838 Ry
     hartree contribution      =    1304.83471369 Ry
     xc contribution           =    -482.86637026 Ry
     ewald contribution        =   -1578.88855593 Ry
     smearing contrib. (-TS)   =      -0.00000000 Ry

     convergence has been achieved in  13 iterations

     Forces acting on atoms (cartesian axes, Ry/au):

     atom    1 type  1   force =     0.00000000    0.00000000   -0.02627315
     atom    2 type  1   force =     0.00000000    0.00000000    0.02627315
     atom    3 type  1   force =     0.00000000    0.00000000    0.02627315
     atom    4 type  1   force =     0.00000000    0.00000000   -0.02627315
     atom    5 type  2   force =     0.00000000    0.00000000    0.12230425
     atom    6 type  2   force =     0.00000000    0.00000000   -0.12230425
     atom    7 type  2   force =     0.00000000    0.00000000   -0.12230425
     atom    8 type  2   force =     0.00000000    0.00000000    0.12230425
     atom    9 type  2   force =     0.00136752   -0.00136752    0.00000000
     atom   10 type  2   force =    -0.00136752    0.00136752    0.00000000
     atom   11 type  2   force =    -0.00136752    0.00136752    0.00000000
     atom   12 type  2   force =     0.00136752   -0.00136752    0.00000000
     atom   13 type  2   force =     0.00136752    0.00136752    0.00000000
     atom   14 type  2   force =    -0.00136752   -0.00136752    0.00000000
     atom   15 type  2   force =    -0.00136752   -0.00136752    0.00000000
     atom   16 type  2   force =     0.00136752    0.00136752    0.00000000

     Total force =     0.000000     Total SCF correction =     0.000000

     Computing stress (Cartesian axis) and pressure

          total   stress  (Ry/bohr**3)                   (kbar)     P=    0.33
   0.00000395   0.00000000   0.00000000          0.58      0.00      0.00
   0.00000000   0.00000395   0.00000000          0.00      0.58      0.00
   0.00000000   0.00000000  -0.00000115          0.00      0.00     -0.17

     Writing output data file Landau_38.save/

     General routines

     Parallel routines

   This run was terminated on:  19:31:42  19Nov2019

   JOB DONE.