     Program PWSCF v.6.2 (svn rev. 14038) starts on 19Mar2020 at  1:24:49

     K-points division:     npool     =      40
     Reading input from scf.in

     Current dimensions of program PWSCF are:
     Max number of different atomic species (ntypx) = 10
     Max number of k-points (npk) =  40000
     Max angular momentum in pseudopotentials (lmaxx) =  3

     Subspace diagonalization in iterative solution of the eigenvalue problem:
     a serial algorithm will be used

     bravais-lattice index     =            0
     lattice parameter (alat)  =      13.8313  a.u.
     unit-cell volume          =    2790.3327 (a.u.)^3
     number of atoms/cell      =           32
     number of atomic types    =            2
     number of electrons       =       368.20
     number of Kohn-Sham states=          221
     kinetic-energy cutoff     =     120.0000  Ry
     charge density cutoff     =     480.0000  Ry
     convergence threshold     =      1.0E-08
     mixing beta               =       0.7000
     number of iterations used =            8  plain     mixing
     Exchange-correlation      = SLA PW NOGX NOGC ( 1  4  0  0 0 0)

     celldm(1)=  13.831250  celldm(2)=   0.000000  celldm(3)=   0.000000
     celldm(4)=   0.000000  celldm(5)=   0.000000  celldm(6)=   0.000000

     crystal axes: (cart. coord. in units of alat)
               a(1) = (   1.000000   0.000000   0.000000 )
               a(2) = (   0.000000   1.051453   0.000000 )
               a(3) = (   0.000000   0.000000   1.002956 )

     reciprocal axes: (cart. coord. in units 2 pi/alat)
               b(1) = (  1.000000  0.000000  0.000000 )
               b(2) = (  0.000000  0.951065  0.000000 )
               b(3) = (  0.000000  0.000000  0.997052 )

     PseudoPot. # 1 for W  read from file:
     /cluster/scratch/mnoe/QE/pps/W_ONCV_LDA-4.0.upf
     MD5 check sum: ba0307d5d4cd419d6f1d13dc49d7c13a
     Pseudo is Norm-conserving + core correction, Zval = 28.0
     Generated using ONCVPSP code by D. R. Hamann
     Using radial grid of 1380 points,  8 beta functions with:
                l(1) =   0
                l(2) =   0
                l(3) =   1
                l(4) =   1
                l(5) =   2
                l(6) =   2
                l(7) =   3
                l(8) =   3

     PseudoPot. # 2 for O  read from file:
     /cluster/scratch/mnoe/QE/pps/O_ONCV_LDA-3.0.upf
     MD5 check sum: a1bd6164e7280c17a38c229939bfbd54
     Pseudo is Norm-conserving + core correction, Zval =  6.0
     Generated using ONCVPSP code by D. R. Hamann
     Using radial grid of  926 points,  5 beta functions with:
                l(1) =   0
                l(2) =   0
                l(3) =   1
                l(4) =   1
                l(5) =   2

     atomic species   valence    mass     pseudopotential
        W             28.00   183.84000     W ( 1.00)
        O              6.00    15.99940     O ( 1.00)

      8 Sym. Ops., with inversion, found ( 6 have fractional translation)

   Cartesian axes

     site n.     atom                  positions (alat units)
         1           W   tau(   1) = (   0.2389000   0.2963624   0.0105110  )
         2           W   tau(   2) = (   0.7611000   0.7550902   0.9924453  )
         3           W   tau(   3) = (   0.2611000   0.2293639   0.5119891  )
         4           W   tau(   4) = (   0.7389000   0.8220887   0.4909672  )
         5           W   tau(   5) = (   0.7611000   0.2963624   0.4909672  )
         6           W   tau(   6) = (   0.2389000   0.7550902   0.5119891  )
         7           W   tau(   7) = (   0.7389000   0.2293639   0.9924453  )
         8           W   tau(   8) = (   0.2611000   0.8220887   0.0105110  )
         9           O   tau(   9) = (   0.2295300   0.0087481   0.0032696  )
        10           O   tau(  10) = (   0.7704700   1.0427045   0.9996866  )
        11           O   tau(  11) = (   0.2704700   0.5169782   0.5047478  )
        12           O   tau(  12) = (   0.7295300   0.5344744   0.4982085  )
        13           O   tau(  13) = (   0.7704700   0.0087481   0.4982085  )
        14           O   tau(  14) = (   0.2295300   1.0427045   0.5047478  )
        15           O   tau(  15) = (   0.7295300   0.5169782   0.9996866  )
        16           O   tau(  16) = (   0.2704700   0.5344744   0.0032696  )
        17           O   tau(  17) = (   0.5030300   0.2407721   0.4508690  )
        18           O   tau(  18) = (   0.4969700   0.8106804   0.5520873  )
        19           O   tau(  19) = (   0.9969700   0.2849541   0.9523471  )
        20           O   tau(  20) = (   0.0030301   0.7664984   0.0506092  )
        21           O   tau(  21) = (   0.4969700   0.2407721   0.0506092  )
        22           O   tau(  22) = (   0.5030300   0.8106804   0.9523471  )
        23           O   tau(  23) = (   0.0030301   0.2849541   0.5520873  )
        24           O   tau(  24) = (   0.9969700   0.7664984   0.4508690  )
        25           O   tau(  25) = (   0.6995400   0.2580370   0.7476036  )
        26           O   tau(  26) = (   0.3004600   0.7934157   0.2553527  )
        27           O   tau(  27) = (   0.8004600   0.2676893   0.2461254  )
        28           O   tau(  28) = (   0.1995400   0.7837633   0.7568307  )
        29           O   tau(  29) = (   0.3004600   0.2580370   0.7568307  )
        30           O   tau(  30) = (   0.6995400   0.7934157   0.2461254  )
        31           O   tau(  31) = (   0.1995400   0.2676893   0.2553527  )
        32           O   tau(  32) = (   0.8004600   0.7837633   0.7476036  )

     number of k points=    64  gaussian smearing, width (Ry)=  0.0007
                       cart. coord. in units 2pi/alat
        k(    1) = (   0.0000000   0.0000000   0.0000000), wk =   0.0092593
        k(    2) = (   0.0000000   0.0000000   0.1661754), wk =   0.0185185
        k(    3) = (   0.0000000   0.0000000   0.3323508), wk =   0.0185185
        k(    4) = (   0.0000000   0.0000000  -0.4985262), wk =   0.0092593
        k(    5) = (   0.0000000   0.1585109   0.0000000), wk =   0.0185185
        k(    6) = (   0.0000000   0.1585109   0.1661754), wk =   0.0370370
        k(    7) = (   0.0000000   0.1585109   0.3323508), wk =   0.0370370
        k(    8) = (   0.0000000   0.1585109  -0.4985262), wk =   0.0185185
        k(    9) = (   0.0000000   0.3170217   0.0000000), wk =   0.0185185
        k(   10) = (   0.0000000   0.3170217   0.1661754), wk =   0.0370370
        k(   11) = (   0.0000000   0.3170217   0.3323508), wk =   0.0370370
        k(   12) = (   0.0000000   0.3170217  -0.4985262), wk =   0.0185185
        k(   13) = (   0.0000000  -0.4755326   0.0000000), wk =   0.0092593
        k(   14) = (   0.0000000  -0.4755326   0.1661754), wk =   0.0185185
        k(   15) = (   0.0000000  -0.4755326   0.3323508), wk =   0.0185185
        k(   16) = (   0.0000000  -0.4755326  -0.4985262), wk =   0.0092593
        k(   17) = (   0.1666667   0.0000000   0.0000000), wk =   0.0185185
        k(   18) = (   0.1666667   0.0000000   0.1661754), wk =   0.0370370
        k(   19) = (   0.1666667   0.0000000   0.3323508), wk =   0.0370370
        k(   20) = (   0.1666667   0.0000000  -0.4985262), wk =   0.0185185
        k(   21) = (   0.1666667   0.1585109   0.0000000), wk =   0.0370370
        k(   22) = (   0.1666667   0.1585109   0.1661754), wk =   0.0740741
        k(   23) = (   0.1666667   0.1585109   0.3323508), wk =   0.0740741
        k(   24) = (   0.1666667   0.1585109  -0.4985262), wk =   0.0370370
        k(   25) = (   0.1666667   0.3170217   0.0000000), wk =   0.0370370
        k(   26) = (   0.1666667   0.3170217   0.1661754), wk =   0.0740741
        k(   27) = (   0.1666667   0.3170217   0.3323508), wk =   0.0740741
        k(   28) = (   0.1666667   0.3170217  -0.4985262), wk =   0.0370370
        k(   29) = (   0.1666667  -0.4755326   0.0000000), wk =   0.0185185
        k(   30) = (   0.1666667  -0.4755326   0.1661754), wk =   0.0370370
        k(   31) = (   0.1666667  -0.4755326   0.3323508), wk =   0.0370370
        k(   32) = (   0.1666667  -0.4755326  -0.4985262), wk =   0.0185185
        k(   33) = (   0.3333333   0.0000000   0.0000000), wk =   0.0185185
        k(   34) = (   0.3333333   0.0000000   0.1661754), wk =   0.0370370
        k(   35) = (   0.3333333   0.0000000   0.3323508), wk =   0.0370370
        k(   36) = (   0.3333333   0.0000000  -0.4985262), wk =   0.0185185
        k(   37) = (   0.3333333   0.1585109   0.0000000), wk =   0.0370370
        k(   38) = (   0.3333333   0.1585109   0.1661754), wk =   0.0740741
        k(   39) = (   0.3333333   0.1585109   0.3323508), wk =   0.0740741
        k(   40) = (   0.3333333   0.1585109  -0.4985262), wk =   0.0370370
        k(   41) = (   0.3333333   0.3170217   0.0000000), wk =   0.0370370
        k(   42) = (   0.3333333   0.3170217   0.1661754), wk =   0.0740741
        k(   43) = (   0.3333333   0.3170217   0.3323508), wk =   0.0740741
        k(   44) = (   0.3333333   0.3170217  -0.4985262), wk =   0.0370370
        k(   45) = (   0.3333333  -0.4755326   0.0000000), wk =   0.0185185
        k(   46) = (   0.3333333  -0.4755326   0.1661754), wk =   0.0370370
        k(   47) = (   0.3333333  -0.4755326   0.3323508), wk =   0.0370370
        k(   48) = (   0.3333333  -0.4755326  -0.4985262), wk =   0.0185185
        k(   49) = (  -0.5000000   0.0000000   0.0000000), wk =   0.0092593
        k(   50) = (  -0.5000000   0.0000000   0.1661754), wk =   0.0185185
        k(   51) = (  -0.5000000   0.0000000   0.3323508), wk =   0.0185185
        k(   52) = (  -0.5000000   0.0000000  -0.4985262), wk =   0.0092593
        k(   53) = (  -0.5000000   0.1585109   0.0000000), wk =   0.0185185
        k(   54) = (  -0.5000000   0.1585109   0.1661754), wk =   0.0370370
        k(   55) = (  -0.5000000   0.1585109   0.3323508), wk =   0.0370370
        k(   56) = (  -0.5000000   0.1585109  -0.4985262), wk =   0.0185185
        k(   57) = (  -0.5000000   0.3170217   0.0000000), wk =   0.0185185
        k(   58) = (  -0.5000000   0.3170217   0.1661754), wk =   0.0370370
        k(   59) = (  -0.5000000   0.3170217   0.3323508), wk =   0.0370370
        k(   60) = (  -0.5000000   0.3170217  -0.4985262), wk =   0.0185185
        k(   61) = (  -0.5000000  -0.4755326   0.0000000), wk =   0.0092593
        k(   62) = (  -0.5000000  -0.4755326   0.1661754), wk =   0.0185185
        k(   63) = (  -0.5000000  -0.4755326   0.3323508), wk =   0.0185185
        k(   64) = (  -0.5000000  -0.4755326  -0.4985262), wk =   0.0092593

     Initial potential from superposition of free atoms

     starting charge  367.99656, renormalised to  368.20000
     Starting wfc are  232 randomized atomic wfcs

     Self-consistent Calculation

     iteration #  1     ecut=   120.00 Ry     beta= 0.70
     Davidson diagonalization with overlap
     ethr =  1.00E-02,  avg # of iterations =  5.0

     total energy              =   -6253.83106271 Ry
     Harris-Foulkes estimate   =   -6264.45800037 Ry
     estimated scf accuracy    <      13.43507471 Ry

[...]

     iteration #  7     ecut=   120.00 Ry     beta= 0.70
     Davidson diagonalization with overlap
     c_bands:  1 eigenvalues not converged
     ethr =  1.57E-06,  avg # of iterations =  5.0

[...]

     total energy              =   -6260.96946698 Ry
     Harris-Foulkes estimate   =   -6260.96946699 Ry
     estimated scf accuracy    <       0.00000002 Ry

     iteration # 13     ecut=   120.00 Ry     beta= 0.70
     Davidson diagonalization with overlap
     ethr =  5.43E-12,  avg # of iterations =  3.0

     End of self-consistent calculation

          k = 0.0000 0.0000 0.0000 ( 61859 PWs)   bands (ev):

   -66.0222 -66.0218 -66.0213 -66.0212 -66.0208 -66.0207 -66.0202 -66.0198
   -30.4359 -30.4302 -30.4290 -30.4235 -30.3935 -30.3853 -30.3839 -30.3807
   -30.3798 -30.3685 -30.3651 -30.3639 -30.3626 -30.3548 -30.3469 -30.3406
   -30.2798 -30.2791 -30.2780 -30.2780 -30.2729 -30.2682 -30.2660 -30.2619
   -20.1779 -20.1777 -20.1776 -20.1775 -20.1775 -20.1773 -20.1772 -20.1771
   -20.1619 -20.1616 -20.1615 -20.1612 -20.1591 -20.1587 -20.1586 -20.1581
   -20.1578 -20.1575 -20.1573 -20.1569 -20.1561 -20.1556 -20.1556 -20.1552
   -20.1550 -20.1546 -20.1543 -20.1542 -20.1541 -20.1539 -20.1535 -20.1534
   -20.1459 -20.1456 -20.1455 -20.1453 -20.1411 -20.1408 -20.1407 -20.1407
   -20.1407 -20.1404 -20.1396 -20.1396 -20.1340 -20.1340 -20.1329 -20.1328
   -20.1327 -20.1327 -20.1314 -20.1311 -20.1293 -20.1292 -20.1281 -20.1279
    -9.8551  -9.5593  -9.4084  -9.4077  -9.1292  -9.1092  -8.9803  -8.9223
    -8.9066  -8.7792  -8.7453  -8.7423  -7.7939  -7.7176  -7.7078  -7.6885
    -7.6823  -7.6771  -7.6734  -7.6333  -7.5611  -7.5463  -7.5332  -7.5277
     1.3502   1.3558   1.4177   1.4272   1.4402   1.4712   1.4931   1.7243
     1.7251   1.7578   1.7721   1.9859   2.4817   2.5665   2.6510   2.6726
     2.7967   2.8332   4.2079   4.2585   4.4417   4.5408   4.8138   4.8803
     4.9142   4.9208   4.9237   4.9338   5.1524   5.1663   5.2522   5.4973
     5.5750   5.5777   5.6369   5.6458   5.6749   5.7100   5.7983   5.8871
     5.9367   5.9419   5.9523   5.9657   6.0534   6.0571   6.1018   6.1912
     6.2106   6.3091   6.3459   6.6230   6.6399   6.8740   6.8978   6.9222
     6.9619   6.9769   7.0170   7.0673   7.0942   7.1421   7.3724   7.4169
     7.4350   7.4763   7.8319   7.8500   8.0804   8.1457   8.1748   8.2373
     9.5722   9.5844  10.1582  10.1837  10.1928  10.2218  12.3184  12.3295
    12.4344  12.4681  12.5335  12.5347  12.6695  12.7074  12.7197  12.8911
    13.3286  13.3878  13.4105  13.4810  13.7759  13.9512  14.2068  14.2109
    14.4703  14.5467  14.7581  15.0038  15.5184  15.5428  15.6304  16.0885
    16.1476  16.8652  17.0570  17.1348  17.6393

[...]

          k = 0.3333-0.4755-0.4985 ( 61900 PWs)   bands (ev):

[...]

          k =-0.5000 0.0000 0.0000 ( 61920 PWs)   bands (ev):

[...]

          k =-0.5000-0.4755-0.4985 ( 61952 PWs)   bands (ev):

   -66.0210 -66.0210 -66.0210 -66.0210 -66.0210 -66.0210 -66.0210 -66.0210
   -30.4009 -30.4009 -30.4009 -30.4009 -30.4001 -30.4001 -30.4001 -30.4001
   -30.3321 -30.3321 -30.3320 -30.3320 -30.3294 -30.3294 -30.3294 -30.3294
   -30.3119 -30.3119 -30.3119 -30.3118 -30.3093 -30.3093 -30.3093 -30.3093
   -20.1775 -20.1775 -20.1775 -20.1775 -20.1775 -20.1775 -20.1774 -20.1774
   -20.1600 -20.1600 -20.1600 -20.1600 -20.1598 -20.1598 -20.1598 -20.1598
   -20.1566 -20.1566 -20.1566 -20.1566 -20.1564 -20.1564 -20.1563 -20.1563
   -20.1547 -20.1547 -20.1547 -20.1547 -20.1545 -20.1545 -20.1544 -20.1544
   -20.1432 -20.1431 -20.1431 -20.1431 -20.1429 -20.1429 -20.1429 -20.1429
   -20.1368 -20.1368 -20.1368 -20.1368 -20.1366 -20.1366 -20.1366 -20.1366
   -20.1307 -20.1307 -20.1306 -20.1306 -20.1306 -20.1306 -20.1306 -20.1306
    -8.8542  -8.8542  -8.8542  -8.8542  -8.8328  -8.8328  -8.8328  -8.8328
    -8.3284  -8.3284  -8.3284  -8.3283  -8.2987  -8.2987  -8.2987  -8.2987
    -8.2477  -8.2477  -8.2477  -8.2477  -8.2180  -8.2180  -8.2180  -8.2179
     3.0011   3.0011   3.0011   3.0011   3.0845   3.0845   3.0845   3.0845
     3.2341   3.2341   3.2341   3.2341   3.3526   3.3526   3.3526   3.3527
     3.4477   3.4477   3.4477   3.4477   3.6196   3.6196   3.6196   3.6196
     4.2375   4.2375   4.2375   4.2375   4.2590   4.2590   4.2590   4.2590
     4.4467   4.4467   4.4467   4.4467   4.5055   4.5055   4.5055   4.5055
     4.5778   4.5778   4.5778   4.5778   4.6426   4.6426   4.6426   4.6426
     7.1815   7.1815   7.1815   7.1815   7.3544   7.3544   7.3544   7.3545
     7.4107   7.4107   7.4107   7.4107   7.4649   7.4649   7.4649   7.4650
     7.6408   7.6408   7.6408   7.6408   7.7065   7.7065   7.7065   7.7065
    11.9587  11.9587  11.9587  11.9587  11.9763  11.9763  11.9764  11.9764
    12.3027  12.3027  12.3027  12.3027  12.4676  12.4676  12.4676  12.4676
    12.6285  12.6285  12.6285  12.6285  12.7170  12.7170  12.7170  12.7170
    17.1698  17.1698  17.1698  17.1698  17.2472  17.2473  17.2473  17.2473
    17.4555  17.4555  17.4555  17.4556  17.5121

     the Fermi energy is     9.8871 ev

!    total energy              =   -6260.96946698 Ry
     Harris-Foulkes estimate   =   -6260.96946698 Ry
     estimated scf accuracy    <          9.8E-10 Ry

     The total energy is the sum of the following terms:

     one-electron contribution =   -4694.78681639 Ry
     hartree contribution      =    2585.97587912 Ry
     xc contribution           =    -965.88497344 Ry
     ewald contribution        =   -3186.27352888 Ry
     smearing contrib. (-TS)   =      -0.00002738 Ry

     convergence has been achieved in  13 iterations

     Writing output data file Landau_12.save

     General routines

     Parallel routines

   This run was terminated on:   1:47:15  19Mar2020

   JOB DONE.