     Program PWSCF v.6.2 (svn rev. 14038) starts on  5Mar2020 at 17:30:31

     K-points division:     npool     =      64
     Reading input from rscf.in

     Current dimensions of program PWSCF are:
     Max number of different atomic species (ntypx) = 10
     Max number of k-points (npk) =  40000
     Max angular momentum in pseudopotentials (lmaxx) =  3

     Subspace diagonalization in iterative solution of the eigenvalue problem:
     a serial algorithm will be used

     bravais-lattice index     =            0
     lattice parameter (alat)  =      13.8397  a.u.
     unit-cell volume          =    2804.9816 (a.u.)^3
     number of atoms/cell      =           32
     number of atomic types    =            2
     number of electrons       =       368.00
     number of Kohn-Sham states=          221
     kinetic-energy cutoff     =     120.0000  Ry
     charge density cutoff     =     480.0000  Ry
     convergence threshold     =      1.0E-08
     mixing beta               =       0.7000
     number of iterations used =            8  plain     mixing
     Exchange-correlation      = SLA PW NOGX NOGC ( 1  4  0  0 0 0)
     nstep                     =           50

     celldm(1)=  13.839685  celldm(2)=   0.000000  celldm(3)=   0.000000
     celldm(4)=   0.000000  celldm(5)=   0.000000  celldm(6)=   0.000000

     crystal axes: (cart. coord. in units of alat)
               a(1) = (   1.000000   0.000000   0.000000 )
               a(2) = (   0.000000   1.058160   0.000000 )
               a(3) = (   0.000000   0.000000   1.000000 )

     reciprocal axes: (cart. coord. in units 2 pi/alat)
               b(1) = (  1.000000  0.000000  0.000000 )
               b(2) = (  0.000000  0.945037  0.000000 )
               b(3) = (  0.000000  0.000000  1.000000 )

     PseudoPot. # 1 for W  read from file:
     /cluster/scratch/mnoe/QE/pps/W_ONCV_LDA-4.0.upf
     MD5 check sum: ba0307d5d4cd419d6f1d13dc49d7c13a
     Pseudo is Norm-conserving + core correction, Zval = 28.0
     Generated using ONCVPSP code by D. R. Hamann
     Using radial grid of 1380 points,  8 beta functions with:
                l(1) =   0
                l(2) =   0
                l(3) =   1
                l(4) =   1
                l(5) =   2
                l(6) =   2
                l(7) =   3
                l(8) =   3

     PseudoPot. # 2 for O  read from file:
     /cluster/scratch/mnoe/QE/pps/O_ONCV_LDA-3.0.upf
     MD5 check sum: a1bd6164e7280c17a38c229939bfbd54
     Pseudo is Norm-conserving + core correction, Zval =  6.0
     Generated using ONCVPSP code by D. R. Hamann
     Using radial grid of  926 points,  5 beta functions with:
                l(1) =   0
                l(2) =   0
                l(3) =   1
                l(4) =   1
                l(5) =   2

     atomic species   valence    mass     pseudopotential
        W             28.00   183.84000     W ( 1.00)
        O              6.00    15.99940     O ( 1.00)

      8 Sym. Ops., with inversion, found ( 6 have fractional translation)

   Cartesian axes

     site n.     atom                  positions (alat units)
         1           W   tau(   1) = (   0.2467600   0.2995628   0.0030600  )
         2           W   tau(   2) = (   0.7532400   0.7585973   0.9969400  )
         3           W   tau(   3) = (   0.2532400   0.2295172   0.5030600  )
         4           W   tau(   4) = (   0.7467600   0.8286428   0.4969400  )
         5           W   tau(   5) = (   0.7532400   0.2995628   0.4969400  )
         6           W   tau(   6) = (   0.2467600   0.7585973   0.5030600  )
         7           W   tau(   7) = (   0.7467600   0.2295172   0.9969400  )
         8           W   tau(   8) = (   0.2532400   0.8286428   0.0030600  )
         9           O   tau(   9) = (   0.2440300   0.0112824   0.0009500  )
        10           O   tau(  10) = (   0.7559700   1.0468777   0.9990500  )
        11           O   tau(  11) = (   0.2559700   0.5177977   0.5009500  )
        12           O   tau(  12) = (   0.7440300   0.5403624   0.4990500  )
        13           O   tau(  13) = (   0.7559700   0.0112824   0.4990500  )
        14           O   tau(  14) = (   0.2440300   1.0468777   0.5009500  )
        15           O   tau(  15) = (   0.7440300   0.5177977   0.9990500  )
        16           O   tau(  16) = (   0.2559700   0.5403624   0.0009500  )
        17           O   tau(  17) = (   0.5008800   0.2580535   0.4559380  )
        18           O   tau(  18) = (   0.4991200   0.8001065   0.5440620  )
        19           O   tau(  19) = (   0.9991200   0.2710265   0.9559380  )
        20           O   tau(  20) = (   0.0008800   0.7871335   0.0440620  )
        21           O   tau(  21) = (   0.4991200   0.2580535   0.0440620  )
        22           O   tau(  22) = (   0.5008800   0.8001065   0.9559380  )
        23           O   tau(  23) = (   0.0008800   0.2710265   0.5440620  )
        24           O   tau(  24) = (   0.9991200   0.7871335   0.4559380  )
        25           O   tau(  25) = (   0.7059380   0.2631221   0.7486600  )
        26           O   tau(  26) = (   0.2940620   0.7950380   0.2513400  )
        27           O   tau(  27) = (   0.7940620   0.2659580   0.2486601  )
        28           O   tau(  28) = (   0.2059380   0.7922021   0.7513400  )
        29           O   tau(  29) = (   0.2940620   0.2631221   0.7513400  )
        30           O   tau(  30) = (   0.7059380   0.7950380   0.2486601  )
        31           O   tau(  31) = (   0.2059380   0.2659580   0.2513400  )
        32           O   tau(  32) = (   0.7940620   0.7922021   0.7486600  )

     number of k points=    64  gaussian smearing, width (Ry)=  0.0007
                       cart. coord. in units 2pi/alat
        k(    1) = (   0.0000000   0.0000000   0.0000000), wk =   0.0092593
        k(    2) = (   0.0000000   0.0000000   0.1666667), wk =   0.0185185
        k(    3) = (   0.0000000   0.0000000   0.3333333), wk =   0.0185185
        k(    4) = (   0.0000000   0.0000000  -0.5000000), wk =   0.0092593
        k(    5) = (   0.0000000   0.1575061   0.0000000), wk =   0.0185185
        k(    6) = (   0.0000000   0.1575061   0.1666667), wk =   0.0370370
        k(    7) = (   0.0000000   0.1575061   0.3333333), wk =   0.0370370
        k(    8) = (   0.0000000   0.1575061  -0.5000000), wk =   0.0185185
        k(    9) = (   0.0000000   0.3150122   0.0000000), wk =   0.0185185
        k(   10) = (   0.0000000   0.3150122   0.1666667), wk =   0.0370370
        k(   11) = (   0.0000000   0.3150122   0.3333333), wk =   0.0370370
        k(   12) = (   0.0000000   0.3150122  -0.5000000), wk =   0.0185185
        k(   13) = (   0.0000000  -0.4725183   0.0000000), wk =   0.0092593
        k(   14) = (   0.0000000  -0.4725183   0.1666667), wk =   0.0185185
        k(   15) = (   0.0000000  -0.4725183   0.3333333), wk =   0.0185185
        k(   16) = (   0.0000000  -0.4725183  -0.5000000), wk =   0.0092593
        k(   17) = (   0.1666667   0.0000000   0.1666667), wk =   0.0370370
        k(   18) = (   0.1666667   0.0000000   0.3333333), wk =   0.0370370
        k(   19) = (   0.1666667   0.0000000  -0.5000000), wk =   0.0185185
        k(   20) = (   0.1666667   0.1575061   0.1666667), wk =   0.0740741
        k(   21) = (   0.1666667   0.1575061   0.3333333), wk =   0.0740741
        k(   22) = (   0.1666667   0.1575061  -0.5000000), wk =   0.0370370
        k(   23) = (   0.1666667   0.3150122   0.1666667), wk =   0.0740741
        k(   24) = (   0.1666667   0.3150122   0.3333333), wk =   0.0740741
        k(   25) = (   0.1666667   0.3150122  -0.5000000), wk =   0.0370370
        k(   26) = (   0.1666667  -0.4725183   0.1666667), wk =   0.0370370
        k(   27) = (   0.1666667  -0.4725183   0.3333333), wk =   0.0370370
        k(   28) = (   0.1666667  -0.4725183  -0.5000000), wk =   0.0185185
        k(   29) = (   0.3333333   0.0000000   0.3333333), wk =   0.0370370
        k(   30) = (   0.3333333   0.0000000  -0.5000000), wk =   0.0185185
        k(   31) = (   0.3333333   0.1575061   0.3333333), wk =   0.0740741
        k(   32) = (   0.3333333   0.1575061  -0.5000000), wk =   0.0370370
        k(   33) = (   0.3333333   0.3150122   0.3333333), wk =   0.0740741
        k(   34) = (   0.3333333   0.3150122  -0.5000000), wk =   0.0370370
        k(   35) = (   0.3333333  -0.4725183   0.3333333), wk =   0.0370370
        k(   36) = (   0.3333333  -0.4725183  -0.5000000), wk =   0.0185185
        k(   37) = (  -0.5000000   0.0000000  -0.5000000), wk =   0.0092593
        k(   38) = (  -0.5000000   0.1575061  -0.5000000), wk =   0.0185185
        k(   39) = (  -0.5000000   0.3150122  -0.5000000), wk =   0.0185185
        k(   40) = (  -0.5000000  -0.4725183  -0.5000000), wk =   0.0092593
        k(   41) = (   0.1666667   0.0000000   0.0000000), wk =   0.0185185
        k(   42) = (   0.3333333   0.0000000   0.0000000), wk =   0.0185185
        k(   43) = (  -0.5000000   0.0000000   0.0000000), wk =   0.0092593
        k(   44) = (   0.1666667  -0.1575061   0.0000000), wk =   0.0370370
        k(   45) = (   0.3333333  -0.1575061   0.0000000), wk =   0.0370370
        k(   46) = (  -0.5000000  -0.1575061   0.0000000), wk =   0.0185185
        k(   47) = (   0.1666667  -0.3150122   0.0000000), wk =   0.0370370
        k(   48) = (   0.3333333  -0.3150122   0.0000000), wk =   0.0370370
        k(   49) = (  -0.5000000  -0.3150122   0.0000000), wk =   0.0185185
        k(   50) = (   0.1666667   0.4725183   0.0000000), wk =   0.0185185
        k(   51) = (   0.3333333   0.4725183   0.0000000), wk =   0.0185185
        k(   52) = (  -0.5000000   0.4725183   0.0000000), wk =   0.0092593
        k(   53) = (   0.3333333   0.0000000   0.1666667), wk =   0.0370370
        k(   54) = (  -0.5000000   0.0000000   0.1666667), wk =   0.0185185
        k(   55) = (   0.3333333  -0.1575061   0.1666667), wk =   0.0740741
        k(   56) = (  -0.5000000  -0.1575061   0.1666667), wk =   0.0370370
        k(   57) = (   0.3333333  -0.3150122   0.1666667), wk =   0.0740741
        k(   58) = (  -0.5000000  -0.3150122   0.1666667), wk =   0.0370370
        k(   59) = (   0.3333333   0.4725183   0.1666667), wk =   0.0370370
        k(   60) = (  -0.5000000   0.4725183   0.1666667), wk =   0.0185185
        k(   61) = (  -0.5000000   0.0000000   0.3333333), wk =   0.0185185
        k(   62) = (  -0.5000000  -0.1575061   0.3333333), wk =   0.0370370
        k(   63) = (  -0.5000000  -0.3150122   0.3333333), wk =   0.0370370
        k(   64) = (  -0.5000000   0.4725183   0.3333333), wk =   0.0185185

     Initial potential from superposition of free atoms

     starting charge  367.99656, renormalised to  368.00000
     Starting wfc are  232 randomized atomic wfcs

     Self-consistent Calculation

     iteration #  1     ecut=   120.00 Ry     beta= 0.70
     Davidson diagonalization with overlap
     ethr =  1.00E-02,  avg # of iterations =  5.1

     total energy              =   -6254.00459626 Ry
     Harris-Foulkes estimate   =   -6264.58626802 Ry
     estimated scf accuracy    <      13.40583349 Ry

[...]

     End of self-consistent calculation

[...]
     Results may differ from those at the preceding step.

     bravais-lattice index     =            0
     lattice parameter (alat)  =      13.8397  a.u.
     unit-cell volume          =    2818.2342 (a.u.)^3
     number of atoms/cell      =           32
     number of atomic types    =            2
     number of electrons       =       368.00
     number of Kohn-Sham states=          221
     kinetic-energy cutoff     =     120.0000  Ry
     charge density cutoff     =     480.0000  Ry
     convergence threshold     =      1.0E-10
     mixing beta               =       0.7000
     number of iterations used =            8  plain     mixing
     Exchange-correlation      = SLA PW NOGX NOGC ( 1  4  0  0 0 0)

     celldm(1)=  13.839685  celldm(2)=   0.000000  celldm(3)=   0.000000
     celldm(4)=   0.000000  celldm(5)=   0.000000  celldm(6)=   0.000000

     crystal axes: (cart. coord. in units of alat)
               a(1) = (   1.003683   0.000000   0.000000 )
               a(2) = (   0.000000   1.055161   0.000000 )
               a(3) = (   0.000000   0.000000   1.003884 )

     reciprocal axes: (cart. coord. in units 2 pi/alat)
               b(1) = (  0.996331  0.000000  0.000000 )
               b(2) = (  0.000000  0.947723  0.000000 )
               b(3) = (  0.000000  0.000000  0.996131 )

     PseudoPot. # 1 for W  read from file:
     /cluster/scratch/mnoe/QE/pps/W_ONCV_LDA-4.0.upf
     MD5 check sum: ba0307d5d4cd419d6f1d13dc49d7c13a
     Pseudo is Norm-conserving + core correction, Zval = 28.0
     Generated using ONCVPSP code by D. R. Hamann
     Using radial grid of 1380 points,  8 beta functions with:
                l(1) =   0
                l(2) =   0
                l(3) =   1
                l(4) =   1
                l(5) =   2
                l(6) =   2
                l(7) =   3
                l(8) =   3

     PseudoPot. # 2 for O  read from file:
     /cluster/scratch/mnoe/QE/pps/O_ONCV_LDA-3.0.upf
     MD5 check sum: a1bd6164e7280c17a38c229939bfbd54
     Pseudo is Norm-conserving + core correction, Zval =  6.0
     Generated using ONCVPSP code by D. R. Hamann
     Using radial grid of  926 points,  5 beta functions with:
                l(1) =   0
                l(2) =   0
                l(3) =   1
                l(4) =   1
                l(5) =   2

     atomic species   valence    mass     pseudopotential
        W             28.00   183.84000     W ( 1.00)
        O              6.00    15.99940     O ( 1.00)

      8 Sym. Ops., with inversion, found ( 6 have fractional translation)

   Cartesian axes

     site n.     atom                  positions (alat units)
         1           W   tau(   1) = (   0.2476687   0.2987137   0.0030719  )
         2           W   tau(   2) = (   0.7560139   0.7564471   1.0008118  )
         3           W   tau(   3) = (   0.2541726   0.2288667   0.5050137  )
         4           W   tau(   4) = (   0.7495101   0.8262941   0.4988699  )
         5           W   tau(   5) = (   0.7560139   0.2987137   0.4988699  )
         6           W   tau(   6) = (   0.2476687   0.7564471   0.5050137  )
         7           W   tau(   7) = (   0.7495101   0.2288667   1.0008118  )
         8           W   tau(   8) = (   0.2541726   0.8262941   0.0030719  )
         9           O   tau(   9) = (   0.2449287   0.0112504   0.0009537  )
        10           O   tau(  10) = (   0.7587539   1.0439104   1.0029300  )
        11           O   tau(  11) = (   0.2569126   0.5163300   0.5028955  )
        12           O   tau(  12) = (   0.7467700   0.5388308   0.5009881  )
        13           O   tau(  13) = (   0.7587539   0.0112504   0.5009881  )
        14           O   tau(  14) = (   0.2449287   1.0439104   0.5028955  )
        15           O   tau(  15) = (   0.7467700   0.5163300   1.0029300  )
        16           O   tau(  16) = (   0.2569126   0.5388308   0.0009537  )
        17           O   tau(  17) = (   0.5027245   0.2573221   0.4577087  )
        18           O   tau(  18) = (   0.5009581   0.7978387   0.5461749  )
        19           O   tau(  19) = (   1.0027994   0.2702583   0.9596506  )
        20           O   tau(  20) = (   0.0008832   0.7849025   0.0442331  )
        21           O   tau(  21) = (   0.5009581   0.2573221   0.0442331  )
        22           O   tau(  22) = (   0.5027245   0.7978387   0.9596506  )
        23           O   tau(  23) = (   0.0008832   0.2702583   0.5461749  )
        24           O   tau(  24) = (   1.0027994   0.7849025   0.4577087  )
        25           O   tau(  25) = (   0.7085377   0.2623763   0.7515675  )
        26           O   tau(  26) = (   0.2951449   0.7927846   0.2523161  )
        27           O   tau(  27) = (   0.7969862   0.2652041   0.2496258  )
        28           O   tau(  28) = (   0.2066964   0.7899567   0.7542579  )
        29           O   tau(  29) = (   0.2951449   0.2623763   0.7542579  )
        30           O   tau(  30) = (   0.7085377   0.7927846   0.2496258  )
        31           O   tau(  31) = (   0.2066964   0.2652041   0.2523161  )
        32           O   tau(  32) = (   0.7969862   0.7899567   0.7515675  )

     number of k points=    64  gaussian smearing, width (Ry)=  0.0007
                       cart. coord. in units 2pi/alat
        k(    1) = (   0.0000000   0.0000000   0.0000000), wk =   0.0092593
        k(    2) = (   0.0000000   0.0000000   0.1660219), wk =   0.0185185
        k(    3) = (   0.0000000   0.0000000   0.3320438), wk =   0.0185185
        k(    4) = (   0.0000000   0.0000000  -0.4980657), wk =   0.0092593
        k(    5) = (   0.0000000   0.1579538   0.0000000), wk =   0.0185185
        k(    6) = (   0.0000000   0.1579538   0.1660219), wk =   0.0370370
        k(    7) = (   0.0000000   0.1579538   0.3320438), wk =   0.0370370
        k(    8) = (   0.0000000   0.1579538  -0.4980657), wk =   0.0185185
        k(    9) = (   0.0000000   0.3159076   0.0000000), wk =   0.0185185
        k(   10) = (   0.0000000   0.3159076   0.1660219), wk =   0.0370370
        k(   11) = (   0.0000000   0.3159076   0.3320438), wk =   0.0370370
        k(   12) = (   0.0000000   0.3159076  -0.4980657), wk =   0.0185185
        k(   13) = (   0.0000000  -0.4738614   0.0000000), wk =   0.0092593
        k(   14) = (   0.0000000  -0.4738614   0.1660219), wk =   0.0185185
        k(   15) = (   0.0000000  -0.4738614   0.3320438), wk =   0.0185185
        k(   16) = (   0.0000000  -0.4738614  -0.4980657), wk =   0.0092593
        k(   17) = (   0.1660551   0.0000000   0.1660219), wk =   0.0370370
        k(   18) = (   0.1660551   0.0000000   0.3320438), wk =   0.0370370
        k(   19) = (   0.1660551   0.0000000  -0.4980657), wk =   0.0185185
        k(   20) = (   0.1660551   0.1579538   0.1660219), wk =   0.0740741
        k(   21) = (   0.1660551   0.1579538   0.3320438), wk =   0.0740741
        k(   22) = (   0.1660551   0.1579538  -0.4980657), wk =   0.0370370
        k(   23) = (   0.1660551   0.3159076   0.1660219), wk =   0.0740741
        k(   24) = (   0.1660551   0.3159076   0.3320438), wk =   0.0740741
        k(   25) = (   0.1660551   0.3159076  -0.4980657), wk =   0.0370370
        k(   26) = (   0.1660551  -0.4738614   0.1660219), wk =   0.0370370
        k(   27) = (   0.1660551  -0.4738614   0.3320438), wk =   0.0370370
        k(   28) = (   0.1660551  -0.4738614  -0.4980657), wk =   0.0185185
        k(   29) = (   0.3321103   0.0000000   0.3320438), wk =   0.0370370
        k(   30) = (   0.3321103   0.0000000  -0.4980657), wk =   0.0185185
        k(   31) = (   0.3321103   0.1579538   0.3320438), wk =   0.0740741
        k(   32) = (   0.3321103   0.1579538  -0.4980657), wk =   0.0370370
        k(   33) = (   0.3321103   0.3159076   0.3320438), wk =   0.0740741
        k(   34) = (   0.3321103   0.3159076  -0.4980657), wk =   0.0370370
        k(   35) = (   0.3321103  -0.4738614   0.3320438), wk =   0.0370370
        k(   36) = (   0.3321103  -0.4738614  -0.4980657), wk =   0.0185185
        k(   37) = (  -0.4981654   0.0000000  -0.4980657), wk =   0.0092593
        k(   38) = (  -0.4981654   0.1579538  -0.4980657), wk =   0.0185185
        k(   39) = (  -0.4981654   0.3159076  -0.4980657), wk =   0.0185185
        k(   40) = (  -0.4981654  -0.4738614  -0.4980657), wk =   0.0092593
        k(   41) = (   0.1660551   0.0000000   0.0000000), wk =   0.0185185
        k(   42) = (   0.3321103   0.0000000   0.0000000), wk =   0.0185185
        k(   43) = (  -0.4981654   0.0000000   0.0000000), wk =   0.0092593
        k(   44) = (   0.1660551  -0.1579538   0.0000000), wk =   0.0370370
        k(   45) = (   0.3321103  -0.1579538   0.0000000), wk =   0.0370370
        k(   46) = (  -0.4981654  -0.1579538   0.0000000), wk =   0.0185185
        k(   47) = (   0.1660551  -0.3159076   0.0000000), wk =   0.0370370
        k(   48) = (   0.3321103  -0.3159076   0.0000000), wk =   0.0370370
        k(   49) = (  -0.4981654  -0.3159076   0.0000000), wk =   0.0185185
        k(   50) = (   0.1660551   0.4738614   0.0000000), wk =   0.0185185
        k(   51) = (   0.3321103   0.4738614   0.0000000), wk =   0.0185185
        k(   52) = (  -0.4981654   0.4738614   0.0000000), wk =   0.0092593
        k(   53) = (   0.3321103   0.0000000   0.1660219), wk =   0.0370370
        k(   54) = (  -0.4981654   0.0000000   0.1660219), wk =   0.0185185
        k(   55) = (   0.3321103  -0.1579538   0.1660219), wk =   0.0740741
        k(   56) = (  -0.4981654  -0.1579538   0.1660219), wk =   0.0370370
        k(   57) = (   0.3321103  -0.3159076   0.1660219), wk =   0.0740741
        k(   58) = (  -0.4981654  -0.3159076   0.1660219), wk =   0.0370370
        k(   59) = (   0.3321103   0.4738614   0.1660219), wk =   0.0370370
        k(   60) = (  -0.4981654   0.4738614   0.1660219), wk =   0.0185185
        k(   61) = (  -0.4981654   0.0000000   0.3320438), wk =   0.0185185
        k(   62) = (  -0.4981654  -0.1579538   0.3320438), wk =   0.0370370
        k(   63) = (  -0.4981654  -0.3159076   0.3320438), wk =   0.0370370
        k(   64) = (  -0.4981654   0.4738614   0.3320438), wk =   0.0185185

     Initial potential from superposition of free atoms

     starting charge  367.99656, renormalised to  368.00000
     Starting wfc are  232 randomized atomic wfcs

     Writing output data file Landau_7.save

     Self-consistent Calculation

     iteration #  1     ecut=   120.00 Ry     beta= 0.70
     Davidson diagonalization with overlap
     c_bands:  2 eigenvalues not converged
     ethr =  1.00E-06,  avg # of iterations = 14.6

[...]

     total energy              =   -6261.10773844 Ry
     Harris-Foulkes estimate   =   -6261.10773844 Ry
     estimated scf accuracy    <          4.3E-10 Ry

     iteration # 14     ecut=   120.00 Ry     beta= 0.70
     Davidson diagonalization with overlap
     ethr =  1.18E-13,  avg # of iterations =  3.1

     End of self-consistent calculation

[...]

          k = 0.3321 0.4739 0.1660 ( 62546 PWs)   bands (ev):

[...]

          k =-0.4982 0.4739 0.3320 ( 62516 PWs)   bands (ev):

   -66.2534 -66.2534 -66.2534 -66.2534 -66.2529 -66.2529 -66.2529 -66.2529
   -30.6091 -30.6091 -30.6088 -30.6088 -30.6071 -30.6071 -30.6068 -30.6068
   -30.5704 -30.5704 -30.5704 -30.5704 -30.5474 -30.5474 -30.5471 -30.5471
   -30.5452 -30.5452 -30.5449 -30.5449 -30.5230 -30.5230 -30.5230 -30.5230
   -20.4153 -20.4153 -20.4153 -20.4153 -20.4153 -20.4153 -20.4153 -20.4152
   -20.3939 -20.3939 -20.3939 -20.3939 -20.3933 -20.3933 -20.3933 -20.3933
   -20.3926 -20.3926 -20.3925 -20.3925 -20.3922 -20.3922 -20.3922 -20.3922
   -20.3920 -20.3920 -20.3919 -20.3919 -20.3918 -20.3918 -20.3918 -20.3918
   -20.3831 -20.3831 -20.3831 -20.3831 -20.3821 -20.3821 -20.3821 -20.3821
   -20.3802 -20.3802 -20.3802 -20.3802 -20.3792 -20.3792 -20.3792 -20.3792
   -20.3784 -20.3784 -20.3784 -20.3784 -20.3769 -20.3769 -20.3769 -20.3769
    -9.2594  -9.2594  -9.2560  -9.2560  -8.8668  -8.8667  -8.8581  -8.8581
    -8.6203  -8.6202  -8.6122  -8.6122  -8.4547  -8.4547  -8.4428  -8.4428
    -8.4149  -8.4149  -8.4047  -8.4047  -8.1828  -8.1828  -8.1818  -8.1818
     2.1714   2.1714   2.1761   2.1761   2.9072   2.9072   2.9309   2.9309
     3.0271   3.0271   3.0332   3.0332   3.1724   3.1724   3.1957   3.1957
     3.2954   3.2954   3.3259   3.3259   3.5447   3.5447   3.5663   3.5663
     3.6856   3.6856   3.7468   3.7468   4.2017   4.2017   4.2261   4.2261
     4.2743   4.2743   4.3300   4.3300   4.3986   4.3986   4.5008   4.5008
     4.5938   4.5938   4.7396   4.7396   4.9732   4.9732   4.9886   4.9886
     6.9652   6.9653   7.0098   7.0098   7.1098   7.1098   7.1171   7.1171
     7.2135   7.2135   7.2466   7.2466   7.2800   7.2801   7.3282   7.3282
     7.4191   7.4191   7.4767   7.4767   7.5573   7.5573   7.5822   7.5822
    11.3264  11.3264  11.3554  11.3554  11.6669  11.6669  11.7330  11.7330
    12.1093  12.1093  12.1628  12.1628  12.2472  12.2472  12.2740  12.2740
    12.4146  12.4146  12.5197  12.5197  12.9007  12.9007  12.9753  12.9753
    16.3564  16.3564  16.4053  16.4053  16.9685  16.9685  16.9933  16.9933
    17.2541  17.2549  17.3255  17.3268  17.3353

     the Fermi energy is     8.8657 ev

!    total energy              =   -6261.10773844 Ry
     Harris-Foulkes estimate   =   -6261.10773844 Ry
     estimated scf accuracy    <          7.9E-11 Ry

     The total energy is the sum of the following terms:

     one-electron contribution =   -4740.62897027 Ry
     hartree contribution      =    2605.99163666 Ry
     xc contribution           =    -965.67665633 Ry
     ewald contribution        =   -3160.79374849 Ry
     smearing contrib. (-TS)   =      -0.00000000 Ry

     convergence has been achieved in  14 iterations

     Forces acting on atoms (cartesian axes, Ry/au):

     atom    1 type  1   force =    -0.00147486    0.00154142    0.00116073
     atom    2 type  1   force =     0.00147486   -0.00154142   -0.00116073
     atom    3 type  1   force =     0.00147486   -0.00154142    0.00116073
     atom    4 type  1   force =    -0.00147486    0.00154142   -0.00116073
     atom    5 type  1   force =     0.00147486    0.00154142   -0.00116073
     atom    6 type  1   force =    -0.00147486   -0.00154142    0.00116073
     atom    7 type  1   force =    -0.00147486   -0.00154142   -0.00116073
     atom    8 type  1   force =     0.00147486    0.00154142    0.00116073
     atom    9 type  2   force =    -0.00005586   -0.01031503    0.00016850
     atom   10 type  2   force =     0.00005586    0.01031503   -0.00016850
     atom   11 type  2   force =     0.00005586    0.01031503    0.00016850
     atom   12 type  2   force =    -0.00005586   -0.01031503   -0.00016850
     atom   13 type  2   force =     0.00005586   -0.01031503   -0.00016850
     atom   14 type  2   force =    -0.00005586    0.01031503    0.00016850
     atom   15 type  2   force =    -0.00005586    0.01031503   -0.00016850
     atom   16 type  2   force =     0.00005586   -0.01031503    0.00016850
     atom   17 type  2   force =    -0.00057831   -0.00024193   -0.00107113
     atom   18 type  2   force =     0.00057831    0.00024193    0.00107113
     atom   19 type  2   force =     0.00057831    0.00024193   -0.00107113
     atom   20 type  2   force =    -0.00057831   -0.00024193    0.00107113
     atom   21 type  2   force =     0.00057831   -0.00024193    0.00107113
     atom   22 type  2   force =    -0.00057831    0.00024193   -0.00107113
     atom   23 type  2   force =    -0.00057831    0.00024193    0.00107113
     atom   24 type  2   force =     0.00057831   -0.00024193   -0.00107113
     atom   25 type  2   force =    -0.00120683   -0.00051847    0.00070327
     atom   26 type  2   force =     0.00120683    0.00051847   -0.00070327
     atom   27 type  2   force =     0.00120683    0.00051847    0.00070327
     atom   28 type  2   force =    -0.00120683   -0.00051847   -0.00070327
     atom   29 type  2   force =     0.00120683   -0.00051847   -0.00070327
     atom   30 type  2   force =    -0.00120683    0.00051847    0.00070327
     atom   31 type  2   force =    -0.00120683    0.00051847   -0.00070327
     atom   32 type  2   force =     0.00120683   -0.00051847    0.00070327

     Total force =     0.000000     Total SCF correction =     0.000000

     Computing stress (Cartesian axis) and pressure

          total   stress  (Ry/bohr**3)                   (kbar)     P=    0.11
   0.00000117   0.00000000   0.00000000          0.17      0.00      0.00
   0.00000000  -0.00000011   0.00000000          0.00     -0.02      0.00
   0.00000000   0.00000000   0.00000121          0.00      0.00      0.18

     Writing output data file Landau_7.save

     General routines

     Parallel routines

   This run was terminated on:  18:54:18   5Mar2020

   JOB DONE.