     Program PWSCF v.6.2 (svn rev. 14038) starts on 23Mar2020 at  4:57: 8

     K-points division:     npool     =      40
     Reading input from rscf.in

     Current dimensions of program PWSCF are:
     Max number of different atomic species (ntypx) = 10
     Max number of k-points (npk) =  40000
     Max angular momentum in pseudopotentials (lmaxx) =  3

     Subspace diagonalization in iterative solution of the eigenvalue problem:
     a serial algorithm will be used

     bravais-lattice index     =            0
     lattice parameter (alat)  =      13.8397  a.u.
     unit-cell volume          =    2804.9816 (a.u.)^3
     number of atoms/cell      =           32
     number of atomic types    =            2
     number of electrons       =       368.00
     number of Kohn-Sham states=          221
     kinetic-energy cutoff     =     120.0000  Ry
     charge density cutoff     =     480.0000  Ry
     convergence threshold     =      1.0E-08
     mixing beta               =       0.7000
     number of iterations used =            8  plain     mixing
     Exchange-correlation      = SLA PW NOGX NOGC ( 1  4  0  0 0 0)
     nstep                     =           50

     celldm(1)=  13.839685  celldm(2)=   0.000000  celldm(3)=   0.000000
     celldm(4)=   0.000000  celldm(5)=   0.000000  celldm(6)=   0.000000

     crystal axes: (cart. coord. in units of alat)
               a(1) = (   1.000000   0.000000   0.000000 )
               a(2) = (   0.000000   1.058160   0.000000 )
               a(3) = (   0.000000   0.000000   1.000000 )

     reciprocal axes: (cart. coord. in units 2 pi/alat)
               b(1) = (  1.000000  0.000000  0.000000 )
               b(2) = (  0.000000  0.945037  0.000000 )
               b(3) = (  0.000000  0.000000  1.000000 )

     PseudoPot. # 1 for W  read from file:
     /cluster/scratch/mnoe/QE/pps/W_ONCV_LDA-4.0.upf
     MD5 check sum: ba0307d5d4cd419d6f1d13dc49d7c13a
     Pseudo is Norm-conserving + core correction, Zval = 28.0
     Generated using ONCVPSP code by D. R. Hamann
     Using radial grid of 1380 points,  8 beta functions with:
                l(1) =   0
                l(2) =   0
                l(3) =   1
                l(4) =   1
                l(5) =   2
                l(6) =   2
                l(7) =   3
                l(8) =   3

     PseudoPot. # 2 for O  read from file:
     /cluster/scratch/mnoe/QE/pps/O_ONCV_LDA-3.0.upf
     MD5 check sum: a1bd6164e7280c17a38c229939bfbd54
     Pseudo is Norm-conserving + core correction, Zval =  6.0
     Generated using ONCVPSP code by D. R. Hamann
     Using radial grid of  926 points,  5 beta functions with:
                l(1) =   0
                l(2) =   0
                l(3) =   1
                l(4) =   1
                l(5) =   2

     atomic species   valence    mass     pseudopotential
        W             28.00   183.84000     W ( 1.00)
        O              6.00    15.99940     O ( 1.00)

      8 Sym. Ops. (no inversion) found ( 7 have fractional translation)

   Cartesian axes

     site n.     atom                  positions (alat units)
         1           W   tau(   1) = (   0.2410075   0.2977248  -0.0002575  )
         2           W   tau(   2) = (   0.7502575   0.7604352  -0.0089925  )
         3           W   tau(   3) = (   0.2589925   0.2313552   0.4997425  )
         4           W   tau(   4) = (   0.7497425   0.8268049   0.4910075  )
         5           W   tau(   5) = (   0.7589925   0.2977248   0.5002575  )
         6           W   tau(   6) = (   0.2497425   0.7604352   0.5089925  )
         7           W   tau(   7) = (   0.7410075   0.2313552   0.0002575  )
         8           W   tau(   8) = (   0.2502575   0.8268049   0.0089925  )
         9           O   tau(   9) = (   0.2401100   0.0086600  -0.0071750  )
        10           O   tau(  10) = (   0.7571750  -0.0086600  -0.0098900  )
        11           O   tau(  11) = (   0.2598900   0.5204200   0.4928250  )
        12           O   tau(  12) = (   0.7428250   0.5377400   0.4901100  )
        13           O   tau(  13) = (   0.7598900   0.0086600   0.5071750  )
        14           O   tau(  14) = (   0.2428250  -0.0086600   0.5098900  )
        15           O   tau(  15) = (   0.7401100   0.5204200   0.0071750  )
        16           O   tau(  16) = (   0.2571750   0.5377400   0.0098900  )
        17           O   tau(  17) = (   0.5031825   0.2532574   0.4507605  )
        18           O   tau(  18) = (   0.5006525   0.8008605   0.5492395  )
        19           O   tau(  19) = (  -0.0031825   0.2758226   0.9507605  )
        20           O   tau(  20) = (  -0.0006525   0.7863796   0.0492395  )
        21           O   tau(  21) = (   0.4968175   0.2532574   0.0492395  )
        22           O   tau(  22) = (   0.4993475   0.8008605   0.9507605  )
        23           O   tau(  23) = (   0.0031825   0.2758226   0.5492395  )
        24           O   tau(  24) = (   0.0006525   0.7863796   0.4507605  )
        25           O   tau(  25) = (   0.7007605   0.2717805   0.7493475  )
        26           O   tau(  26) = (   0.2992395   0.8049027   0.2531825  )
        27           O   tau(  27) = (   0.7992395   0.2572996   0.2493475  )
        28           O   tau(  28) = (   0.2007605   0.7823374   0.7531825  )
        29           O   tau(  29) = (   0.2992395   0.2717805   0.7506525  )
        30           O   tau(  30) = (   0.7007605   0.8049027   0.2468175  )
        31           O   tau(  31) = (   0.2007605   0.2572996   0.2506525  )
        32           O   tau(  32) = (   0.7992395   0.7823374   0.7468175  )

     number of k points=    40  gaussian smearing, width (Ry)=  0.0007
                       cart. coord. in units 2pi/alat
        k(    1) = (   0.0000000   0.0000000   0.0000000), wk =   0.0092593
        k(    2) = (   0.0000000   0.0000000   0.1666667), wk =   0.0370370
        k(    3) = (   0.0000000   0.0000000   0.3333333), wk =   0.0370370
        k(    4) = (   0.0000000   0.0000000  -0.5000000), wk =   0.0185185
        k(    5) = (   0.0000000   0.1575061   0.0000000), wk =   0.0185185
        k(    6) = (   0.0000000   0.1575061   0.1666667), wk =   0.0740741
        k(    7) = (   0.0000000   0.1575061   0.3333333), wk =   0.0740741
        k(    8) = (   0.0000000   0.1575061  -0.5000000), wk =   0.0370370
        k(    9) = (   0.0000000   0.3150122   0.0000000), wk =   0.0185185
        k(   10) = (   0.0000000   0.3150122   0.1666667), wk =   0.0740741
        k(   11) = (   0.0000000   0.3150122   0.3333333), wk =   0.0740741
        k(   12) = (   0.0000000   0.3150122  -0.5000000), wk =   0.0370370
        k(   13) = (   0.0000000  -0.4725183   0.0000000), wk =   0.0092593
        k(   14) = (   0.0000000  -0.4725183   0.1666667), wk =   0.0370370
        k(   15) = (   0.0000000  -0.4725183   0.3333333), wk =   0.0370370
        k(   16) = (   0.0000000  -0.4725183  -0.5000000), wk =   0.0185185
        k(   17) = (   0.1666667   0.0000000   0.1666667), wk =   0.0370370
        k(   18) = (   0.1666667   0.0000000   0.3333333), wk =   0.0740741
        k(   19) = (   0.1666667   0.0000000  -0.5000000), wk =   0.0370370
        k(   20) = (   0.1666667   0.1575061   0.1666667), wk =   0.0740741
        k(   21) = (   0.1666667   0.1575061   0.3333333), wk =   0.1481481
        k(   22) = (   0.1666667   0.1575061  -0.5000000), wk =   0.0740741
        k(   23) = (   0.1666667   0.3150122   0.1666667), wk =   0.0740741
        k(   24) = (   0.1666667   0.3150122   0.3333333), wk =   0.1481481
        k(   25) = (   0.1666667   0.3150122  -0.5000000), wk =   0.0740741
        k(   26) = (   0.1666667  -0.4725183   0.1666667), wk =   0.0370370
        k(   27) = (   0.1666667  -0.4725183   0.3333333), wk =   0.0740741
        k(   28) = (   0.1666667  -0.4725183  -0.5000000), wk =   0.0370370
        k(   29) = (   0.3333333   0.0000000   0.3333333), wk =   0.0370370
        k(   30) = (   0.3333333   0.0000000  -0.5000000), wk =   0.0370370
        k(   31) = (   0.3333333   0.1575061   0.3333333), wk =   0.0740741
        k(   32) = (   0.3333333   0.1575061  -0.5000000), wk =   0.0740741
        k(   33) = (   0.3333333   0.3150122   0.3333333), wk =   0.0740741
        k(   34) = (   0.3333333   0.3150122  -0.5000000), wk =   0.0740741
        k(   35) = (   0.3333333  -0.4725183   0.3333333), wk =   0.0370370
        k(   36) = (   0.3333333  -0.4725183  -0.5000000), wk =   0.0370370
        k(   37) = (  -0.5000000   0.0000000  -0.5000000), wk =   0.0092593
        k(   38) = (  -0.5000000   0.1575061  -0.5000000), wk =   0.0185185
        k(   39) = (  -0.5000000   0.3150122  -0.5000000), wk =   0.0185185
        k(   40) = (  -0.5000000  -0.4725183  -0.5000000), wk =   0.0092593

     Initial potential from superposition of free atoms

     starting charge  367.99656, renormalised to  368.00000
     Starting wfc are  232 randomized atomic wfcs

     Self-consistent Calculation

     iteration #  1     ecut=   120.00 Ry     beta= 0.70
     Davidson diagonalization with overlap
     ethr =  1.00E-02,  avg # of iterations =  5.0

     total energy              =   -6253.98334782 Ry
     Harris-Foulkes estimate   =   -6264.58269924 Ry
     estimated scf accuracy    <      13.42108093 Ry

[...]

     End of self-consistent calculation

          k = 0.0000 0.0000 0.0000 ( 62239 PWs)   bands (ev):

   -66.1728 -66.1724 -66.1718 -66.1718 -66.1714 -66.1714 -66.1707 -66.1704
   -30.5560 -30.5491 -30.5491 -30.5420 -30.5396 -30.5287 -30.5287 -30.5286
   -30.5168 -30.5153 -30.5114 -30.5114 -30.4861 -30.4855 -30.4855 -30.4851
   -30.4330 -30.4329 -30.4308 -30.4282 -30.4163 -30.4163 -30.4121 -30.4110
   -20.3336 -20.3336 -20.3335 -20.3335 -20.3333 -20.3333 -20.3333 -20.3332
   -20.3139 -20.3135 -20.3135 -20.3132 -20.3127 -20.3124 -20.3121 -20.3120
   -20.3116 -20.3116 -20.3114 -20.3111 -20.3102 -20.3095 -20.3095 -20.3094
   -20.3086 -20.3082 -20.3082 -20.3076 -20.3072 -20.3067 -20.3066 -20.3062
   -20.3018 -20.3015 -20.3013 -20.3012 -20.3004 -20.3002 -20.3000 -20.3000
   -20.2959 -20.2959 -20.2959 -20.2955 -20.2952 -20.2950 -20.2948 -20.2948
   -20.2937 -20.2937 -20.2932 -20.2931 -20.2909 -20.2909 -20.2905 -20.2902
    -9.9580  -9.6984  -9.5087  -9.5087  -9.2672  -9.2672  -9.0724  -9.0602
    -9.0190  -8.8433  -8.8262  -8.8262  -7.8526  -7.8057  -7.7869  -7.7693
    -7.7661  -7.7661  -7.7586  -7.7081  -7.6585  -7.6585  -7.6182  -7.6182
     1.1589   1.1605   1.2477   1.2477   1.2781   1.2781   1.3976   1.6111
     1.6768   1.6768   1.6839   1.8594   2.3562   2.4323   2.5855   2.6064
     2.7436   2.7436   4.1380   4.1380   4.3427   4.3452   4.7872   4.7872
     4.8170   4.8170   4.8320   4.8913   5.0745   5.0745   5.1066   5.4737
     5.4756   5.5108   5.5108   5.5474   5.5474   5.6157   5.6157   5.8509
     5.8509   5.8798   5.8851   5.8953   5.9758   5.9958   6.0061   6.0949
     6.1006   6.2488   6.2557   6.5396   6.5396   6.8299   6.8406   6.8406
     6.8670   6.8695   6.9777   7.0122   7.0610   7.0610   7.3193   7.3193
     7.3965   7.3965   7.7776   7.7921   8.0683   8.0683   8.1221   8.1525
     9.2947   9.2961   9.9874   9.9949  10.0203  10.0203  12.2403  12.2403
[...]
W        0.258992503   0.218639144   0.499742503    0   0   0
W        0.749742502   0.781360845   0.491007497    0   0   0
W        0.758992493   0.281360871   0.500257497    0   0   0
W        0.249742503   0.718639129   0.508992503    0   0   0
W        0.741007507   0.218639144   0.000257501    0   0   0
W        0.250257497   0.781360845   0.008992496    0   0   0
O        0.240109995   0.008184022  -0.007174991    0   0   0
O        0.757174987  -0.008184002  -0.009889993    0   0   0
O        0.259889993   0.491815972   0.492824994    0   0   0
O        0.742825006   0.508184002   0.490109999    0   0   0
O        0.759889988   0.008184022   0.507175001    0   0   0
O        0.242824990  -0.008184002   0.509889997    0   0   0
O        0.740110005   0.491815972   0.007174989    0   0   0
O        0.257174998   0.508184002   0.009889991    0   0   0
O        0.503182499   0.239337501   0.450760480    0   0   0
O        0.500652495   0.756842495   0.549239492    0   0   0
O       -0.003182491   0.260662492   0.950760513    0   0   0
O       -0.000652491   0.743157510   0.049239531    0   0   0
O        0.496817502   0.239337501   0.049239531    0   0   0
O        0.499347505   0.756842495   0.950760513    0   0   0
O        0.003182486   0.260662492   0.549239492    0   0   0
O        0.000652486   0.743157510   0.450760480    0   0   0
O        0.700760510   0.256842493   0.749347511    0   0   0
O        0.299239517   0.760662502   0.253182499    0   0   0
O        0.799239495   0.243157500   0.249347522    0   0   0
O        0.200760496   0.739337503   0.753182504    0   0   0
O        0.299239517   0.256842493   0.750652504    0   0   0
O        0.700760510   0.760662502   0.246817518    0   0   0
O        0.200760496   0.243157500   0.250652495    0   0   0
O        0.799239495   0.739337503   0.746817511    0   0   0
End final coordinates

     A final scf calculation at the relaxed structure.
     The G-vectors are recalculated for the final unit cell
     Results may differ from those at the preceding step.

     bravais-lattice index     =            0
     lattice parameter (alat)  =      13.8397  a.u.
     unit-cell volume          =    2804.0547 (a.u.)^3
     number of atoms/cell      =           32
     number of atomic types    =            2
     number of electrons       =       368.00
     number of Kohn-Sham states=          221
     kinetic-energy cutoff     =     120.0000  Ry
     charge density cutoff     =     480.0000  Ry
     convergence threshold     =      1.0E-10
     mixing beta               =       0.7000
     number of iterations used =            8  plain     mixing
     Exchange-correlation      = SLA PW NOGX NOGC ( 1  4  0  0 0 0)

     celldm(1)=  13.839685  celldm(2)=   0.000000  celldm(3)=   0.000000
     celldm(4)=   0.000000  celldm(5)=   0.000000  celldm(6)=   0.000000

     crystal axes: (cart. coord. in units of alat)
               a(1) = (   1.001459   0.000000   0.000000 )
               a(2) = (   0.000000   1.054731   0.000000 )
               a(3) = (   0.000000   0.000000   1.001459 )

     reciprocal axes: (cart. coord. in units 2 pi/alat)
               b(1) = (  0.998543  0.000000  0.000000 )
               b(2) = (  0.000000  0.948109  0.000000 )
               b(3) = (  0.000000  0.000000  0.998543 )

     PseudoPot. # 1 for W  read from file:
     /cluster/scratch/mnoe/QE/pps/W_ONCV_LDA-4.0.upf
     MD5 check sum: ba0307d5d4cd419d6f1d13dc49d7c13a
     Pseudo is Norm-conserving + core correction, Zval = 28.0
     Generated using ONCVPSP code by D. R. Hamann
     Using radial grid of 1380 points,  8 beta functions with:
                l(1) =   0
                l(2) =   0
                l(3) =   1
                l(4) =   1
                l(5) =   2
                l(6) =   2
                l(7) =   3
                l(8) =   3

     PseudoPot. # 2 for O  read from file:
     /cluster/scratch/mnoe/QE/pps/O_ONCV_LDA-3.0.upf
     MD5 check sum: a1bd6164e7280c17a38c229939bfbd54
     Pseudo is Norm-conserving + core correction, Zval =  6.0
     Generated using ONCVPSP code by D. R. Hamann
     Using radial grid of  926 points,  5 beta functions with:
                l(1) =   0
                l(2) =   0
                l(3) =   1
                l(4) =   1
                l(5) =   2

     atomic species   valence    mass     pseudopotential
        W             28.00   183.84000     W ( 1.00)
        O              6.00    15.99940     O ( 1.00)

      8 Sym. Ops. (no inversion) found ( 7 have fractional translation)

   Cartesian axes

     site n.     atom                  positions (alat units)
         1           W   tau(   1) = (   0.2413591   0.2967601  -0.0002579  )
         2           W   tau(   2) = (   0.7513519   0.7579710  -0.0090056  )
         3           W   tau(   3) = (   0.2593703   0.2306055   0.5004715  )
         4           W   tau(   4) = (   0.7508362   0.8241256   0.4917237  )
         5           W   tau(   5) = (   0.7600996   0.2967601   0.5009872  )
         6           W   tau(   6) = (   0.2501068   0.7579710   0.5097350  )
         7           W   tau(   7) = (   0.7420884   0.2306055   0.0002579  )
         8           W   tau(   8) = (   0.2506225   0.8241256   0.0090056  )
         9           O   tau(   9) = (   0.2404602   0.0086319  -0.0071855  )
        10           O   tau(  10) = (   0.7582795  -0.0086319  -0.0099044  )
        11           O   tau(  11) = (   0.2602691   0.5187336   0.4935439  )
        12           O   tau(  12) = (   0.7439086   0.5359975   0.4908249  )
        13           O   tau(  13) = (   0.7609984   0.0086319   0.5079148  )
        14           O   tau(  14) = (   0.2431792  -0.0086319   0.5106338  )
        15           O   tau(  15) = (   0.7411896   0.5187336   0.0071855  )
        16           O   tau(  16) = (   0.2575501   0.5359975   0.0099044  )
        17           O   tau(  17) = (   0.5039165   0.2524367   0.4514180  )
        18           O   tau(  18) = (   0.5013828   0.7982653   0.5500407  )
        19           O   tau(  19) = (  -0.0031871   0.2749288   0.9521474  )
        20           O   tau(  20) = (  -0.0006534   0.7838313   0.0493114  )
        21           O   tau(  21) = (   0.4975422   0.2524367   0.0493114  )
        22           O   tau(  22) = (   0.5000759   0.7982653   0.9521474  )
        23           O   tau(  23) = (   0.0031871   0.2749288   0.5500407  )
        24           O   tau(  24) = (   0.0006534   0.7838313   0.4514180  )
        25           O   tau(  25) = (   0.7017827   0.2708998   0.7504406  )
        26           O   tau(  26) = (   0.2996760   0.8022944   0.2535518  )
        27           O   tau(  27) = (   0.8004053   0.2564658   0.2497112  )
        28           O   tau(  28) = (   0.2010533   0.7798022   0.7542812  )
        29           O   tau(  29) = (   0.2996760   0.2708998   0.7517475  )
        30           O   tau(  30) = (   0.7017827   0.8022944   0.2471776  )
        31           O   tau(  31) = (   0.2010533   0.2564658   0.2510181  )
        32           O   tau(  32) = (   0.8004053   0.7798022   0.7479069  )

     number of k points=    40  gaussian smearing, width (Ry)=  0.0007
                       cart. coord. in units 2pi/alat
        k(    1) = (   0.0000000   0.0000000   0.0000000), wk =   0.0092593
        k(    2) = (   0.0000000   0.0000000   0.1664239), wk =   0.0370370
        k(    3) = (   0.0000000   0.0000000   0.3328478), wk =   0.0370370
        k(    4) = (   0.0000000   0.0000000  -0.4992717), wk =   0.0185185
        k(    5) = (   0.0000000   0.1580182   0.0000000), wk =   0.0185185
        k(    6) = (   0.0000000   0.1580182   0.1664239), wk =   0.0740741
        k(    7) = (   0.0000000   0.1580182   0.3328478), wk =   0.0740741
        k(    8) = (   0.0000000   0.1580182  -0.4992717), wk =   0.0370370
        k(    9) = (   0.0000000   0.3160363   0.0000000), wk =   0.0185185
        k(   10) = (   0.0000000   0.3160363   0.1664239), wk =   0.0740741
        k(   11) = (   0.0000000   0.3160363   0.3328478), wk =   0.0740741
        k(   12) = (   0.0000000   0.3160363  -0.4992717), wk =   0.0370370
        k(   13) = (   0.0000000  -0.4740545   0.0000000), wk =   0.0092593
        k(   14) = (   0.0000000  -0.4740545   0.1664239), wk =   0.0370370
        k(   15) = (   0.0000000  -0.4740545   0.3328478), wk =   0.0370370
        k(   16) = (   0.0000000  -0.4740545  -0.4992717), wk =   0.0185185
        k(   17) = (   0.1664239   0.0000000   0.1664239), wk =   0.0370370
        k(   18) = (   0.1664239   0.0000000   0.3328478), wk =   0.0740741
        k(   19) = (   0.1664239   0.0000000  -0.4992717), wk =   0.0370370
        k(   20) = (   0.1664239   0.1580182   0.1664239), wk =   0.0740741
        k(   21) = (   0.1664239   0.1580182   0.3328478), wk =   0.1481481
        k(   22) = (   0.1664239   0.1580182  -0.4992717), wk =   0.0740741
        k(   23) = (   0.1664239   0.3160363   0.1664239), wk =   0.0740741
        k(   24) = (   0.1664239   0.3160363   0.3328478), wk =   0.1481481
        k(   25) = (   0.1664239   0.3160363  -0.4992717), wk =   0.0740741
        k(   26) = (   0.1664239  -0.4740545   0.1664239), wk =   0.0370370
        k(   27) = (   0.1664239  -0.4740545   0.3328478), wk =   0.0740741
        k(   28) = (   0.1664239  -0.4740545  -0.4992717), wk =   0.0370370
        k(   29) = (   0.3328478   0.0000000   0.3328478), wk =   0.0370370
        k(   30) = (   0.3328478   0.0000000  -0.4992717), wk =   0.0370370
        k(   31) = (   0.3328478   0.1580182   0.3328478), wk =   0.0740741
        k(   32) = (   0.3328478   0.1580182  -0.4992717), wk =   0.0740741
        k(   33) = (   0.3328478   0.3160363   0.3328478), wk =   0.0740741
        k(   34) = (   0.3328478   0.3160363  -0.4992717), wk =   0.0740741
        k(   35) = (   0.3328478  -0.4740545   0.3328478), wk =   0.0370370
        k(   36) = (   0.3328478  -0.4740545  -0.4992717), wk =   0.0370370
        k(   37) = (  -0.4992717   0.0000000  -0.4992717), wk =   0.0092593
        k(   38) = (  -0.4992717   0.1580182  -0.4992717), wk =   0.0185185
        k(   39) = (  -0.4992717   0.3160363  -0.4992717), wk =   0.0185185
        k(   40) = (  -0.4992717  -0.4740545  -0.4992717), wk =   0.0092593

     Initial potential from superposition of free atoms

     starting charge  367.99656, renormalised to  368.00000
     Starting wfc are  232 randomized atomic wfcs

     Writing output data file Landau_5.save

     Self-consistent Calculation

[...]

     total energy              =   -6261.11061549 Ry
     Harris-Foulkes estimate   =   -6261.11061549 Ry
     estimated scf accuracy    <          3.8E-10 Ry

     iteration # 14     ecut=   120.00 Ry     beta= 0.70
     Davidson diagonalization with overlap
     ethr =  1.04E-13,  avg # of iterations =  3.0

     End of self-consistent calculation

[...]

          k = 0.3328-0.4741-0.4993 ( 62196 PWs)   bands (ev):

[...]

          k =-0.4993-0.4741-0.4993 ( 62272 PWs)   bands (ev):

   -66.1649 -66.1649 -66.1649 -66.1649 -66.1649 -66.1649 -66.1649 -66.1649
   -30.5276 -30.5276 -30.5270 -30.5270 -30.5270 -30.5270 -30.5268 -30.5268
   -30.4684 -30.4684 -30.4684 -30.4684 -30.4683 -30.4683 -30.4676 -30.4676
   -30.4505 -30.4505 -30.4503 -30.4503 -30.4502 -30.4502 -30.4502 -30.4502
   -20.3264 -20.3264 -20.3264 -20.3264 -20.3264 -20.3264 -20.3264 -20.3264
   -20.3052 -20.3052 -20.3052 -20.3052 -20.3051 -20.3051 -20.3051 -20.3051
   -20.3043 -20.3043 -20.3043 -20.3043 -20.3042 -20.3042 -20.3041 -20.3041
   -20.3009 -20.3009 -20.3008 -20.3008 -20.3008 -20.3008 -20.3008 -20.3008
   -20.2914 -20.2914 -20.2913 -20.2913 -20.2912 -20.2912 -20.2912 -20.2912
   -20.2896 -20.2896 -20.2895 -20.2895 -20.2895 -20.2895 -20.2894 -20.2894
   -20.2860 -20.2860 -20.2860 -20.2860 -20.2860 -20.2860 -20.2860 -20.2859
    -8.9431  -8.9431  -8.9267  -8.9267  -8.9267  -8.9267  -8.9259  -8.9258
    -8.4283  -8.4283  -8.4072  -8.4072  -8.4072  -8.4072  -8.4037  -8.4037
    -8.3393  -8.3393  -8.3393  -8.3393  -8.3309  -8.3309  -8.3134  -8.3134
     2.9692   2.9692   2.9733   2.9733   2.9733   2.9733   2.9879   2.9879
     3.1578   3.1578   3.1683   3.1683   3.1683   3.1683   3.1922   3.1922
     3.3628   3.3628   3.4575   3.4575   3.4575   3.4575   3.5118   3.5118
     4.1374   4.1374   4.1589   4.1589   4.1589   4.1589   4.1609   4.1609
     4.3674   4.3674   4.3674   4.3674   4.3803   4.3803   4.3923   4.3923
     4.4656   4.4656   4.4898   4.4898   4.4913   4.4913   4.4913   4.4913
     7.1225   7.1225   7.1986   7.1986   7.1986   7.1986   7.2957   7.2957
     7.3445   7.3445   7.3499   7.3499   7.3499   7.3499   7.3510   7.3510
     7.5782   7.5782   7.5975   7.5975   7.5975   7.5975   7.6275   7.6275
    11.8213  11.8213  11.8222  11.8222  11.8222  11.8222  11.8308  11.8308
    12.2043  12.2043  12.2676  12.2676  12.2676  12.2676  12.3612  12.3612
    12.4935  12.4935  12.5390  12.5390  12.5390  12.5390  12.5623  12.5623
    17.1366  17.1366  17.1671  17.1671  17.1672  17.1672  17.1907  17.1907
    17.3723  17.3723  17.3723  17.3723  17.4133

     the Fermi energy is     8.9564 ev

!    total energy              =   -6261.11061549 Ry
     Harris-Foulkes estimate   =   -6261.11061549 Ry
     estimated scf accuracy    <          8.7E-11 Ry

     The total energy is the sum of the following terms:

     one-electron contribution =   -4718.52182237 Ry
     hartree contribution      =    2596.05388819 Ry
     xc contribution           =    -965.66782260 Ry
     ewald contribution        =   -3172.97485870 Ry
     smearing contrib. (-TS)   =      -0.00000000 Ry

     convergence has been achieved in  14 iterations

     Forces acting on atoms (cartesian axes, Ry/au):

     atom    1 type  1   force =    -0.00074991   -0.00016501   -0.00017238
     atom    2 type  1   force =     0.00017238    0.00016501   -0.00074991
     atom    3 type  1   force =     0.00074991    0.00016501   -0.00017238
     atom    4 type  1   force =    -0.00017238   -0.00016501   -0.00074991
     atom    5 type  1   force =     0.00074991   -0.00016501    0.00017238
     atom    6 type  1   force =    -0.00017238    0.00016501    0.00074991
     atom    7 type  1   force =    -0.00074991    0.00016501    0.00017238
     atom    8 type  1   force =     0.00017238   -0.00016501    0.00074991
     atom    9 type  2   force =    -0.00053256    0.00020744    0.00003736
     atom   10 type  2   force =    -0.00003736   -0.00020744   -0.00053256
     atom   11 type  2   force =     0.00053256   -0.00020744    0.00003736
     atom   12 type  2   force =     0.00003736    0.00020744   -0.00053256
     atom   13 type  2   force =     0.00053256    0.00020744   -0.00003736
     atom   14 type  2   force =     0.00003736   -0.00020744    0.00053256
     atom   15 type  2   force =    -0.00053256   -0.00020744   -0.00003736
     atom   16 type  2   force =    -0.00003736    0.00020744    0.00053256
     atom   17 type  2   force =    -0.00004573   -0.00067113   -0.00008831
     atom   18 type  2   force =     0.00017576   -0.00095410   -0.00023422
     atom   19 type  2   force =     0.00004573    0.00067113   -0.00008831
     atom   20 type  2   force =    -0.00017576    0.00095410   -0.00023422
     atom   21 type  2   force =     0.00004573   -0.00067113    0.00008831
     atom   22 type  2   force =    -0.00017576   -0.00095410    0.00023422
     atom   23 type  2   force =    -0.00004573    0.00067113    0.00008831
     atom   24 type  2   force =     0.00017576    0.00095410    0.00023422
     atom   25 type  2   force =     0.00023422   -0.00095410   -0.00017576
     atom   26 type  2   force =     0.00008831    0.00067113   -0.00004573
     atom   27 type  2   force =    -0.00023422    0.00095410   -0.00017576
     atom   28 type  2   force =    -0.00008831   -0.00067113   -0.00004573
     atom   29 type  2   force =    -0.00023422   -0.00095410    0.00017576
     atom   30 type  2   force =    -0.00008831    0.00067113    0.00004573
     atom   31 type  2   force =     0.00023422    0.00095410    0.00017576
     atom   32 type  2   force =     0.00008831   -0.00067113    0.00004573

     Total force =     0.000000     Total SCF correction =     0.000000

     Computing stress (Cartesian axis) and pressure

          total   stress  (Ry/bohr**3)                   (kbar)     P=    0.01
   0.00000042   0.00000000   0.00000000          0.06      0.00      0.00
   0.00000000  -0.00000056   0.00000000          0.00     -0.08      0.00
   0.00000000   0.00000000   0.00000042          0.00      0.00      0.06

     Writing output data file Landau_5.save

     General routines

     Parallel routines

   This run was terminated on:   6:40: 2  23Mar2020

   JOB DONE.