     Program PWSCF v.6.2 (svn rev. 14038) starts on 28Feb2020 at 17:18: 9

     K-points division:     npool     =      40
     Reading input from rscf.in

     Current dimensions of program PWSCF are:
     Max number of different atomic species (ntypx) = 10
     Max number of k-points (npk) =  40000
     Max angular momentum in pseudopotentials (lmaxx) =  3

     Subspace diagonalization in iterative solution of the eigenvalue problem:
     a serial algorithm will be used

     bravais-lattice index     =            0
     lattice parameter (alat)  =      13.8397  a.u.
     unit-cell volume          =    2804.9816 (a.u.)^3
     number of atoms/cell      =           32
     number of atomic types    =            2
     number of electrons       =       368.00
     number of Kohn-Sham states=          221
     kinetic-energy cutoff     =     120.0000  Ry
     charge density cutoff     =     480.0000  Ry
     convergence threshold     =      1.0E-08
     mixing beta               =       0.7000
     number of iterations used =            8  plain     mixing
     Exchange-correlation      = SLA PW NOGX NOGC ( 1  4  0  0 0 0)
     nstep                     =           50

     celldm(1)=  13.839685  celldm(2)=   0.000000  celldm(3)=   0.000000
     celldm(4)=   0.000000  celldm(5)=   0.000000  celldm(6)=   0.000000

     crystal axes: (cart. coord. in units of alat)
               a(1) = (   1.000000   0.000000   0.000000 )
               a(2) = (   0.000000   1.058160   0.000000 )
               a(3) = (   0.000000   0.000000   1.000000 )

     reciprocal axes: (cart. coord. in units 2 pi/alat)
               b(1) = (  1.000000  0.000000  0.000000 )
               b(2) = (  0.000000  0.945037  0.000000 )
               b(3) = (  0.000000  0.000000  1.000000 )

     PseudoPot. # 1 for W  read from file:
     /cluster/scratch/mnoe/QE/pps/W_ONCV_LDA-4.0.upf
     MD5 check sum: ba0307d5d4cd419d6f1d13dc49d7c13a
     Pseudo is Norm-conserving + core correction, Zval = 28.0
     Generated using ONCVPSP code by D. R. Hamann
     Using radial grid of 1380 points,  8 beta functions with:
                l(1) =   0
                l(2) =   0
                l(3) =   1
                l(4) =   1
                l(5) =   2
                l(6) =   2
                l(7) =   3
                l(8) =   3

     PseudoPot. # 2 for O  read from file:
     /cluster/scratch/mnoe/QE/pps/O_ONCV_LDA-3.0.upf
     MD5 check sum: a1bd6164e7280c17a38c229939bfbd54
     Pseudo is Norm-conserving + core correction, Zval =  6.0
     Generated using ONCVPSP code by D. R. Hamann
     Using radial grid of  926 points,  5 beta functions with:
                l(1) =   0
                l(2) =   0
                l(3) =   1
                l(4) =   1
                l(5) =   2

     atomic species   valence    mass     pseudopotential
        W             28.00   183.84000     W ( 1.00)
        O              6.00    15.99940     O ( 1.00)

      8 Sym. Ops. (no inversion) found ( 4 have fractional translation)

   Cartesian axes

     site n.     atom                  positions (alat units)
         1           W   tau(   1) = (   0.2553900   0.3004091   0.2501500  )
         2           W   tau(   2) = (  -0.2501500   0.7577510  -0.7446100  )
         3           W   tau(   3) = (   0.2446100   0.2286709   0.7501500  )
         4           W   tau(   4) = (   0.7501500   0.8294891   0.7553900  )
         5           W   tau(   5) = (   0.7446100   0.3004091   0.7498500  )
         6           W   tau(   6) = (   0.2501500   0.7577510   0.7446100  )
         7           W   tau(   7) = (  -0.2446100   0.2286709  -0.7501500  )
         8           W   tau(   8) = (   0.2498500   0.8294891   0.2446100  )
         9           O   tau(   9) = (   0.2559400   0.0128837   0.2543000  )
        10           O   tau(  10) = (  -0.2543001   1.0452764  -0.7440600  )
        11           O   tau(  11) = (   0.2440600   0.5161963   0.7543000  )
        12           O   tau(  12) = (   0.7543000   0.5419638   0.7559400  )
        13           O   tau(  13) = (   0.7440600   0.0128837   0.7457000  )
        14           O   tau(  14) = (   0.2543000   1.0452764   0.7440600  )
        15           O   tau(  15) = (  -0.2440600   0.5161963  -0.7543001  )
        16           O   tau(  16) = (   0.2457000   0.5419638   0.2440600  )
        17           O   tau(  17) = (   0.4980900   0.2713122   0.7100718  )
        18           O   tau(  18) = (   0.4996100   0.7892816   0.7899282  )
        19           O   tau(  19) = (  -0.9980899   0.2577678   1.2100718  )
        20           O   tau(  20) = (   0.0003899   0.7979584   0.2899282  )
        21           O   tau(  21) = (   0.5019100   0.2713122   0.2899282  )
        22           O   tau(  22) = (   0.5003900   0.7892816   1.2100718  )
        23           O   tau(  23) = (  -0.0019101   0.2577678   0.7899282  )
        24           O   tau(  24) = (  -1.0003900   0.7979584   0.7100718  )
        25           O   tau(  25) = (   0.7100719   0.2602016   2.0003900  )
        26           O   tau(  26) = (   0.2899282   0.7868478   0.4980900  )
        27           O   tau(  27) = (   0.7899282   0.2688785   0.5003900  )
        28           O   tau(  28) = (   0.2100718   0.8003922   1.9980899  )
        29           O   tau(  29) = (   0.2899282   0.2602016   0.9996101  )
        30           O   tau(  30) = (   0.7100719   0.7868478   0.5019100  )
        31           O   tau(  31) = (   0.2100718   0.2688785   0.4996100  )
        32           O   tau(  32) = (   0.7899282   0.8003922   1.0019101  )

     number of k points=    40  gaussian smearing, width (Ry)=  0.0007
                       cart. coord. in units 2pi/alat
        k(    1) = (   0.0000000   0.0000000   0.0000000), wk =   0.0092593
        k(    2) = (   0.0000000   0.0000000   0.1666667), wk =   0.0370370
        k(    3) = (   0.0000000   0.0000000   0.3333333), wk =   0.0370370
        k(    4) = (   0.0000000   0.0000000  -0.5000000), wk =   0.0185185
        k(    5) = (   0.0000000   0.1575061   0.0000000), wk =   0.0185185
        k(    6) = (   0.0000000   0.1575061   0.1666667), wk =   0.0740741
        k(    7) = (   0.0000000   0.1575061   0.3333333), wk =   0.0740741
        k(    8) = (   0.0000000   0.1575061  -0.5000000), wk =   0.0370370
        k(    9) = (   0.0000000   0.3150122   0.0000000), wk =   0.0185185
        k(   10) = (   0.0000000   0.3150122   0.1666667), wk =   0.0740741
        k(   11) = (   0.0000000   0.3150122   0.3333333), wk =   0.0740741
        k(   12) = (   0.0000000   0.3150122  -0.5000000), wk =   0.0370370
        k(   13) = (   0.0000000  -0.4725183   0.0000000), wk =   0.0092593
        k(   14) = (   0.0000000  -0.4725183   0.1666667), wk =   0.0370370
        k(   15) = (   0.0000000  -0.4725183   0.3333333), wk =   0.0370370
        k(   16) = (   0.0000000  -0.4725183  -0.5000000), wk =   0.0185185
        k(   17) = (   0.1666667   0.0000000   0.1666667), wk =   0.0370370
        k(   18) = (   0.1666667   0.0000000   0.3333333), wk =   0.0740741
        k(   19) = (   0.1666667   0.0000000  -0.5000000), wk =   0.0370370
        k(   20) = (   0.1666667   0.1575061   0.1666667), wk =   0.0740741
        k(   21) = (   0.1666667   0.1575061   0.3333333), wk =   0.1481481
        k(   22) = (   0.1666667   0.1575061  -0.5000000), wk =   0.0740741
        k(   23) = (   0.1666667   0.3150122   0.1666667), wk =   0.0740741
        k(   24) = (   0.1666667   0.3150122   0.3333333), wk =   0.1481481
        k(   25) = (   0.1666667   0.3150122  -0.5000000), wk =   0.0740741
        k(   26) = (   0.1666667  -0.4725183   0.1666667), wk =   0.0370370
        k(   27) = (   0.1666667  -0.4725183   0.3333333), wk =   0.0740741
        k(   28) = (   0.1666667  -0.4725183  -0.5000000), wk =   0.0370370
        k(   29) = (   0.3333333   0.0000000   0.3333333), wk =   0.0370370
        k(   30) = (   0.3333333   0.0000000  -0.5000000), wk =   0.0370370
        k(   31) = (   0.3333333   0.1575061   0.3333333), wk =   0.0740741
        k(   32) = (   0.3333333   0.1575061  -0.5000000), wk =   0.0740741
        k(   33) = (   0.3333333   0.3150122   0.3333333), wk =   0.0740741
        k(   34) = (   0.3333333   0.3150122  -0.5000000), wk =   0.0740741
        k(   35) = (   0.3333333  -0.4725183   0.3333333), wk =   0.0370370
        k(   36) = (   0.3333333  -0.4725183  -0.5000000), wk =   0.0370370
        k(   37) = (  -0.5000000   0.0000000  -0.5000000), wk =   0.0092593
        k(   38) = (  -0.5000000   0.1575061  -0.5000000), wk =   0.0185185
        k(   39) = (  -0.5000000   0.3150122  -0.5000000), wk =   0.0185185
        k(   40) = (  -0.5000000  -0.4725183  -0.5000000), wk =   0.0092593

     Initial potential from superposition of free atoms

     starting charge  367.99656, renormalised to  368.00000
     Starting wfc are  232 randomized atomic wfcs

     Self-consistent Calculation

     iteration #  1     ecut=   120.00 Ry     beta= 0.70
     Davidson diagonalization with overlap
     ethr =  1.00E-02,  avg # of iterations =  5.1

     total energy              =   -6254.01164107 Ry
     Harris-Foulkes estimate   =   -6264.58363399 Ry
     estimated scf accuracy    <      13.39744592 Ry

[...]

     End of self-consistent calculation

          k = 0.0000 0.0000 0.0000 ( 62239 PWs)   bands (ev):

   -66.1563 -66.1559 -66.1553 -66.1553 -66.1549 -66.1549 -66.1544 -66.1540
   -30.5383 -30.5354 -30.5315 -30.5315 -30.5270 -30.5260 -30.5211 -30.5211
   -30.5151 -30.5136 -30.5136 -30.5123 -30.4580 -30.4571 -30.4571 -30.4558
   -30.4321 -30.4321 -30.4289 -30.4267 -30.4254 -30.4254 -30.4212 -30.4204
   -20.3109 -20.3108 -20.3108 -20.3108 -20.3107 -20.3107 -20.3107 -20.3106
   -20.2915 -20.2914 -20.2903 -20.2901 -20.2901 -20.2898 -20.2895 -20.2895
   -20.2893 -20.2893 -20.2890 -20.2889 -20.2884 -20.2882 -20.2880 -20.2880
   -20.2877 -20.2877 -20.2864 -20.2864 -20.2837 -20.2834 -20.2834 -20.2831
   -20.2808 -20.2806 -20.2804 -20.2804 -20.2789 -20.2789 -20.2789 -20.2785
   -20.2764 -20.2764 -20.2762 -20.2761 -20.2757 -20.2757 -20.2757 -20.2756
   -20.2730 -20.2729 -20.2729 -20.2725 -20.2718 -20.2718 -20.2717 -20.2713
   -10.0048  -9.7484  -9.5683  -9.5683  -9.3474  -9.3474  -9.1231  -9.1081
    -8.9999  -8.8209  -8.8209  -8.8176  -7.8168  -7.7974  -7.7734  -7.7714
    -7.7631  -7.7236  -7.7236  -7.6811  -7.6811  -7.6632  -7.6600  -7.6600
     1.0306   1.0308   1.1616   1.1617   1.1748   1.1748   1.3332   1.4906
     1.6564   1.6564   1.6841   1.7670   2.3140   2.3954   2.5464   2.5534
     2.6680   2.6680   4.0839   4.0839   4.2617   4.2619   4.6719   4.6719
     4.7069   4.7069   4.9063   4.9399   5.0542   5.0542   5.0579   5.5149
     5.5151   5.5519   5.5519   5.5687   5.5687   5.6035   5.6035   5.8800
     5.8800   5.9130   5.9358   5.9373   6.0185   6.0616   6.0714   6.0738
     6.0860   6.2852   6.2894   6.5011   6.5011   6.8066   6.8066   6.8300
     6.8300   6.8301   7.0099   7.0649   7.0858   7.0858   7.2692   7.2692
     7.3124   7.3124   7.9858   7.9954   8.1383   8.1383   8.1865   8.1975
     9.1697   9.1723   9.9432   9.9432   9.9627   9.9679  12.3295  12.3295
[...]
W        0.244610020   0.216102411   0.750150034    0   0   0
W        0.750149990   0.783897570   0.755390012    0   0   0
W        0.744610010   0.283897601   0.749849998    0   0   0
W        0.250150034   0.716102399   0.744610020    0   0   0
W       -0.244610037   0.216102411  -0.750150017    0   0   0
W        0.249849998   0.783897570   0.244610010    0   0   0
O        0.255940012   0.012175600   0.254300009    0   0   0
O       -0.254300055   0.987824428  -0.744060037    0   0   0
O        0.244060037   0.487824391   0.754299989    0   0   0
O        0.754300009   0.512175583   0.755939995    0   0   0
O        0.744059991   0.012175600   0.745700026    0   0   0
O        0.254300006   0.987824428   0.744060020    0   0   0
O       -0.244060037   0.487824391  -0.754300055    0   0   0
O        0.245700043   0.512175583   0.244059991    0   0   0
O        0.498089975   0.256399998   0.710071811    0   0   0
O        0.499610013   0.745899960   0.789928168    0   0   0
O       -0.998089943   0.243599987   1.210071836    0   0   0
O        0.000389928   0.754099888   0.289928213    0   0   0
O        0.501910025   0.256399998   0.289928213    0   0   0
O        0.500389987   0.745899960   1.210071836    0   0   0
O       -0.001910084   0.243599987   0.789928168    0   0   0
O       -1.000389955   0.754099888   0.710071811    0   0   0
O        0.710071850   0.245899990   2.000389955    0   0   0
O        0.289928197   0.743599941   0.498089975    0   0   0
O        0.789928162   0.254099995   0.500389987    0   0   0
O        0.210071827   0.756399907   1.998089943    0   0   0
O        0.289928197   0.245899990   0.999610072    0   0   0
O        0.710071850   0.743599941   0.501910025    0   0   0
O        0.210071827   0.254099995   0.499610013    0   0   0
O        0.789928162   0.756399907   1.001910084    0   0   0
End final coordinates

     A final scf calculation at the relaxed structure.
     The G-vectors are recalculated for the final unit cell
     Results may differ from those at the preceding step.

     bravais-lattice index     =            0
     lattice parameter (alat)  =      13.8397  a.u.
     unit-cell volume          =    2825.8626 (a.u.)^3
     number of atoms/cell      =           32
     number of atomic types    =            2
     number of electrons       =       368.00
     number of Kohn-Sham states=          221
     kinetic-energy cutoff     =     120.0000  Ry
     charge density cutoff     =     480.0000  Ry
     convergence threshold     =      1.0E-10
     mixing beta               =       0.7000
     number of iterations used =            8  plain     mixing
     Exchange-correlation      = SLA PW NOGX NOGC ( 1  4  0  0 0 0)

     celldm(1)=  13.839685  celldm(2)=   0.000000  celldm(3)=   0.000000
     celldm(4)=   0.000000  celldm(5)=   0.000000  celldm(6)=   0.000000

     crystal axes: (cart. coord. in units of alat)
               a(1) = (   1.005969   0.000000   0.000000 )
               a(2) = (   0.000000   1.053425   0.000000 )
               a(3) = (   0.000000   0.000000   1.005969 )

     reciprocal axes: (cart. coord. in units 2 pi/alat)
               b(1) = (  0.994067  0.000000  0.000000 )
               b(2) = (  0.000000  0.949285  0.000000 )
               b(3) = (  0.000000  0.000000  0.994067 )

     PseudoPot. # 1 for W  read from file:
     /cluster/scratch/mnoe/QE/pps/W_ONCV_LDA-4.0.upf
     MD5 check sum: ba0307d5d4cd419d6f1d13dc49d7c13a
     Pseudo is Norm-conserving + core correction, Zval = 28.0
     Generated using ONCVPSP code by D. R. Hamann
     Using radial grid of 1380 points,  8 beta functions with:
                l(1) =   0
                l(2) =   0
                l(3) =   1
                l(4) =   1
                l(5) =   2
                l(6) =   2
                l(7) =   3
                l(8) =   3

     PseudoPot. # 2 for O  read from file:
     /cluster/scratch/mnoe/QE/pps/O_ONCV_LDA-3.0.upf
     MD5 check sum: a1bd6164e7280c17a38c229939bfbd54
     Pseudo is Norm-conserving + core correction, Zval =  6.0
     Generated using ONCVPSP code by D. R. Hamann
     Using radial grid of  926 points,  5 beta functions with:
                l(1) =   0
                l(2) =   0
                l(3) =   1
                l(4) =   1
                l(5) =   2

     atomic species   valence    mass     pseudopotential
        W             28.00   183.84000     W ( 1.00)
        O              6.00    15.99940     O ( 1.00)

      8 Sym. Ops. (no inversion) found ( 4 have fractional translation)

   Cartesian axes

     site n.     atom                  positions (alat units)
         1           W   tau(   1) = (   0.2569144   0.2990647   0.2516431  )
         2           W   tau(   2) = (  -0.2516431   0.7543599  -0.7490544  )
         3           W   tau(   3) = (   0.2460700   0.2276476   0.7546275  )
         4           W   tau(   4) = (   0.7546274   0.8257770   0.7598987  )
         5           W   tau(   5) = (   0.7490544   0.2990647   0.7543256  )
         6           W   tau(   6) = (   0.2516431   0.7543599   0.7490544  )
         7           W   tau(   7) = (  -0.2460700   0.2276476  -0.7546274  )
         8           W   tau(   8) = (   0.2513413   0.8257770   0.2460700  )
         9           O   tau(   9) = (   0.2574676   0.0128261   0.2558179  )
        10           O   tau(  10) = (  -0.2558179   1.0405985  -0.7485011  )
        11           O   tau(  11) = (   0.2455168   0.5138862   0.7588022  )
        12           O   tau(  12) = (   0.7588022   0.5395384   0.7604520  )
        13           O   tau(  13) = (   0.7485011   0.0128261   0.7501509  )
        14           O   tau(  14) = (   0.2558178   1.0405985   0.7485011  )
        15           O   tau(  15) = (  -0.2455168   0.5138862  -0.7588023  )
        16           O   tau(  16) = (   0.2471666   0.5395384   0.2455167  )
        17           O   tau(  17) = (   0.5010629   0.2700981   0.7143100  )
        18           O   tau(  18) = (   0.5025920   0.7857494   0.7946430  )
        19           O   tau(  19) = (  -1.0040473   0.2566142   1.2172944  )
        20           O   tau(  20) = (   0.0003923   0.7943874   0.2916587  )
        21           O   tau(  21) = (   0.5049058   0.2700981   0.2916587  )
        22           O   tau(  22) = (   0.5033767   0.7857494   1.2172944  )
        23           O   tau(  23) = (  -0.0019215   0.2566142   0.7946430  )
        24           O   tau(  24) = (  -1.0063610   0.7943874   0.7143100  )
        25           O   tau(  25) = (   0.7143101   0.2590371   2.0123297  )
        26           O   tau(  26) = (   0.2916587   0.7833265   0.5010629  )
        27           O   tau(  27) = (   0.7946430   0.2676752   0.5033767  )
        28           O   tau(  28) = (   0.2113257   0.7968103   2.0100160  )
        29           O   tau(  29) = (   0.2916587   0.2590371   1.0055765  )
        30           O   tau(  30) = (   0.7143101   0.7833265   0.5049058  )
        31           O   tau(  31) = (   0.2113257   0.2676752   0.5025920  )
        32           O   tau(  32) = (   0.7946430   0.7968103   1.0078902  )

     number of k points=    40  gaussian smearing, width (Ry)=  0.0007
                       cart. coord. in units 2pi/alat
        k(    1) = (   0.0000000   0.0000000   0.0000000), wk =   0.0092593
        k(    2) = (   0.0000000   0.0000000   0.1656778), wk =   0.0370370
        k(    3) = (   0.0000000   0.0000000   0.3313556), wk =   0.0370370
        k(    4) = (   0.0000000   0.0000000  -0.4970334), wk =   0.0185185
        k(    5) = (   0.0000000   0.1582141   0.0000000), wk =   0.0185185
        k(    6) = (   0.0000000   0.1582141   0.1656778), wk =   0.0740741
        k(    7) = (   0.0000000   0.1582141   0.3313556), wk =   0.0740741
        k(    8) = (   0.0000000   0.1582141  -0.4970334), wk =   0.0370370
        k(    9) = (   0.0000000   0.3164283   0.0000000), wk =   0.0185185
        k(   10) = (   0.0000000   0.3164283   0.1656778), wk =   0.0740741
        k(   11) = (   0.0000000   0.3164283   0.3313556), wk =   0.0740741
        k(   12) = (   0.0000000   0.3164283  -0.4970334), wk =   0.0370370
        k(   13) = (   0.0000000  -0.4746424   0.0000000), wk =   0.0092593
        k(   14) = (   0.0000000  -0.4746424   0.1656778), wk =   0.0370370
        k(   15) = (   0.0000000  -0.4746424   0.3313556), wk =   0.0370370
        k(   16) = (   0.0000000  -0.4746424  -0.4970334), wk =   0.0185185
        k(   17) = (   0.1656778   0.0000000   0.1656778), wk =   0.0370370
        k(   18) = (   0.1656778   0.0000000   0.3313556), wk =   0.0740741
        k(   19) = (   0.1656778   0.0000000  -0.4970334), wk =   0.0370370
        k(   20) = (   0.1656778   0.1582141   0.1656778), wk =   0.0740741
        k(   21) = (   0.1656778   0.1582141   0.3313556), wk =   0.1481481
        k(   22) = (   0.1656778   0.1582141  -0.4970334), wk =   0.0740741
        k(   23) = (   0.1656778   0.3164283   0.1656778), wk =   0.0740741
        k(   24) = (   0.1656778   0.3164283   0.3313556), wk =   0.1481481
        k(   25) = (   0.1656778   0.3164283  -0.4970334), wk =   0.0740741
        k(   26) = (   0.1656778  -0.4746424   0.1656778), wk =   0.0370370
        k(   27) = (   0.1656778  -0.4746424   0.3313556), wk =   0.0740741
        k(   28) = (   0.1656778  -0.4746424  -0.4970334), wk =   0.0370370
        k(   29) = (   0.3313556   0.0000000   0.3313556), wk =   0.0370370
        k(   30) = (   0.3313556   0.0000000  -0.4970334), wk =   0.0370370
        k(   31) = (   0.3313556   0.1582141   0.3313556), wk =   0.0740741
        k(   32) = (   0.3313556   0.1582141  -0.4970334), wk =   0.0740741
        k(   33) = (   0.3313556   0.3164283   0.3313556), wk =   0.0740741
        k(   34) = (   0.3313556   0.3164283  -0.4970334), wk =   0.0740741
        k(   35) = (   0.3313556  -0.4746424   0.3313556), wk =   0.0370370
        k(   36) = (   0.3313556  -0.4746424  -0.4970334), wk =   0.0370370
        k(   37) = (  -0.4970334   0.0000000  -0.4970334), wk =   0.0092593
        k(   38) = (  -0.4970334   0.1582141  -0.4970334), wk =   0.0185185
        k(   39) = (  -0.4970334   0.3164283  -0.4970334), wk =   0.0185185
        k(   40) = (  -0.4970334  -0.4746424  -0.4970334), wk =   0.0092593

     Initial potential from superposition of free atoms

     starting charge  367.99656, renormalised to  368.00000
     Starting wfc are  232 randomized atomic wfcs

     Writing output data file Landau_6.save

     Self-consistent Calculation

[...]

     total energy              =   -6261.10450642 Ry
     Harris-Foulkes estimate   =   -6261.10450642 Ry
     estimated scf accuracy    <          7.3E-10 Ry

     iteration # 14     ecut=   120.00 Ry     beta= 0.70
     Davidson diagonalization with overlap
     ethr =  1.99E-13,  avg # of iterations =  2.5

     End of self-consistent calculation

[...]

          k = 0.3314-0.4746-0.4970 ( 62696 PWs)   bands (ev):

[...]

          k =-0.4970-0.4746-0.4970 ( 62648 PWs)   bands (ev):

   -66.2980 -66.2980 -66.2980 -66.2980 -66.2980 -66.2980 -66.2979 -66.2979
   -30.6476 -30.6476 -30.6472 -30.6472 -30.6472 -30.6472 -30.6470 -30.6470
   -30.5962 -30.5962 -30.5962 -30.5962 -30.5960 -30.5959 -30.5956 -30.5955
   -30.5886 -30.5886 -30.5884 -30.5884 -30.5881 -30.5881 -30.5881 -30.5881
   -20.4607 -20.4607 -20.4607 -20.4607 -20.4607 -20.4607 -20.4607 -20.4607
   -20.4404 -20.4404 -20.4404 -20.4403 -20.4403 -20.4403 -20.4403 -20.4403
   -20.4385 -20.4385 -20.4385 -20.4385 -20.4384 -20.4384 -20.4384 -20.4384
   -20.4362 -20.4361 -20.4361 -20.4361 -20.4360 -20.4360 -20.4360 -20.4360
   -20.4283 -20.4283 -20.4282 -20.4282 -20.4282 -20.4282 -20.4282 -20.4282
   -20.4248 -20.4248 -20.4248 -20.4248 -20.4248 -20.4248 -20.4247 -20.4247
   -20.4231 -20.4231 -20.4231 -20.4231 -20.4231 -20.4231 -20.4230 -20.4230
    -9.0632  -9.0631  -9.0556  -9.0555  -9.0555  -9.0555  -9.0521  -9.0521
    -8.5317  -8.5317  -8.5233  -8.5233  -8.5233  -8.5233  -8.5205  -8.5205
    -8.4552  -8.4552  -8.4529  -8.4529  -8.4529  -8.4528  -8.4406  -8.4406
     2.8518   2.8518   2.8536   2.8536   2.8537   2.8537   2.8640   2.8640
     2.9798   2.9798   2.9929   2.9929   2.9929   2.9929   3.0047   3.0047
     3.2720   3.2720   3.3216   3.3216   3.3216   3.3216   3.3575   3.3576
     4.0300   4.0300   4.0463   4.0463   4.0463   4.0463   4.0567   4.0567
     4.2577   4.2577   4.2577   4.2577   4.2595   4.2596   4.2671   4.2671
     4.3552   4.3552   4.3674   4.3674   4.3674   4.3675   4.3728   4.3728
     7.0646   7.0646   7.1115   7.1115   7.1116   7.1116   7.1716   7.1716
     7.2245   7.2245   7.2293   7.2293   7.2305   7.2305   7.2305   7.2305
     7.4919   7.4919   7.5043   7.5043   7.5043   7.5043   7.5203   7.5203
    11.6865  11.6865  11.6886  11.6886  11.6886  11.6886  11.6942  11.6942
    12.1179  12.1179  12.1632  12.1632  12.1632  12.1632  12.2193  12.2193
    12.3648  12.3648  12.3940  12.3940  12.3940  12.3940  12.4129  12.4129
    16.9784  16.9784  17.0019  17.0020  17.0020  17.0020  17.0320  17.0321
    17.3046  17.3046  17.3046  17.3047  17.3047

     the Fermi energy is     8.9365 ev

!    total energy              =   -6261.10450642 Ry
     Harris-Foulkes estimate   =   -6261.10450642 Ry
     estimated scf accuracy    <          6.3E-11 Ry

     The total energy is the sum of the following terms:

     one-electron contribution =   -4751.71449126 Ry
     hartree contribution      =    2610.95998018 Ry
     xc contribution           =    -965.68167456 Ry
     ewald contribution        =   -3154.66832077 Ry
     smearing contrib. (-TS)   =      -0.00000000 Ry

     convergence has been achieved in  14 iterations

     Forces acting on atoms (cartesian axes, Ry/au):

     atom    1 type  1   force =     0.00208236    0.00263462    0.00012773
     atom    2 type  1   force =    -0.00012773   -0.00263462    0.00208236
     atom    3 type  1   force =    -0.00208236   -0.00263462    0.00012773
     atom    4 type  1   force =     0.00012773    0.00263462    0.00208236
     atom    5 type  1   force =    -0.00208236    0.00263462   -0.00012773
     atom    6 type  1   force =     0.00012773   -0.00263462   -0.00208236
     atom    7 type  1   force =     0.00208236   -0.00263462   -0.00012773
     atom    8 type  1   force =    -0.00012773    0.00263462   -0.00208236
     atom    9 type  2   force =     0.00011322   -0.01718686   -0.00025801
     atom   10 type  2   force =     0.00025801    0.01718686    0.00011322
     atom   11 type  2   force =    -0.00011322    0.01718686   -0.00025801
     atom   12 type  2   force =    -0.00025801   -0.01718686    0.00011322
     atom   13 type  2   force =    -0.00011322   -0.01718686    0.00025801
     atom   14 type  2   force =    -0.00025801    0.01718686   -0.00011322
     atom   15 type  2   force =     0.00011322    0.01718686    0.00025801
     atom   16 type  2   force =     0.00025801   -0.01718686   -0.00011322
     atom   17 type  2   force =     0.00100382    0.00077873   -0.00156952
     atom   18 type  2   force =     0.00024964    0.00004201    0.00158823
     atom   19 type  2   force =    -0.00100382   -0.00077873   -0.00156952
     atom   20 type  2   force =    -0.00024964   -0.00004201    0.00158823
     atom   21 type  2   force =    -0.00100382    0.00077873    0.00156952
     atom   22 type  2   force =    -0.00024964    0.00004201   -0.00158823
     atom   23 type  2   force =     0.00100382   -0.00077873    0.00156952
     atom   24 type  2   force =     0.00024964   -0.00004201   -0.00158823
     atom   25 type  2   force =    -0.00158823    0.00004201   -0.00024964
     atom   26 type  2   force =     0.00156952   -0.00077873    0.00100382
     atom   27 type  2   force =     0.00158823   -0.00004201   -0.00024964
     atom   28 type  2   force =    -0.00156952    0.00077873    0.00100382
     atom   29 type  2   force =     0.00158823    0.00004201    0.00024964
     atom   30 type  2   force =    -0.00156952   -0.00077873   -0.00100382
     atom   31 type  2   force =    -0.00158823   -0.00004201    0.00024964
     atom   32 type  2   force =     0.00156952    0.00077873   -0.00100382

     Total force =     0.000000     Total SCF correction =     0.000000

     Computing stress (Cartesian axis) and pressure

          total   stress  (Ry/bohr**3)                   (kbar)     P=    0.20
   0.00000207   0.00000000   0.00000000          0.30      0.00      0.00
   0.00000000  -0.00000011   0.00000000          0.00     -0.02      0.00
   0.00000000   0.00000000   0.00000207          0.00      0.00      0.30

     Writing output data file Landau_6.save

     General routines

     Parallel routines

   This run was terminated on:  18:34:55  28Feb2020

   JOB DONE.