     Program PWSCF v.6.4.1 starts on 20Nov2019 at 23: 8: 6

     K-points division:     npool     =      64
     Reading input from rscf.in

     Current dimensions of program PWSCF are:
     Max number of different atomic species (ntypx) = 10
     Max number of k-points (npk) =  40000
     Max angular momentum in pseudopotentials (lmaxx) =  3

     Subspace diagonalization in iterative solution of the eigenvalue problem:
     a serial algorithm will be used

     Message from routine setup:
     using ibrav=0 with symmetry is DISCOURAGED, use correct ibrav instead

     bravais-lattice index     =            0
     lattice parameter (alat)  =      13.8397  a.u.
     unit-cell volume          =    2804.9816 (a.u.)^3
     number of atoms/cell      =           32
     number of atomic types    =            2
     number of electrons       =       368.00
     number of Kohn-Sham states=          221
     kinetic-energy cutoff     =     120.0000  Ry
     charge density cutoff     =     480.0000  Ry
     convergence threshold     =      1.0E-08
     mixing beta               =       0.7000
     number of iterations used =            8  plain     mixing
     Exchange-correlation      = SLA PW NOGX NOGC ( 1  4  0  0 0 0)
     nstep                     =           50

     celldm(1)=  13.839685  celldm(2)=   0.000000  celldm(3)=   0.000000
     celldm(4)=   0.000000  celldm(5)=   0.000000  celldm(6)=   0.000000

     crystal axes: (cart. coord. in units of alat)
               a(1) = (   1.000000   0.000000   0.000000 )
               a(2) = (   0.000000   1.058160   0.000000 )
               a(3) = (   0.000000   0.000000   1.000000 )

     reciprocal axes: (cart. coord. in units 2 pi/alat)
               b(1) = (  1.000000  0.000000  0.000000 )
               b(2) = (  0.000000  0.945037  0.000000 )
               b(3) = (  0.000000  0.000000  1.000000 )

     PseudoPot. # 1 for W  read from file:
     /cluster/scratch/mnoe/QE/pps/W_ONCV_LDA-4.0.upf
     MD5 check sum: ba0307d5d4cd419d6f1d13dc49d7c13a
     Pseudo is Norm-conserving + core correction, Zval = 28.0
     Generated using ONCVPSP code by D. R. Hamann
     Using radial grid of 1380 points,  8 beta functions with:
                l(1) =   0
                l(2) =   0
                l(3) =   1
                l(4) =   1
                l(5) =   2
                l(6) =   2
                l(7) =   3
                l(8) =   3

     PseudoPot. # 2 for O  read from file:
     /cluster/scratch/mnoe/QE/pps/O_ONCV_LDA-3.0.upf
     MD5 check sum: b55cdb4f45ae2203d24ad12cf8d61a31
     Pseudo is Norm-conserving + core correction, Zval =  6.0
     Generated using ONCVPSP code by D. R. Hamann
     Using radial grid of  926 points,  5 beta functions with:
                l(1) =   0
                l(2) =   0
                l(3) =   1
                l(4) =   1
                l(5) =   2

     atomic species   valence    mass     pseudopotential
        W             28.00   183.84000     W ( 1.00)
        O              6.00    15.99940     O ( 1.00)

      8 Sym. Ops., with inversion, found ( 6 have fractional translation)

   Cartesian axes

     site n.     atom                  positions (alat units)
         1           W   tau(   1) = (   0.2435300   0.3032839   0.0061200  )
         2           W   tau(   2) = (   0.7564700   0.7548762   0.9938800  )
         3           W   tau(   3) = (   0.2564700   0.2257961   0.5061200  )
         4           W   tau(   4) = (   0.7435300   0.8323639   0.4938800  )
         5           W   tau(   5) = (   0.7564700   0.3032839   0.4938800  )
         6           W   tau(   6) = (   0.2435300   0.7548762   0.5061200  )
         7           W   tau(   7) = (   0.7435300   0.2257961   0.9938800  )
         8           W   tau(   8) = (   0.2564700   0.8323639   0.0061200  )
         9           O   tau(   9) = (   0.2380600   0.0183235   0.0019000  )
        10           O   tau(  10) = (   0.7619400   1.0398366   0.9981000  )
        11           O   tau(  11) = (   0.2619400   0.5107565   0.5019000  )
        12           O   tau(  12) = (   0.7380600   0.5474036   0.4981000  )
        13           O   tau(  13) = (   0.7619400   0.0183235   0.4981000  )
        14           O   tau(  14) = (   0.2380600   1.0398366   0.5019000  )
        15           O   tau(  15) = (   0.7380600   0.5107565   0.9981000  )
        16           O   tau(  16) = (   0.2619400   0.5474036   0.0019000  )
        17           O   tau(  17) = (   0.5017700   0.2515776   0.4741142  )
        18           O   tau(  18) = (   0.4982300   0.8065826   0.5258858  )
        19           O   tau(  19) = (   0.9982300   0.2775025   0.9741142  )
        20           O   tau(  20) = (   0.0017700   0.7806576   0.0258858  )
        21           O   tau(  21) = (   0.4982300   0.2515776   0.0258858  )
        22           O   tau(  22) = (   0.5017700   0.8065826   0.9741142  )
        23           O   tau(  23) = (   0.0017700   0.2775025   0.5258858  )
        24           O   tau(  24) = (   0.9982300   0.7806576   0.4741142  )
        25           O   tau(  25) = (   0.7241143   0.2617042   0.7473200  )
        26           O   tau(  26) = (   0.2758858   0.7964560   0.2526800  )
        27           O   tau(  27) = (   0.7758858   0.2673759   0.2473199  )
        28           O   tau(  28) = (   0.2241142   0.7907842   0.7526800  )
        29           O   tau(  29) = (   0.2758858   0.2617042   0.7526800  )
        30           O   tau(  30) = (   0.7241143   0.7964560   0.2473199  )
        31           O   tau(  31) = (   0.2241142   0.2673759   0.2526800  )
        32           O   tau(  32) = (   0.7758858   0.7907842   0.7473200  )

     number of k points=    64  gaussian smearing, width (Ry)=  0.0007
                       cart. coord. in units 2pi/alat
        k(    1) = (   0.0000000   0.0000000   0.0000000), wk =   0.0092593
        k(    2) = (   0.0000000   0.0000000   0.1666667), wk =   0.0185185
        k(    3) = (   0.0000000   0.0000000   0.3333333), wk =   0.0185185
        k(    4) = (   0.0000000   0.0000000  -0.5000000), wk =   0.0092593
        k(    5) = (   0.0000000   0.1575061   0.0000000), wk =   0.0185185
        k(    6) = (   0.0000000   0.1575061   0.1666667), wk =   0.0370370
        k(    7) = (   0.0000000   0.1575061   0.3333333), wk =   0.0370370
        k(    8) = (   0.0000000   0.1575061  -0.5000000), wk =   0.0185185
        k(    9) = (   0.0000000   0.3150122   0.0000000), wk =   0.0185185
        k(   10) = (   0.0000000   0.3150122   0.1666667), wk =   0.0370370
        k(   11) = (   0.0000000   0.3150122   0.3333333), wk =   0.0370370
        k(   12) = (   0.0000000   0.3150122  -0.5000000), wk =   0.0185185
        k(   13) = (   0.0000000  -0.4725183   0.0000000), wk =   0.0092593
        k(   14) = (   0.0000000  -0.4725183   0.1666667), wk =   0.0185185
        k(   15) = (   0.0000000  -0.4725183   0.3333333), wk =   0.0185185
        k(   16) = (   0.0000000  -0.4725183  -0.5000000), wk =   0.0092593
        k(   17) = (   0.1666667   0.0000000   0.1666667), wk =   0.0370370
        k(   18) = (   0.1666667   0.0000000   0.3333333), wk =   0.0370370
        k(   19) = (   0.1666667   0.0000000  -0.5000000), wk =   0.0185185
        k(   20) = (   0.1666667   0.1575061   0.1666667), wk =   0.0740741
        k(   21) = (   0.1666667   0.1575061   0.3333333), wk =   0.0740741
        k(   22) = (   0.1666667   0.1575061  -0.5000000), wk =   0.0370370
        k(   23) = (   0.1666667   0.3150122   0.1666667), wk =   0.0740741
        k(   24) = (   0.1666667   0.3150122   0.3333333), wk =   0.0740741
        k(   25) = (   0.1666667   0.3150122  -0.5000000), wk =   0.0370370
        k(   26) = (   0.1666667  -0.4725183   0.1666667), wk =   0.0370370
        k(   27) = (   0.1666667  -0.4725183   0.3333333), wk =   0.0370370
        k(   28) = (   0.1666667  -0.4725183  -0.5000000), wk =   0.0185185
        k(   29) = (   0.3333333   0.0000000   0.3333333), wk =   0.0370370
        k(   30) = (   0.3333333   0.0000000  -0.5000000), wk =   0.0185185
        k(   31) = (   0.3333333   0.1575061   0.3333333), wk =   0.0740741
        k(   32) = (   0.3333333   0.1575061  -0.5000000), wk =   0.0370370
        k(   33) = (   0.3333333   0.3150122   0.3333333), wk =   0.0740741
        k(   34) = (   0.3333333   0.3150122  -0.5000000), wk =   0.0370370
        k(   35) = (   0.3333333  -0.4725183   0.3333333), wk =   0.0370370
        k(   36) = (   0.3333333  -0.4725183  -0.5000000), wk =   0.0185185
        k(   37) = (  -0.5000000   0.0000000  -0.5000000), wk =   0.0092593
        k(   38) = (  -0.5000000   0.1575061  -0.5000000), wk =   0.0185185
        k(   39) = (  -0.5000000   0.3150122  -0.5000000), wk =   0.0185185
        k(   40) = (  -0.5000000  -0.4725183  -0.5000000), wk =   0.0092593
        k(   41) = (   0.1666667   0.0000000   0.0000000), wk =   0.0185185
        k(   42) = (   0.3333333   0.0000000   0.0000000), wk =   0.0185185
        k(   43) = (  -0.5000000   0.0000000   0.0000000), wk =   0.0092593
        k(   44) = (   0.1666667  -0.1575061   0.0000000), wk =   0.0370370
        k(   45) = (   0.3333333  -0.1575061   0.0000000), wk =   0.0370370
        k(   46) = (  -0.5000000  -0.1575061   0.0000000), wk =   0.0185185
        k(   47) = (   0.1666667  -0.3150122   0.0000000), wk =   0.0370370
        k(   48) = (   0.3333333  -0.3150122   0.0000000), wk =   0.0370370
        k(   49) = (  -0.5000000  -0.3150122   0.0000000), wk =   0.0185185
        k(   50) = (   0.1666667   0.4725183   0.0000000), wk =   0.0185185
        k(   51) = (   0.3333333   0.4725183   0.0000000), wk =   0.0185185
        k(   52) = (  -0.5000000   0.4725183   0.0000000), wk =   0.0092593
        k(   53) = (   0.3333333   0.0000000   0.1666667), wk =   0.0370370
        k(   54) = (  -0.5000000   0.0000000   0.1666667), wk =   0.0185185
        k(   55) = (   0.3333333  -0.1575061   0.1666667), wk =   0.0740741
        k(   56) = (  -0.5000000  -0.1575061   0.1666667), wk =   0.0370370
        k(   57) = (   0.3333333  -0.3150122   0.1666667), wk =   0.0740741
        k(   58) = (  -0.5000000  -0.3150122   0.1666667), wk =   0.0370370
        k(   59) = (   0.3333333   0.4725183   0.1666667), wk =   0.0370370
        k(   60) = (  -0.5000000   0.4725183   0.1666667), wk =   0.0185185
        k(   61) = (  -0.5000000   0.0000000   0.3333333), wk =   0.0185185
        k(   62) = (  -0.5000000  -0.1575061   0.3333333), wk =   0.0370370
        k(   63) = (  -0.5000000  -0.3150122   0.3333333), wk =   0.0370370
        k(   64) = (  -0.5000000   0.4725183   0.3333333), wk =   0.0185185

     Initial potential from superposition of free atoms

     starting charge  367.99656, renormalised to  368.00000
     Starting wfcs are  232 randomized atomic wfcs

     Self-consistent Calculation

     iteration #  1     ecut=   120.00 Ry     beta= 0.70
     Davidson diagonalization with overlap
     ethr =  1.00E-02,  avg # of iterations =  5.0

     total energy              =   -6253.97648903 Ry
     Harris-Foulkes estimate   =   -6264.56237960 Ry
[...]
End final coordinates

     Writing output data file Landau_14.save/

     Final scf calculation at the relaxed structure.
     The G-vectors are recalculated for the final unit cell
     Results may differ from those at the preceding step.

     bravais-lattice index     =            0
     lattice parameter (alat)  =      13.8397  a.u.
     unit-cell volume          =    2842.4988 (a.u.)^3
     number of atoms/cell      =           32
     number of atomic types    =            2
     number of electrons       =       368.00
     number of Kohn-Sham states=          221
     kinetic-energy cutoff     =     120.0000  Ry
     charge density cutoff     =     480.0000  Ry
     convergence threshold     =      1.0E-10
     mixing beta               =       0.7000
     number of iterations used =            8  plain     mixing
     Exchange-correlation      = SLA PW NOGX NOGC ( 1  4  0  0 0 0)

     celldm(1)=  13.839685  celldm(2)=   0.000000  celldm(3)=   0.000000
     celldm(4)=   0.000000  celldm(5)=   0.000000  celldm(6)=   0.000000

     crystal axes: (cart. coord. in units of alat)
               a(1) = (   1.011692   0.000000   0.000000 )
               a(2) = (   0.000000   1.047391   0.000000 )
               a(3) = (   0.000000   0.000000   1.011963 )

     reciprocal axes: (cart. coord. in units 2 pi/alat)
               b(1) = (  0.988443  0.000000  0.000000 )
               b(2) = (  0.000000  0.954753  0.000000 )
               b(3) = (  0.000000  0.000000  0.988179 )

     PseudoPot. # 1 for W  read from file:
     /cluster/scratch/mnoe/QE/pps/W_ONCV_LDA-4.0.upf
     MD5 check sum: ba0307d5d4cd419d6f1d13dc49d7c13a
     Pseudo is Norm-conserving + core correction, Zval = 28.0
     Generated using ONCVPSP code by D. R. Hamann
     Using radial grid of 1380 points,  8 beta functions with:
                l(1) =   0
                l(2) =   0
                l(3) =   1
                l(4) =   1
                l(5) =   2
                l(6) =   2
                l(7) =   3
                l(8) =   3

     PseudoPot. # 2 for O  read from file:
     /cluster/scratch/mnoe/QE/pps/O_ONCV_LDA-3.0.upf
     MD5 check sum: b55cdb4f45ae2203d24ad12cf8d61a31
     Pseudo is Norm-conserving + core correction, Zval =  6.0
     Generated using ONCVPSP code by D. R. Hamann
     Using radial grid of  926 points,  5 beta functions with:
                l(1) =   0
                l(2) =   0
                l(3) =   1
                l(4) =   1
                l(5) =   2

     atomic species   valence    mass     pseudopotential
        W             28.00   183.84000     W ( 1.00)
        O              6.00    15.99940     O ( 1.00)

      8 Sym. Ops., with inversion, found ( 6 have fractional translation)

   Cartesian axes

     site n.     atom                  positions (alat units)
         1           W   tau(   1) = (   0.2463774   0.3001973   0.0061932  )
         2           W   tau(   2) = (   0.7653147   0.7471935   1.0057695  )
         3           W   tau(   3) = (   0.2594687   0.2234981   0.5121746  )
         4           W   tau(   4) = (   0.7522235   0.8238926   0.4997881  )
         5           W   tau(   5) = (   0.7653147   0.3001973   0.4997881  )
         6           W   tau(   6) = (   0.2463774   0.7471935   0.5121746  )
         7           W   tau(   7) = (   0.7522235   0.2234981   1.0057695  )
         8           W   tau(   8) = (   0.2594687   0.8238926   0.0061932  )
         9           O   tau(   9) = (   0.2408434   0.0181370   0.0019227  )
        10           O   tau(  10) = (   0.7708487   1.0292538   1.0100400  )
        11           O   tau(  11) = (   0.2650026   0.5055583   0.5079041  )
        12           O   tau(  12) = (   0.7466895   0.5418324   0.5040586  )
        13           O   tau(  13) = (   0.7708487   0.0181370   0.5040586  )
        14           O   tau(  14) = (   0.2408434   1.0292538   0.5079041  )
        15           O   tau(  15) = (   0.7466895   0.5055583   1.0100400  )
        16           O   tau(  16) = (   0.2650026   0.5418324   0.0019227  )
        17           O   tau(  17) = (   0.5076368   0.2490172   0.4797859  )
        18           O   tau(  18) = (   0.5040553   0.7983737   0.5321768  )
        19           O   tau(  19) = (   1.0099015   0.2746782   0.9857673  )
        20           O   tau(  20) = (   0.0017907   0.7727125   0.0261955  )
        21           O   tau(  21) = (   0.5040553   0.2490172   0.0261955  )
        22           O   tau(  22) = (   0.5076368   0.7983737   0.9857673  )
        23           O   tau(  23) = (   0.0017907   0.2746782   0.5321768  )
        24           O   tau(  24) = (   1.0099015   0.7727125   0.4797859  )
        25           O   tau(  25) = (   0.7325807   0.2590407   0.7562600  )
        26           O   tau(  26) = (   0.2791115   0.7883501   0.2557027  )
        27           O   tau(  27) = (   0.7849575   0.2646547   0.2502785  )
        28           O   tau(  28) = (   0.2267346   0.7827361   0.7616841  )
        29           O   tau(  29) = (   0.2791115   0.2590407   0.7616841  )
        30           O   tau(  30) = (   0.7325807   0.7883501   0.2502785  )
        31           O   tau(  31) = (   0.2267346   0.2646547   0.2557027  )
        32           O   tau(  32) = (   0.7849575   0.7827361   0.7562600  )

     number of k points=    64  gaussian smearing, width (Ry)=  0.0007
                       cart. coord. in units 2pi/alat
        k(    1) = (   0.0000000   0.0000000   0.0000000), wk =   0.0092593
        k(    2) = (   0.0000000   0.0000000   0.1646964), wk =   0.0185185
        k(    3) = (   0.0000000   0.0000000   0.3293929), wk =   0.0185185
        k(    4) = (   0.0000000   0.0000000  -0.4940893), wk =   0.0092593
        k(    5) = (   0.0000000   0.1591256   0.0000000), wk =   0.0185185
        k(    6) = (   0.0000000   0.1591256   0.1646964), wk =   0.0370370
        k(    7) = (   0.0000000   0.1591256   0.3293929), wk =   0.0370370
        k(    8) = (   0.0000000   0.1591256  -0.4940893), wk =   0.0185185
        k(    9) = (   0.0000000   0.3182512   0.0000000), wk =   0.0185185
        k(   10) = (   0.0000000   0.3182512   0.1646964), wk =   0.0370370
        k(   11) = (   0.0000000   0.3182512   0.3293929), wk =   0.0370370
        k(   12) = (   0.0000000   0.3182512  -0.4940893), wk =   0.0185185
        k(   13) = (   0.0000000  -0.4773767   0.0000000), wk =   0.0092593
        k(   14) = (   0.0000000  -0.4773767   0.1646964), wk =   0.0185185
        k(   15) = (   0.0000000  -0.4773767   0.3293929), wk =   0.0185185
        k(   16) = (   0.0000000  -0.4773767  -0.4940893), wk =   0.0092593
        k(   17) = (   0.1647405   0.0000000   0.1646964), wk =   0.0370370
        k(   18) = (   0.1647405   0.0000000   0.3293929), wk =   0.0370370
        k(   19) = (   0.1647405   0.0000000  -0.4940893), wk =   0.0185185
        k(   20) = (   0.1647405   0.1591256   0.1646964), wk =   0.0740741
        k(   21) = (   0.1647405   0.1591256   0.3293929), wk =   0.0740741
        k(   22) = (   0.1647405   0.1591256  -0.4940893), wk =   0.0370370
        k(   23) = (   0.1647405   0.3182512   0.1646964), wk =   0.0740741
        k(   24) = (   0.1647405   0.3182512   0.3293929), wk =   0.0740741
        k(   25) = (   0.1647405   0.3182512  -0.4940893), wk =   0.0370370
        k(   26) = (   0.1647405  -0.4773767   0.1646964), wk =   0.0370370
        k(   27) = (   0.1647405  -0.4773767   0.3293929), wk =   0.0370370
        k(   28) = (   0.1647405  -0.4773767  -0.4940893), wk =   0.0185185
        k(   29) = (   0.3294810   0.0000000   0.3293929), wk =   0.0370370
        k(   30) = (   0.3294810   0.0000000  -0.4940893), wk =   0.0185185
        k(   31) = (   0.3294810   0.1591256   0.3293929), wk =   0.0740741
        k(   32) = (   0.3294810   0.1591256  -0.4940893), wk =   0.0370370
        k(   33) = (   0.3294810   0.3182512   0.3293929), wk =   0.0740741
        k(   34) = (   0.3294810   0.3182512  -0.4940893), wk =   0.0370370
        k(   35) = (   0.3294810  -0.4773767   0.3293929), wk =   0.0370370
        k(   36) = (   0.3294810  -0.4773767  -0.4940893), wk =   0.0185185
        k(   37) = (  -0.4942215   0.0000000  -0.4940893), wk =   0.0092593
        k(   38) = (  -0.4942215   0.1591256  -0.4940893), wk =   0.0185185
        k(   39) = (  -0.4942215   0.3182512  -0.4940893), wk =   0.0185185
        k(   40) = (  -0.4942215  -0.4773767  -0.4940893), wk =   0.0092593
        k(   41) = (   0.1647405   0.0000000   0.0000000), wk =   0.0185185
        k(   42) = (   0.3294810   0.0000000   0.0000000), wk =   0.0185185
        k(   43) = (  -0.4942215   0.0000000   0.0000000), wk =   0.0092593
        k(   44) = (   0.1647405  -0.1591256   0.0000000), wk =   0.0370370
        k(   45) = (   0.3294810  -0.1591256   0.0000000), wk =   0.0370370
        k(   46) = (  -0.4942215  -0.1591256   0.0000000), wk =   0.0185185
        k(   47) = (   0.1647405  -0.3182512   0.0000000), wk =   0.0370370
        k(   48) = (   0.3294810  -0.3182512   0.0000000), wk =   0.0370370
        k(   49) = (  -0.4942215  -0.3182512   0.0000000), wk =   0.0185185
        k(   50) = (   0.1647405   0.4773767   0.0000000), wk =   0.0185185
        k(   51) = (   0.3294810   0.4773767   0.0000000), wk =   0.0185185
        k(   52) = (  -0.4942215   0.4773767   0.0000000), wk =   0.0092593
        k(   53) = (   0.3294810   0.0000000   0.1646964), wk =   0.0370370
        k(   54) = (  -0.4942215   0.0000000   0.1646964), wk =   0.0185185
        k(   55) = (   0.3294810  -0.1591256   0.1646964), wk =   0.0740741
        k(   56) = (  -0.4942215  -0.1591256   0.1646964), wk =   0.0370370
        k(   57) = (   0.3294810  -0.3182512   0.1646964), wk =   0.0740741
        k(   58) = (  -0.4942215  -0.3182512   0.1646964), wk =   0.0370370
        k(   59) = (   0.3294810   0.4773767   0.1646964), wk =   0.0370370
        k(   60) = (  -0.4942215   0.4773767   0.1646964), wk =   0.0185185
        k(   61) = (  -0.4942215   0.0000000   0.3293929), wk =   0.0185185
        k(   62) = (  -0.4942215  -0.1591256   0.3293929), wk =   0.0370370
        k(   63) = (  -0.4942215  -0.3182512   0.3293929), wk =   0.0370370
        k(   64) = (  -0.4942215   0.4773767   0.3293929), wk =   0.0185185

     Initial potential from superposition of free atoms

     starting charge  367.99656, renormalised to  368.00000
     Starting wfcs are  232 randomized atomic wfcs

     Self-consistent Calculation

[...]

     total energy              =   -6261.08458063 Ry
     Harris-Foulkes estimate   =   -6261.08458063 Ry
     estimated scf accuracy    <          4.8E-10 Ry

     iteration # 15     ecut=   120.00 Ry     beta= 0.70
     Davidson diagonalization with overlap
     ethr =  1.29E-13,  avg # of iterations =  2.0

     End of self-consistent calculation

[...]

          k = 0.3295 0.4774 0.1647 ( 63084 PWs)   bands (ev):

[...]

          k =-0.4942 0.4774 0.3294 ( 63104 PWs)   bands (ev):

   -66.3916 -66.3916 -66.3915 -66.3915 -66.3912 -66.3912 -66.3912 -66.3912
   -30.7271 -30.7271 -30.7264 -30.7264 -30.7232 -30.7232 -30.7221 -30.7221
   -30.7101 -30.7101 -30.7096 -30.7096 -30.6898 -30.6898 -30.6888 -30.6888
   -30.6877 -30.6877 -30.6864 -30.6864 -30.6668 -30.6668 -30.6667 -30.6667
   -20.5569 -20.5569 -20.5569 -20.5569 -20.5567 -20.5567 -20.5567 -20.5567
   -20.5413 -20.5413 -20.5413 -20.5413 -20.5406 -20.5406 -20.5406 -20.5406
   -20.5377 -20.5377 -20.5377 -20.5377 -20.5366 -20.5366 -20.5366 -20.5366
   -20.5267 -20.5267 -20.5267 -20.5267 -20.5265 -20.5265 -20.5264 -20.5264
   -20.5247 -20.5247 -20.5246 -20.5246 -20.5240 -20.5240 -20.5239 -20.5239
   -20.5192 -20.5192 -20.5192 -20.5192 -20.5184 -20.5184 -20.5184 -20.5184
   -20.5153 -20.5153 -20.5153 -20.5153 -20.5144 -20.5144 -20.5144 -20.5144
    -9.3935  -9.3935  -9.3859  -9.3859  -9.0220  -9.0220  -9.0023  -9.0023
    -8.7364  -8.7364  -8.7205  -8.7205  -8.5633  -8.5633  -8.5491  -8.5490
    -8.5289  -8.5289  -8.5183  -8.5182  -8.3098  -8.3098  -8.3092  -8.3092
     2.0086   2.0086   2.0163   2.0163   2.7478   2.7478   2.7863   2.7863
     2.8287   2.8287   2.8399   2.8399   2.9942   2.9942   3.0279   3.0279
     3.1389   3.1389   3.1993   3.1993   3.3749   3.3749   3.3870   3.3870
     3.5555   3.5555   3.6328   3.6328   4.1370   4.1370   4.1435   4.1435
     4.1811   4.1811   4.2232   4.2233   4.3028   4.3028   4.3769   4.3769
     4.5131   4.5131   4.6173   4.6173   4.8195   4.8195   4.8296   4.8296
     6.8634   6.8634   6.9352   6.9352   6.9804   6.9804   6.9891   6.9891
     7.0968   7.0968   7.1560   7.1560   7.2085   7.2085   7.2401   7.2401
     7.3210   7.3210   7.3842   7.3842   7.4883   7.4883   7.5214   7.5214
    11.1995  11.1995  11.2259  11.2259  11.5163  11.5163  11.5801  11.5801
    11.9941  11.9941  12.0751  12.0751  12.1254  12.1254  12.1624  12.1624
    12.2779  12.2779  12.4001  12.4001  12.7478  12.7478  12.8112  12.8112
    16.1377  16.1377  16.1861  16.1861  16.7365  16.7365  16.7941  16.7941
    17.1166  17.1166  17.2284  17.2284  17.2727

     the Fermi energy is     8.7007 ev

!    total energy              =   -6261.08458063 Ry
     Harris-Foulkes estimate   =   -6261.08458063 Ry
     estimated scf accuracy    <          1.5E-11 Ry

     The total energy is the sum of the following terms:

     one-electron contribution =   -4776.55374547 Ry
     hartree contribution      =    2622.20412402 Ry
     xc contribution           =    -965.69939210 Ry
     ewald contribution        =   -3141.03556707 Ry
     smearing contrib. (-TS)   =      -0.00000000 Ry

     convergence has been achieved in  15 iterations

     Forces acting on atoms (cartesian axes, Ry/au):

     atom    1 type  1   force =    -0.00283037    0.00650448    0.00359790
     atom    2 type  1   force =     0.00283037   -0.00650448   -0.00359790
     atom    3 type  1   force =     0.00283037   -0.00650448    0.00359790
     atom    4 type  1   force =    -0.00283037    0.00650448   -0.00359790
     atom    5 type  1   force =     0.00283037    0.00650448   -0.00359790
     atom    6 type  1   force =    -0.00283037   -0.00650448    0.00359790
     atom    7 type  1   force =    -0.00283037   -0.00650448   -0.00359790
     atom    8 type  1   force =     0.00283037    0.00650448    0.00359790
     atom    9 type  2   force =     0.00110895   -0.04114346    0.00057692
     atom   10 type  2   force =    -0.00110895    0.04114346   -0.00057692
     atom   11 type  2   force =    -0.00110895    0.04114346    0.00057692
     atom   12 type  2   force =     0.00110895   -0.04114346   -0.00057692
     atom   13 type  2   force =    -0.00110895   -0.04114346   -0.00057692
     atom   14 type  2   force =     0.00110895    0.04114346    0.00057692
     atom   15 type  2   force =     0.00110895    0.04114346   -0.00057692
     atom   16 type  2   force =    -0.00110895   -0.04114346    0.00057692
     atom   17 type  2   force =    -0.00077714   -0.00215546   -0.00168963
     atom   18 type  2   force =     0.00077714    0.00215546    0.00168963
     atom   19 type  2   force =     0.00077714    0.00215546   -0.00168963
     atom   20 type  2   force =    -0.00077714   -0.00215546    0.00168963
     atom   21 type  2   force =     0.00077714   -0.00215546    0.00168963
     atom   22 type  2   force =    -0.00077714    0.00215546   -0.00168963
     atom   23 type  2   force =    -0.00077714    0.00215546    0.00168963
     atom   24 type  2   force =     0.00077714   -0.00215546   -0.00168963
     atom   25 type  2   force =    -0.00212580   -0.00035387    0.00306883
     atom   26 type  2   force =     0.00212580    0.00035387   -0.00306883
     atom   27 type  2   force =     0.00212580    0.00035387    0.00306883
     atom   28 type  2   force =    -0.00212580   -0.00035387   -0.00306883
     atom   29 type  2   force =     0.00212580   -0.00035387   -0.00306883
     atom   30 type  2   force =    -0.00212580    0.00035387    0.00306883
     atom   31 type  2   force =    -0.00212580    0.00035387   -0.00306883
     atom   32 type  2   force =     0.00212580   -0.00035387    0.00306883

     Total force =     0.000000     Total SCF correction =     0.000000

     Computing stress (Cartesian axis) and pressure

          total   stress  (Ry/bohr**3)                   (kbar)     P=    0.52
   0.00000521   0.00000000   0.00000000          0.77      0.00      0.00
   0.00000000   0.00000002   0.00000000          0.00      0.00      0.00
   0.00000000   0.00000000   0.00000531          0.00      0.00      0.78

     Writing output data file Landau_14.save/

     General routines

     Parallel routines

   This run was terminated on:   1:25:38  21Nov2019

   JOB DONE.