     Program PWSCF v.6.4.1 starts on  2Dec2019 at 20:18:18

     K-points division:     npool     =      40
     Reading input from scf.in

     Current dimensions of program PWSCF are:
     Max number of different atomic species (ntypx) = 10
     Max number of k-points (npk) =  40000
     Max angular momentum in pseudopotentials (lmaxx) =  3

     Subspace diagonalization in iterative solution of the eigenvalue problem:
     a serial algorithm will be used

     Message from routine setup:
     using ibrav=0 with symmetry is DISCOURAGED, use correct ibrav instead

     bravais-lattice index     =            0
     lattice parameter (alat)  =      13.8219  a.u.
     unit-cell volume          =    2762.3260 (a.u.)^3
     number of atoms/cell      =           32
     number of atomic types    =            2
     number of electrons       =       368.36
     number of Kohn-Sham states=          221
     kinetic-energy cutoff     =     120.0000  Ry
     charge density cutoff     =     480.0000  Ry
     convergence threshold     =      1.0E-08
     mixing beta               =       0.7000
     number of iterations used =            8  plain     mixing
     Exchange-correlation      = SLA PW NOGX NOGC ( 1  4  0  0 0 0)

     celldm(1)=  13.821904  celldm(2)=   0.000000  celldm(3)=   0.000000
     celldm(4)=   0.000000  celldm(5)=   0.000000  celldm(6)=   0.000000

     crystal axes: (cart. coord. in units of alat)
               a(1) = (   1.000000   0.000000   0.000000 )
               a(2) = (   0.000000   1.040227   0.000000 )
               a(3) = (   0.000000   0.000000   1.005642 )

     reciprocal axes: (cart. coord. in units 2 pi/alat)
               b(1) = (  1.000000  0.000000  0.000000 )
               b(2) = (  0.000000  0.961329  0.000000 )
               b(3) = (  0.000000  0.000000  0.994390 )

     PseudoPot. # 1 for W  read from file:
     /cluster/scratch/mnoe/QE/pps/W_ONCV_LDA-4.0.upf
     MD5 check sum: ba0307d5d4cd419d6f1d13dc49d7c13a
     Pseudo is Norm-conserving + core correction, Zval = 28.0
     Generated using ONCVPSP code by D. R. Hamann
     Using radial grid of 1380 points,  8 beta functions with:
                l(1) =   0
                l(2) =   0
                l(3) =   1
                l(4) =   1
                l(5) =   2
                l(6) =   2
                l(7) =   3
                l(8) =   3

     PseudoPot. # 2 for O  read from file:
     /cluster/scratch/mnoe/QE/pps/O_ONCV_LDA-3.0.upf
     MD5 check sum: b55cdb4f45ae2203d24ad12cf8d61a31
     Pseudo is Norm-conserving + core correction, Zval =  6.0
     Generated using ONCVPSP code by D. R. Hamann
     Using radial grid of  926 points,  5 beta functions with:
                l(1) =   0
                l(2) =   0
                l(3) =   1
                l(4) =   1
                l(5) =   2

     atomic species   valence    mass     pseudopotential
        W             28.00   183.84000     W ( 1.00)
        O              6.00    15.99940     O ( 1.00)

      8 Sym. Ops., with inversion, found ( 6 have fractional translation)

   Cartesian axes

     site n.     atom                  positions (alat units)
         1           W   tau(   1) = (   0.2315000   0.2931983   0.0175686  )
         2           W   tau(   2) = (   0.7685000   0.7470285   0.9880731  )
         3           W   tau(   3) = (   0.2685000   0.2269151   0.5203894  )
         4           W   tau(   4) = (   0.7315000   0.8133117   0.4852522  )
         5           W   tau(   5) = (   0.7685000   0.2931983   0.4852522  )
         6           W   tau(   6) = (   0.2315000   0.7470285   0.5203894  )
         7           W   tau(   7) = (   0.7315000   0.2269151   0.9880731  )
         8           W   tau(   8) = (   0.2685000   0.8133117   0.0175686  )
         9           O   tau(   9) = (   0.2158700   0.0086547   0.0054606  )
        10           O   tau(  10) = (   0.7841300   1.0315722   1.0001810  )
        11           O   tau(  11) = (   0.2841300   0.5114587   0.5082814  )
        12           O   tau(  12) = (   0.7158700   0.5287681   0.4973602  )
        13           O   tau(  13) = (   0.7841300   0.0086547   0.4973602  )
        14           O   tau(  14) = (   0.2158700   1.0315722   0.5082814  )
        15           O   tau(  15) = (   0.7158700   0.5114587   1.0001810  )
        16           O   tau(  16) = (   0.2841300   0.5287681   0.0054606  )
        17           O   tau(  17) = (   0.5050600   0.2236384   0.4520761  )
        18           O   tau(  18) = (   0.4949400   0.8165885   0.5535654  )
        19           O   tau(  19) = (   0.9949400   0.2964750   0.9548970  )
        20           O   tau(  20) = (   0.0050600   0.7437518   0.0507447  )
        21           O   tau(  21) = (   0.4949400   0.2236384   0.0507447  )
        22           O   tau(  22) = (   0.5050600   0.8165885   0.9548970  )
        23           O   tau(  23) = (   0.0050600   0.2964750   0.5535654  )
        24           O   tau(  24) = (   0.9949400   0.7437518   0.4520761  )
        25           O   tau(  25) = (   0.6995400   0.2521094   0.7465180  )
        26           O   tau(  26) = (   0.3004600   0.7881175   0.2591237  )
        27           O   tau(  27) = (   0.8004600   0.2680040   0.2436972  )
        28           O   tau(  28) = (   0.1995400   0.7722228   0.7619445  )
        29           O   tau(  29) = (   0.3004600   0.2521094   0.7619445  )
        30           O   tau(  30) = (   0.6995400   0.7881175   0.2436972  )
        31           O   tau(  31) = (   0.1995400   0.2680040   0.2591237  )
        32           O   tau(  32) = (   0.8004600   0.7722228   0.7465180  )

     number of k points=    64  gaussian smearing, width (Ry)=  0.0007
                       cart. coord. in units 2pi/alat
        k(    1) = (   0.0000000   0.0000000   0.0000000), wk =   0.0092593
        k(    2) = (   0.0000000   0.0000000   0.1657317), wk =   0.0185185
        k(    3) = (   0.0000000   0.0000000   0.3314633), wk =   0.0185185
        k(    4) = (   0.0000000   0.0000000  -0.4971950), wk =   0.0092593
        k(    5) = (   0.0000000   0.1602215   0.0000000), wk =   0.0185185
        k(    6) = (   0.0000000   0.1602215   0.1657317), wk =   0.0370370
        k(    7) = (   0.0000000   0.1602215   0.3314633), wk =   0.0370370
        k(    8) = (   0.0000000   0.1602215  -0.4971950), wk =   0.0185185
        k(    9) = (   0.0000000   0.3204429   0.0000000), wk =   0.0185185
        k(   10) = (   0.0000000   0.3204429   0.1657317), wk =   0.0370370
        k(   11) = (   0.0000000   0.3204429   0.3314633), wk =   0.0370370
        k(   12) = (   0.0000000   0.3204429  -0.4971950), wk =   0.0185185
        k(   13) = (   0.0000000  -0.4806644   0.0000000), wk =   0.0092593
        k(   14) = (   0.0000000  -0.4806644   0.1657317), wk =   0.0185185
        k(   15) = (   0.0000000  -0.4806644   0.3314633), wk =   0.0185185
        k(   16) = (   0.0000000  -0.4806644  -0.4971950), wk =   0.0092593
        k(   17) = (   0.1666667   0.0000000   0.0000000), wk =   0.0185185
        k(   18) = (   0.1666667   0.0000000   0.1657317), wk =   0.0370370
        k(   19) = (   0.1666667   0.0000000   0.3314633), wk =   0.0370370
        k(   20) = (   0.1666667   0.0000000  -0.4971950), wk =   0.0185185
        k(   21) = (   0.1666667   0.1602215   0.0000000), wk =   0.0370370
        k(   22) = (   0.1666667   0.1602215   0.1657317), wk =   0.0740741
        k(   23) = (   0.1666667   0.1602215   0.3314633), wk =   0.0740741
        k(   24) = (   0.1666667   0.1602215  -0.4971950), wk =   0.0370370
        k(   25) = (   0.1666667   0.3204429   0.0000000), wk =   0.0370370
        k(   26) = (   0.1666667   0.3204429   0.1657317), wk =   0.0740741
        k(   27) = (   0.1666667   0.3204429   0.3314633), wk =   0.0740741
        k(   28) = (   0.1666667   0.3204429  -0.4971950), wk =   0.0370370
        k(   29) = (   0.1666667  -0.4806644   0.0000000), wk =   0.0185185
        k(   30) = (   0.1666667  -0.4806644   0.1657317), wk =   0.0370370
        k(   31) = (   0.1666667  -0.4806644   0.3314633), wk =   0.0370370
        k(   32) = (   0.1666667  -0.4806644  -0.4971950), wk =   0.0185185
        k(   33) = (   0.3333333   0.0000000   0.0000000), wk =   0.0185185
        k(   34) = (   0.3333333   0.0000000   0.1657317), wk =   0.0370370
        k(   35) = (   0.3333333   0.0000000   0.3314633), wk =   0.0370370
        k(   36) = (   0.3333333   0.0000000  -0.4971950), wk =   0.0185185
        k(   37) = (   0.3333333   0.1602215   0.0000000), wk =   0.0370370
        k(   38) = (   0.3333333   0.1602215   0.1657317), wk =   0.0740741
        k(   39) = (   0.3333333   0.1602215   0.3314633), wk =   0.0740741
        k(   40) = (   0.3333333   0.1602215  -0.4971950), wk =   0.0370370
        k(   41) = (   0.3333333   0.3204429   0.0000000), wk =   0.0370370
        k(   42) = (   0.3333333   0.3204429   0.1657317), wk =   0.0740741
        k(   43) = (   0.3333333   0.3204429   0.3314633), wk =   0.0740741
        k(   44) = (   0.3333333   0.3204429  -0.4971950), wk =   0.0370370
        k(   45) = (   0.3333333  -0.4806644   0.0000000), wk =   0.0185185
        k(   46) = (   0.3333333  -0.4806644   0.1657317), wk =   0.0370370
        k(   47) = (   0.3333333  -0.4806644   0.3314633), wk =   0.0370370
        k(   48) = (   0.3333333  -0.4806644  -0.4971950), wk =   0.0185185
        k(   49) = (  -0.5000000   0.0000000   0.0000000), wk =   0.0092593
        k(   50) = (  -0.5000000   0.0000000   0.1657317), wk =   0.0185185
        k(   51) = (  -0.5000000   0.0000000   0.3314633), wk =   0.0185185
        k(   52) = (  -0.5000000   0.0000000  -0.4971950), wk =   0.0092593
        k(   53) = (  -0.5000000   0.1602215   0.0000000), wk =   0.0185185
        k(   54) = (  -0.5000000   0.1602215   0.1657317), wk =   0.0370370
        k(   55) = (  -0.5000000   0.1602215   0.3314633), wk =   0.0370370
        k(   56) = (  -0.5000000   0.1602215  -0.4971950), wk =   0.0185185
        k(   57) = (  -0.5000000   0.3204429   0.0000000), wk =   0.0185185
        k(   58) = (  -0.5000000   0.3204429   0.1657317), wk =   0.0370370
        k(   59) = (  -0.5000000   0.3204429   0.3314633), wk =   0.0370370
        k(   60) = (  -0.5000000   0.3204429  -0.4971950), wk =   0.0185185
        k(   61) = (  -0.5000000  -0.4806644   0.0000000), wk =   0.0092593
        k(   62) = (  -0.5000000  -0.4806644   0.1657317), wk =   0.0185185
        k(   63) = (  -0.5000000  -0.4806644   0.3314633), wk =   0.0185185
        k(   64) = (  -0.5000000  -0.4806644  -0.4971950), wk =   0.0092593

     Initial potential from superposition of free atoms

     starting charge  367.99656, renormalised to  368.36000
     Starting wfcs are  232 randomized atomic wfcs

     Self-consistent Calculation

     iteration #  1     ecut=   120.00 Ry     beta= 0.70
     Davidson diagonalization with overlap
     ethr =  1.00E-02,  avg # of iterations =  5.0

     total energy              =   -6253.70415861 Ry
     Harris-Foulkes estimate   =   -6264.32257307 Ry
     estimated scf accuracy    <      13.40990080 Ry

[...]

     total energy              =   -6260.83464009 Ry
     Harris-Foulkes estimate   =   -6260.83464010 Ry
     estimated scf accuracy    <       0.00000001 Ry

     iteration # 13     ecut=   120.00 Ry     beta= 0.70
     Davidson diagonalization with overlap
     ethr =  3.65E-12,  avg # of iterations =  2.3

     End of self-consistent calculation

          k = 0.0000 0.0000 0.0000 ( 61331 PWs)   bands (ev):

   -65.7902 -65.7896 -65.7892 -65.7891 -65.7887 -65.7885 -65.7882 -65.7876
   -30.2186 -30.2108 -30.2052 -30.1959 -30.1943 -30.1909 -30.1789 -30.1686
   -30.1659 -30.1596 -30.1427 -30.1365 -30.1275 -30.1241 -30.1207 -30.0900
   -30.0849 -30.0842 -30.0762 -30.0639 -30.0500 -30.0430 -30.0403 -30.0330
   -19.9417 -19.9416 -19.9411 -19.9410 -19.9409 -19.9408 -19.9402 -19.9401
   -19.9247 -19.9245 -19.9242 -19.9241 -19.9240 -19.9238 -19.9236 -19.9234
   -19.9178 -19.9175 -19.9173 -19.9172 -19.9170 -19.9170 -19.9167 -19.9165
   -19.9165 -19.9163 -19.9154 -19.9152 -19.9119 -19.9115 -19.9104 -19.9101
   -19.9075 -19.9072 -19.9071 -19.9070 -19.9020 -19.9016 -19.9015 -19.9013
   -19.8999 -19.8994 -19.8991 -19.8988 -19.8943 -19.8942 -19.8936 -19.8935
   -19.8848 -19.8846 -19.8836 -19.8834 -19.8824 -19.8822 -19.8812 -19.8810
    -9.6909  -9.3706  -9.2392  -9.2170  -8.9629  -8.8601  -8.7889  -8.7074
    -8.6745  -8.5876  -8.5579  -8.5312  -7.6811  -7.6209  -7.5425  -7.5394
    -7.5065  -7.4990  -7.4986  -7.4564  -7.4217  -7.4025  -7.3926  -7.3764
     1.5915   1.6114   1.6350   1.6451   1.7290   1.7339   1.7945   1.9044
     1.9160   2.0103   2.0190   2.2259   2.6335   2.7361   2.7989   2.8310
     2.9417   3.0105   4.3300   4.4740   4.5688   4.8714   4.8785   4.9843
     5.0293   5.0310   5.0359   5.0822   5.3469   5.4320   5.4867   5.6038
     5.7539   5.8308   5.8385   5.8386   5.9370   5.9371   5.9434   6.0485
     6.0670   6.0726   6.0994   6.1221   6.2231   6.2243   6.2605   6.3384
     6.4017   6.4904   6.5427   6.7116   6.7737   6.9416   7.0158   7.0336
     7.0923   7.1201   7.1907   7.2579   7.2593   7.2804   7.3515   7.3931
     7.5272   7.5655   7.9212   7.9574   8.1133   8.1816   8.3558   8.4028
    10.0775  10.1224  10.4570  10.4586  10.5434  10.5496  12.3635  12.5459
    12.5774  12.6611  12.8429  12.8615  12.8747  12.9576  12.9686  13.0470
    13.4901  13.5295  13.5549  13.6405  13.8230  13.8686  14.3293  14.3345
    14.9283  14.9447  15.1908  15.1992  15.6886  15.7494  15.9284  16.2038
    16.3052  17.0022  17.0938  17.2797  17.9332

[...]

          k = 0.3333-0.4807-0.4972 ( 61280 PWs)   bands (ev):

[...]

          k =-0.5000 0.0000 0.0000 ( 61352 PWs)   bands (ev):

[...]

          k =-0.5000-0.4807-0.4972 ( 61328 PWs)   bands (ev):

   -65.7889 -65.7889 -65.7889 -65.7889 -65.7889 -65.7889 -65.7889 -65.7889
   -30.1785 -30.1785 -30.1785 -30.1785 -30.1772 -30.1772 -30.1772 -30.1772
   -30.1339 -30.1339 -30.1339 -30.1339 -30.1312 -30.1311 -30.1311 -30.1311
   -30.0799 -30.0799 -30.0799 -30.0799 -30.0772 -30.0772 -30.0772 -30.0772
   -19.9410 -19.9409 -19.9409 -19.9409 -19.9409 -19.9409 -19.9409 -19.9409
   -19.9241 -19.9241 -19.9241 -19.9241 -19.9240 -19.9240 -19.9240 -19.9240
   -19.9173 -19.9173 -19.9173 -19.9173 -19.9173 -19.9173 -19.9173 -19.9173
   -19.9135 -19.9134 -19.9134 -19.9134 -19.9133 -19.9133 -19.9133 -19.9133
   -19.9046 -19.9046 -19.9046 -19.9046 -19.9042 -19.9041 -19.9041 -19.9041
   -19.8968 -19.8968 -19.8968 -19.8967 -19.8965 -19.8965 -19.8965 -19.8965
   -19.8831 -19.8831 -19.8831 -19.8830 -19.8830 -19.8830 -19.8830 -19.8830
    -8.7043  -8.7043  -8.7043  -8.7043  -8.6604  -8.6604  -8.6604  -8.6604
    -8.1588  -8.1588  -8.1588  -8.1588  -8.1095  -8.1095  -8.1095  -8.1095
    -8.0696  -8.0696  -8.0696  -8.0695  -8.0045  -8.0045  -8.0045  -8.0045
     3.1075   3.1075   3.1075   3.1075   3.2209   3.2209   3.2209   3.2209
     3.4101   3.4101   3.4101   3.4101   3.5294   3.5294   3.5294   3.5294
     3.6203   3.6203   3.6203   3.6203   3.8418   3.8418   3.8418   3.8418
     4.3999   4.3999   4.3999   4.3999   4.4528   4.4528   4.4528   4.4528
     4.6140   4.6140   4.6140   4.6140   4.7124   4.7124   4.7124   4.7124
     4.7893   4.7893   4.7894   4.7894   4.9080   4.9080   4.9080   4.9080
     7.3106   7.3106   7.3107   7.3107   7.4720   7.4720   7.4721   7.4721
     7.5718   7.5718   7.5718   7.5718   7.6457   7.6457   7.6457   7.6457
     7.7798   7.7798   7.7799   7.7799   7.8798   7.8798   7.8798   7.8798
    12.2058  12.2058  12.2058  12.2058  12.2406  12.2406  12.2406  12.2406
    12.4760  12.4760  12.4760  12.4760  12.6837  12.6838  12.6838  12.6838
    12.8475  12.8475  12.8475  12.8475  12.9866  12.9866  12.9866  12.9866
    17.2345  17.2345  17.2345  17.2345  17.3360  17.3360  17.3360  17.3360
    17.6022  17.6022  17.6022  17.6022  17.7266

     the Fermi energy is    10.3834 ev

!    total energy              =   -6260.83464009 Ry
     Harris-Foulkes estimate   =   -6260.83464009 Ry
     estimated scf accuracy    <          7.4E-10 Ry

     The total energy is the sum of the following terms:

     one-electron contribution =   -4646.64035982 Ry
     hartree contribution      =    2564.80835640 Ry
     xc contribution           =    -966.07918534 Ry
     ewald contribution        =   -3212.92342168 Ry
     smearing contrib. (-TS)   =      -0.00002967 Ry

     convergence has been achieved in  13 iterations

     Writing output data file Landau_40.save/

     General routines

     Parallel routines

   This run was terminated on:  20:51:53   2Dec2019

   JOB DONE.