     Program PWSCF v.6.2 (svn rev. 14038) starts on  6Mar2020 at 22: 1:33

     K-points division:     npool     =      40
     Reading input from rscf.in

     Current dimensions of program PWSCF are:
     Max number of different atomic species (ntypx) = 10
     Max number of k-points (npk) =  40000
     Max angular momentum in pseudopotentials (lmaxx) =  3

     Subspace diagonalization in iterative solution of the eigenvalue problem:
     a serial algorithm will be used

     bravais-lattice index     =            0
     lattice parameter (alat)  =      13.8397  a.u.
     unit-cell volume          =    2804.9816 (a.u.)^3
     number of atoms/cell      =           32
     number of atomic types    =            2
     number of electrons       =       368.00
     number of Kohn-Sham states=          221
     kinetic-energy cutoff     =     120.0000  Ry
     charge density cutoff     =     480.0000  Ry
     convergence threshold     =      1.0E-08
     mixing beta               =       0.7000
     number of iterations used =            8  plain     mixing
     Exchange-correlation      = SLA PW NOGX NOGC ( 1  4  0  0 0 0)
     nstep                     =           50

     celldm(1)=  13.839685  celldm(2)=   0.000000  celldm(3)=   0.000000
     celldm(4)=   0.000000  celldm(5)=   0.000000  celldm(6)=   0.000000

     crystal axes: (cart. coord. in units of alat)
               a(1) = (   1.000000   0.000000   0.000000 )
               a(2) = (   0.000000   1.058160   0.000000 )
               a(3) = (   0.000000   0.000000   1.000000 )

     reciprocal axes: (cart. coord. in units 2 pi/alat)
               b(1) = (  1.000000  0.000000  0.000000 )
               b(2) = (  0.000000  0.945037  0.000000 )
               b(3) = (  0.000000  0.000000  1.000000 )

     PseudoPot. # 1 for W  read from file:
     /cluster/scratch/mnoe/QE/pps/W_ONCV_LDA-4.0.upf
     MD5 check sum: ba0307d5d4cd419d6f1d13dc49d7c13a
     Pseudo is Norm-conserving + core correction, Zval = 28.0
     Generated using ONCVPSP code by D. R. Hamann
     Using radial grid of 1380 points,  8 beta functions with:
                l(1) =   0
                l(2) =   0
                l(3) =   1
                l(4) =   1
                l(5) =   2
                l(6) =   2
                l(7) =   3
                l(8) =   3

     PseudoPot. # 2 for O  read from file:
     /cluster/scratch/mnoe/QE/pps/O_ONCV_LDA-3.0.upf
     MD5 check sum: a1bd6164e7280c17a38c229939bfbd54
     Pseudo is Norm-conserving + core correction, Zval =  6.0
     Generated using ONCVPSP code by D. R. Hamann
     Using radial grid of  926 points,  5 beta functions with:
                l(1) =   0
                l(2) =   0
                l(3) =   1
                l(4) =   1
                l(5) =   2

     atomic species   valence    mass     pseudopotential
        W             28.00   183.84000     W ( 1.00)
        O              6.00    15.99940     O ( 1.00)

      8 Sym. Ops. (no inversion) found ( 7 have fractional translation)

   Cartesian axes

     site n.     atom                  positions (alat units)
         1           W   tau(   1) = (   0.2656100   0.2941858  -0.9835800  )
         2           W   tau(   2) = (   0.7335800   0.7639743  -0.9843900  )
         3           W   tau(   3) = (   0.2343900   0.2348943  -0.4835800  )
         4           W   tau(   4) = (   0.7664200   0.8232659  -0.4843900  )
         5           W   tau(   5) = (   0.7343900   0.2941858  -0.5164200  )
         6           W   tau(   6) = (   0.2664200   0.7639743  -0.5156100  )
         7           W   tau(   7) = (   0.7656100   0.2348943  -1.0164200  )
         8           W   tau(   8) = (   0.2335800   0.8232659  -1.0156100  )
         9           O   tau(   9) = (   0.2832700   0.0077007  -0.9669000  )
        10           O   tau(  10) = (   0.7169000   1.0504594  -0.9667300  )
        11           O   tau(  11) = (   0.2167300   0.5213794  -0.4669000  )
        12           O   tau(  12) = (   0.7831000   0.5367807  -0.4667300  )
        13           O   tau(  13) = (   0.7167300   0.0077007  -0.5331000  )
        14           O   tau(  14) = (   0.2831000   1.0504594  -0.5332700  )
        15           O   tau(  15) = (   0.7832700   0.5213794  -1.0331000  )
        16           O   tau(  16) = (   0.2169000   0.5367807  -1.0332700  )
        17           O   tau(  17) = (   0.4930700   0.3065807  -0.5411425  )
        18           O   tau(  18) = (   0.5045400   0.7638646  -0.4588575  )
        19           O   tau(  19) = (   0.0069300   0.2224993  -1.0411425  )
        20           O   tau(  20) = (   0.9954600   0.8233756  -0.9588575  )
        21           O   tau(  21) = (   0.5069300   0.3065807  -0.9588575  )
        22           O   tau(  22) = (   0.4954600   0.7638646  -1.0411425  )
        23           O   tau(  23) = (   0.9930700   0.2224993  -0.4588575  )
        24           O   tau(  24) = (   0.0045400   0.8233756  -0.5411425  )
        25           O   tau(  25) = (   0.7088575   0.2347845  -0.2545400  )
        26           O   tau(  26) = (   0.2911425   0.7515794  -0.7569300  )
        27           O   tau(  27) = (   0.7911425   0.2942955  -0.7545400  )
        28           O   tau(  28) = (   0.2088575   0.8356608  -0.2569300  )
        29           O   tau(  29) = (   0.2911425   0.2347845  -1.2454600  )
        30           O   tau(  30) = (   0.7088575   0.7515794  -0.7430700  )
        31           O   tau(  31) = (   0.2088575   0.2942955  -0.7454600  )
        32           O   tau(  32) = (   0.7911425   0.8356608  -1.2430700  )

     number of k points=    40  gaussian smearing, width (Ry)=  0.0007
                       cart. coord. in units 2pi/alat
        k(    1) = (   0.0000000   0.0000000   0.0000000), wk =   0.0092593
        k(    2) = (   0.0000000   0.0000000   0.1666667), wk =   0.0370370
        k(    3) = (   0.0000000   0.0000000   0.3333333), wk =   0.0370370
        k(    4) = (   0.0000000   0.0000000  -0.5000000), wk =   0.0185185
        k(    5) = (   0.0000000   0.1575061   0.0000000), wk =   0.0185185
        k(    6) = (   0.0000000   0.1575061   0.1666667), wk =   0.0740741
        k(    7) = (   0.0000000   0.1575061   0.3333333), wk =   0.0740741
        k(    8) = (   0.0000000   0.1575061  -0.5000000), wk =   0.0370370
        k(    9) = (   0.0000000   0.3150122   0.0000000), wk =   0.0185185
        k(   10) = (   0.0000000   0.3150122   0.1666667), wk =   0.0740741
        k(   11) = (   0.0000000   0.3150122   0.3333333), wk =   0.0740741
        k(   12) = (   0.0000000   0.3150122  -0.5000000), wk =   0.0370370
        k(   13) = (   0.0000000  -0.4725183   0.0000000), wk =   0.0092593
        k(   14) = (   0.0000000  -0.4725183   0.1666667), wk =   0.0370370
        k(   15) = (   0.0000000  -0.4725183   0.3333333), wk =   0.0370370
        k(   16) = (   0.0000000  -0.4725183  -0.5000000), wk =   0.0185185
        k(   17) = (   0.1666667   0.0000000   0.1666667), wk =   0.0370370
        k(   18) = (   0.1666667   0.0000000   0.3333333), wk =   0.0740741
        k(   19) = (   0.1666667   0.0000000  -0.5000000), wk =   0.0370370
        k(   20) = (   0.1666667   0.1575061   0.1666667), wk =   0.0740741
        k(   21) = (   0.1666667   0.1575061   0.3333333), wk =   0.1481481
        k(   22) = (   0.1666667   0.1575061  -0.5000000), wk =   0.0740741
        k(   23) = (   0.1666667   0.3150122   0.1666667), wk =   0.0740741
        k(   24) = (   0.1666667   0.3150122   0.3333333), wk =   0.1481481
        k(   25) = (   0.1666667   0.3150122  -0.5000000), wk =   0.0740741
        k(   26) = (   0.1666667  -0.4725183   0.1666667), wk =   0.0370370
        k(   27) = (   0.1666667  -0.4725183   0.3333333), wk =   0.0740741
        k(   28) = (   0.1666667  -0.4725183  -0.5000000), wk =   0.0370370
        k(   29) = (   0.3333333   0.0000000   0.3333333), wk =   0.0370370
        k(   30) = (   0.3333333   0.0000000  -0.5000000), wk =   0.0370370
        k(   31) = (   0.3333333   0.1575061   0.3333333), wk =   0.0740741
        k(   32) = (   0.3333333   0.1575061  -0.5000000), wk =   0.0740741
        k(   33) = (   0.3333333   0.3150122   0.3333333), wk =   0.0740741
        k(   34) = (   0.3333333   0.3150122  -0.5000000), wk =   0.0740741
        k(   35) = (   0.3333333  -0.4725183   0.3333333), wk =   0.0370370
        k(   36) = (   0.3333333  -0.4725183  -0.5000000), wk =   0.0370370
        k(   37) = (  -0.5000000   0.0000000  -0.5000000), wk =   0.0092593
        k(   38) = (  -0.5000000   0.1575061  -0.5000000), wk =   0.0185185
        k(   39) = (  -0.5000000   0.3150122  -0.5000000), wk =   0.0185185
        k(   40) = (  -0.5000000  -0.4725183  -0.5000000), wk =   0.0092593

     Initial potential from superposition of free atoms

     starting charge  367.99656, renormalised to  368.00000
     Starting wfc are  232 randomized atomic wfcs

     Self-consistent Calculation

     iteration #  1     ecut=   120.00 Ry     beta= 0.70
     Davidson diagonalization with overlap
     ethr =  1.00E-02,  avg # of iterations =  4.7

     total energy              =   -6253.72634557 Ry
     Harris-Foulkes estimate   =   -6264.51109103 Ry
     estimated scf accuracy    <      13.62658011 Ry

[...]

     End of self-consistent calculation

          k = 0.0000 0.0000 0.0000 ( 62239 PWs)   bands (ev):

   -66.2296 -66.2292 -66.2286 -66.2286 -66.2282 -66.2282 -66.2275 -66.2271
   -30.6452 -30.6436 -30.6374 -30.6374 -30.6157 -30.6148 -30.6145 -30.6145
   -30.5432 -30.5422 -30.5422 -30.5420 -30.5170 -30.5170 -30.5112 -30.5107
   -30.4439 -30.4401 -30.4401 -30.4363 -30.3917 -30.3886 -30.3886 -30.3855
   -20.4075 -20.4073 -20.4072 -20.4072 -20.4066 -20.4066 -20.4065 -20.4063
   -20.3874 -20.3871 -20.3870 -20.3870 -20.3859 -20.3859 -20.3858 -20.3856
   -20.3825 -20.3825 -20.3821 -20.3821 -20.3821 -20.3821 -20.3817 -20.3817
   -20.3733 -20.3728 -20.3723 -20.3723 -20.3716 -20.3713 -20.3712 -20.3712
   -20.3686 -20.3683 -20.3683 -20.3663 -20.3662 -20.3649 -20.3649 -20.3641
   -20.3637 -20.3637 -20.3637 -20.3630 -20.3625 -20.3617 -20.3617 -20.3611
   -20.3540 -20.3537 -20.3528 -20.3528 -20.3523 -20.3523 -20.3512 -20.3511
    -9.9963  -9.8057  -9.5296  -9.5296  -9.3936  -9.3936  -9.1692  -9.1422
    -8.5101  -8.4851  -8.4639  -8.4639  -8.0386  -7.9594  -7.8874  -7.8620
    -7.8620  -7.8451  -7.7828  -7.7828  -7.5440  -7.4563  -7.4563  -7.3780
     1.0958   1.0989   1.2098   1.2098   1.2644   1.2644   1.4768   1.4945
     2.1123   2.1964   2.1964   2.2118   2.2805   2.3374   2.7307   2.7728
     2.9033   2.9033   4.2787   4.2787   4.3279   4.4505   4.5209   4.5209
     4.6271   4.6271   4.8455   5.2102   5.3474   5.3474   5.4102   5.4336
     5.4484   5.4484   5.5696   5.6009   5.6009   5.6413   5.7276   5.7276
     5.7753   5.8112   5.8139   5.9075   5.9075   5.9099   6.0399   6.0696
     6.1774   6.2128   6.5148   6.6574   6.6574   6.7745   6.8764   6.9119
     6.9119   6.9886   6.9910   6.9910   7.0919   7.0919   7.3565   7.3565
     7.3755   7.3983   7.7234   7.7441   7.9313   8.0079   8.0079   8.1125
     9.6587   9.6684   9.8137   9.8594   9.8594  10.0802  12.0661  12.0661
[...]
W        0.234389998   0.221983686  -0.483579988    0   0   0
W        0.766419975   0.778016370  -0.484389998    0   0   0
W        0.734390010   0.278016330  -0.516420012    0   0   0
W        0.266420012   0.721983670  -0.515609985    0   0   0
W        0.765609981   0.221983686  -1.016419996    0   0   0
W        0.233579988   0.778016370  -1.015610002    0   0   0
O        0.283270010   0.007277402  -0.966899979    0   0   0
O        0.716899958   0.992722584  -0.966730023    0   0   0
O        0.216730006   0.492722624  -0.466900011    0   0   0
O        0.783099968   0.507277416  -0.466730006    0   0   0
O        0.716730002   0.007277402  -0.533100021    0   0   0
O        0.283100021   0.992722584  -0.533270010    0   0   0
O        0.783269989   0.492722624  -1.033099989    0   0   0
O        0.216900011   0.507277416  -1.033270010    0   0   0
O        0.493070021   0.289730000  -0.541142484    0   0   0
O        0.504539978   0.721879989  -0.458857458    0   0   0
O        0.006929994   0.210270000  -1.041142484    0   0   0
O        0.995460022   0.778120049  -0.958857520    0   0   0
O        0.506929979   0.289730000  -0.958857520    0   0   0
O        0.495459989   0.721879989  -1.041142484    0   0   0
O        0.993070021   0.210270000  -0.458857458    0   0   0
O        0.004539996   0.778120049  -0.541142484    0   0   0
O        0.708857462   0.221879985  -0.254540017    0   0   0
O        0.291142463   0.710270019  -0.756929979    0   0   0
O        0.791142547   0.278119999  -0.754539978    0   0   0
O        0.208857500   0.789730019  -0.256930015    0   0   0
O        0.291142463   0.221879985  -1.245460043    0   0   0
O        0.708857462   0.710270019  -0.743070021    0   0   0
O        0.208857500   0.278119999  -0.745459989    0   0   0
O        0.791142547   0.789730019  -1.243070042    0   0   0
End final coordinates

     A final scf calculation at the relaxed structure.
     The G-vectors are recalculated for the final unit cell
     Results may differ from those at the preceding step.

     bravais-lattice index     =            0
     lattice parameter (alat)  =      13.8397  a.u.
     unit-cell volume          =    2746.7389 (a.u.)^3
     number of atoms/cell      =           32
     number of atomic types    =            2
     number of electrons       =       368.00
     number of Kohn-Sham states=          221
     kinetic-energy cutoff     =     120.0000  Ry
     charge density cutoff     =     480.0000  Ry
     convergence threshold     =      1.0E-10
     mixing beta               =       0.7000
     number of iterations used =            8  plain     mixing
     Exchange-correlation      = SLA PW NOGX NOGC ( 1  4  0  0 0 0)

     celldm(1)=  13.839685  celldm(2)=   0.000000  celldm(3)=   0.000000
     celldm(4)=   0.000000  celldm(5)=   0.000000  celldm(6)=   0.000000

     crystal axes: (cart. coord. in units of alat)
               a(1) = (   1.007690   0.000000   0.000000 )
               a(2) = (   0.000000   1.020433   0.000000 )
               a(3) = (   0.000000   0.000000   1.007690 )

     reciprocal axes: (cart. coord. in units 2 pi/alat)
               b(1) = (  0.992368  0.000000  0.000000 )
               b(2) = (  0.000000  0.979976  0.000000 )
               b(3) = (  0.000000  0.000000  0.992368 )

     PseudoPot. # 1 for W  read from file:
     /cluster/scratch/mnoe/QE/pps/W_ONCV_LDA-4.0.upf
     MD5 check sum: ba0307d5d4cd419d6f1d13dc49d7c13a
     Pseudo is Norm-conserving + core correction, Zval = 28.0
     Generated using ONCVPSP code by D. R. Hamann
     Using radial grid of 1380 points,  8 beta functions with:
                l(1) =   0
                l(2) =   0
                l(3) =   1
                l(4) =   1
                l(5) =   2
                l(6) =   2
                l(7) =   3
                l(8) =   3

     PseudoPot. # 2 for O  read from file:
     /cluster/scratch/mnoe/QE/pps/O_ONCV_LDA-3.0.upf
     MD5 check sum: a1bd6164e7280c17a38c229939bfbd54
     Pseudo is Norm-conserving + core correction, Zval =  6.0
     Generated using ONCVPSP code by D. R. Hamann
     Using radial grid of  926 points,  5 beta functions with:
                l(1) =   0
                l(2) =   0
                l(3) =   1
                l(4) =   1
                l(5) =   2

     atomic species   valence    mass     pseudopotential
        W             28.00   183.84000     W ( 1.00)
        O              6.00    15.99940     O ( 1.00)

      8 Sym. Ops. (no inversion) found ( 7 have fractional translation)

   Cartesian axes

     site n.     atom                  positions (alat units)
         1           W   tau(   1) = (   0.2676526   0.2836970  -0.9911441  )
         2           W   tau(   2) = (   0.7392215   0.7367359  -0.9919604  )
         3           W   tau(   3) = (   0.2361926   0.2265195  -0.4872989  )
         4           W   tau(   4) = (   0.7723141   0.7939135  -0.4881152  )
         5           W   tau(   5) = (   0.7400378   0.2836970  -0.5203915  )
         6           W   tau(   6) = (   0.2684689   0.7367359  -0.5195753  )
         7           W   tau(   7) = (   0.7714979   0.2265195  -1.0242367  )
         8           W   tau(   8) = (   0.2353763   0.7939135  -1.0234205  )
         9           O   tau(   9) = (   0.2854485   0.0074261  -0.9743359  )
        10           O   tau(  10) = (   0.7224132   1.0130068  -0.9741646  )
        11           O   tau(  11) = (   0.2183968   0.5027904  -0.4704907  )
        12           O   tau(  12) = (   0.7891224   0.5176426  -0.4703194  )
        13           O   tau(  13) = (   0.7222420   0.0074261  -0.5371998  )
        14           O   tau(  14) = (   0.2852772   1.0130068  -0.5373711  )
        15           O   tau(  15) = (   0.7892937   0.5027904  -1.0410450  )
        16           O   tau(  16) = (   0.2185681   0.5176426  -1.0412163  )
        17           O   tau(  17) = (   0.4968619   0.2956500  -0.5453041  )
        18           O   tau(  18) = (   0.5084201   0.7366301  -0.4623863  )
        19           O   tau(  19) = (   0.0069833   0.2145664  -1.0491493  )
        20           O   tau(  20) = (   1.0031156   0.7940193  -0.9662316  )
        21           O   tau(  21) = (   0.5108285   0.2956500  -0.9662316  )
        22           O   tau(  22) = (   0.4992703   0.7366301  -1.0491493  )
        23           O   tau(  23) = (   1.0007072   0.2145664  -0.4623863  )
        24           O   tau(  24) = (   0.0045749   0.7940193  -0.5453041  )
        25           O   tau(  25) = (   0.7143089   0.2264136  -0.2564975  )
        26           O   tau(  26) = (   0.2933815   0.7247829  -0.7627511  )
        27           O   tau(  27) = (   0.7972268   0.2838028  -0.7603427  )
        28           O   tau(  28) = (   0.2104637   0.8058665  -0.2589059  )
        29           O   tau(  29) = (   0.2933815   0.2264136  -1.2550382  )
        30           O   tau(  30) = (   0.7143089   0.7247829  -0.7487846  )
        31           O   tau(  31) = (   0.2104637   0.2838028  -0.7511929  )
        32           O   tau(  32) = (   0.7972268   0.8058665  -1.2526298  )

     number of k points=    40  gaussian smearing, width (Ry)=  0.0007
                       cart. coord. in units 2pi/alat
        k(    1) = (   0.0000000   0.0000000   0.0000000), wk =   0.0092593
        k(    2) = (   0.0000000   0.0000000   0.1653947), wk =   0.0370370
        k(    3) = (   0.0000000   0.0000000   0.3307894), wk =   0.0370370
        k(    4) = (   0.0000000   0.0000000  -0.4961841), wk =   0.0185185
        k(    5) = (   0.0000000   0.1633294   0.0000000), wk =   0.0185185
        k(    6) = (   0.0000000   0.1633294   0.1653947), wk =   0.0740741
        k(    7) = (   0.0000000   0.1633294   0.3307894), wk =   0.0740741
        k(    8) = (   0.0000000   0.1633294  -0.4961841), wk =   0.0370370
        k(    9) = (   0.0000000   0.3266588   0.0000000), wk =   0.0185185
        k(   10) = (   0.0000000   0.3266588   0.1653947), wk =   0.0740741
        k(   11) = (   0.0000000   0.3266588   0.3307894), wk =   0.0740741
        k(   12) = (   0.0000000   0.3266588  -0.4961841), wk =   0.0370370
        k(   13) = (   0.0000000  -0.4899881   0.0000000), wk =   0.0092593
        k(   14) = (   0.0000000  -0.4899881   0.1653947), wk =   0.0370370
        k(   15) = (   0.0000000  -0.4899881   0.3307894), wk =   0.0370370
        k(   16) = (   0.0000000  -0.4899881  -0.4961841), wk =   0.0185185
        k(   17) = (   0.1653947   0.0000000   0.1653947), wk =   0.0370370
        k(   18) = (   0.1653947   0.0000000   0.3307894), wk =   0.0740741
        k(   19) = (   0.1653947   0.0000000  -0.4961841), wk =   0.0370370
        k(   20) = (   0.1653947   0.1633294   0.1653947), wk =   0.0740741
        k(   21) = (   0.1653947   0.1633294   0.3307894), wk =   0.1481481
        k(   22) = (   0.1653947   0.1633294  -0.4961841), wk =   0.0740741
        k(   23) = (   0.1653947   0.3266588   0.1653947), wk =   0.0740741
        k(   24) = (   0.1653947   0.3266588   0.3307894), wk =   0.1481481
        k(   25) = (   0.1653947   0.3266588  -0.4961841), wk =   0.0740741
        k(   26) = (   0.1653947  -0.4899881   0.1653947), wk =   0.0370370
        k(   27) = (   0.1653947  -0.4899881   0.3307894), wk =   0.0740741
        k(   28) = (   0.1653947  -0.4899881  -0.4961841), wk =   0.0370370
        k(   29) = (   0.3307894   0.0000000   0.3307894), wk =   0.0370370
        k(   30) = (   0.3307894   0.0000000  -0.4961841), wk =   0.0370370
        k(   31) = (   0.3307894   0.1633294   0.3307894), wk =   0.0740741
        k(   32) = (   0.3307894   0.1633294  -0.4961841), wk =   0.0740741
        k(   33) = (   0.3307894   0.3266588   0.3307894), wk =   0.0740741
        k(   34) = (   0.3307894   0.3266588  -0.4961841), wk =   0.0740741
        k(   35) = (   0.3307894  -0.4899881   0.3307894), wk =   0.0370370
        k(   36) = (   0.3307894  -0.4899881  -0.4961841), wk =   0.0370370
        k(   37) = (  -0.4961841   0.0000000  -0.4961841), wk =   0.0092593
        k(   38) = (  -0.4961841   0.1633294  -0.4961841), wk =   0.0185185
        k(   39) = (  -0.4961841   0.3266588  -0.4961841), wk =   0.0185185
        k(   40) = (  -0.4961841  -0.4899881  -0.4961841), wk =   0.0092593

     Initial potential from superposition of free atoms

     starting charge  367.99656, renormalised to  368.00000
     Starting wfc are  232 randomized atomic wfcs

     Writing output data file Landau_36.save

     Self-consistent Calculation

[...]

     total energy              =   -6261.10809988 Ry
     Harris-Foulkes estimate   =   -6261.10809988 Ry
     estimated scf accuracy    <          1.9E-10 Ry

     iteration # 15     ecut=   120.00 Ry     beta= 0.70
     Davidson diagonalization with overlap
     ethr =  1.00E-13,  avg # of iterations =  2.0

     End of self-consistent calculation

[...]

          k = 0.3308-0.4900-0.4962 ( 60980 PWs)   bands (ev):

[...]

          k =-0.4962-0.4900-0.4962 ( 60896 PWs)   bands (ev):

   -65.8265 -65.8265 -65.8265 -65.8265 -65.8265 -65.8265 -65.8265 -65.8265
   -30.1748 -30.1748 -30.1734 -30.1734 -30.1734 -30.1734 -30.1725 -30.1725
   -30.1525 -30.1525 -30.1525 -30.1525 -30.1515 -30.1515 -30.1501 -30.1501
   -30.1213 -30.1213 -30.1177 -30.1177 -30.1177 -30.1176 -30.1174 -30.1174
   -19.9946 -19.9946 -19.9945 -19.9945 -19.9945 -19.9945 -19.9945 -19.9945
   -19.9734 -19.9734 -19.9734 -19.9733 -19.9733 -19.9733 -19.9733 -19.9733
   -19.9677 -19.9677 -19.9677 -19.9677 -19.9677 -19.9676 -19.9676 -19.9676
   -19.9531 -19.9531 -19.9530 -19.9530 -19.9530 -19.9530 -19.9528 -19.9528
   -19.9502 -19.9502 -19.9502 -19.9502 -19.9502 -19.9502 -19.9498 -19.9498
   -19.9473 -19.9473 -19.9467 -19.9467 -19.9467 -19.9467 -19.9467 -19.9466
   -19.9332 -19.9332 -19.9332 -19.9332 -19.9332 -19.9332 -19.9332 -19.9332
    -8.6568  -8.6568  -8.6052  -8.6051  -8.6044  -8.6044  -8.6044  -8.6044
    -8.1024  -8.1023  -8.0900  -8.0900  -8.0900  -8.0900  -8.0411  -8.0411
    -8.0326  -8.0326  -8.0063  -8.0063  -8.0063  -8.0063  -7.9572  -7.9572
     3.2173   3.2173   3.2173   3.2173   3.2512   3.2512   3.3440   3.3441
     3.3892   3.3892   3.5610   3.5610   3.6041   3.6041   3.6041   3.6041
     3.6295   3.6295   3.8298   3.8298   3.8298   3.8298   3.8816   3.8816
     4.4537   4.4537   4.5003   4.5004   4.5004   4.5004   4.5590   4.5590
     4.6095   4.6095   4.6696   4.6696   4.6904   4.6905   4.6905   4.6905
     4.7947   4.7947   4.8110   4.8110   4.8110   4.8110   4.8761   4.8761
     7.4142   7.4142   7.5208   7.5208   7.5208   7.5208   7.5816   7.5816
     7.5816   7.5816   7.6307   7.6307   7.6881   7.6881   7.8119   7.8120
     7.8985   7.8986   7.9101   7.9101   7.9101   7.9101   8.0041   8.0041
    12.2466  12.2466  12.2882  12.2882  12.3029  12.3029  12.3029  12.3029
    12.4863  12.4863  12.5731  12.5731  12.5731  12.5732  12.6059  12.6059
    12.7593  12.7593  12.8065  12.8065  12.8065  12.8065  12.8342  12.8342
    17.2877  17.2877  17.4481  17.4481  17.4576  17.4576  17.4576  17.4576
    17.7951  17.7951  17.7951  17.7951  17.8322

     the Fermi energy is     9.4979 ev

!    total energy              =   -6261.10809988 Ry
     Harris-Foulkes estimate   =   -6261.10809988 Ry
     estimated scf accuracy    <          5.8E-12 Ry

     The total energy is the sum of the following terms:

     one-electron contribution =   -4627.05246445 Ry
     hartree contribution      =    2554.79281175 Ry
     xc contribution           =    -965.67062673 Ry
     ewald contribution        =   -3223.17782045 Ry
     smearing contrib. (-TS)   =      -0.00000000 Ry

     convergence has been achieved in  15 iterations

     Forces acting on atoms (cartesian axes, Ry/au):

     atom    1 type  1   force =    -0.00288194   -0.00081151   -0.00412819
     atom    2 type  1   force =     0.00412819    0.00081151   -0.00288194
     atom    3 type  1   force =     0.00288194    0.00081151   -0.00412819
     atom    4 type  1   force =    -0.00412819   -0.00081151   -0.00288194
     atom    5 type  1   force =     0.00288194   -0.00081151    0.00412819
     atom    6 type  1   force =    -0.00412819    0.00081151    0.00288194
     atom    7 type  1   force =    -0.00288194    0.00081151    0.00412819
     atom    8 type  1   force =     0.00412819   -0.00081151    0.00288194
     atom    9 type  2   force =    -0.00099722   -0.00373966   -0.00229080
     atom   10 type  2   force =     0.00229080    0.00373966   -0.00099722
     atom   11 type  2   force =     0.00099722    0.00373966   -0.00229080
     atom   12 type  2   force =    -0.00229080   -0.00373966   -0.00099722
     atom   13 type  2   force =     0.00099722   -0.00373966    0.00229080
     atom   14 type  2   force =    -0.00229080    0.00373966    0.00099722
     atom   15 type  2   force =    -0.00099722    0.00373966    0.00229080
     atom   16 type  2   force =     0.00229080   -0.00373966    0.00099722
     atom   17 type  2   force =     0.00053553   -0.00116948    0.00499390
     atom   18 type  2   force =     0.00267332   -0.00069864    0.00405475
     atom   19 type  2   force =    -0.00053553    0.00116948    0.00499390
     atom   20 type  2   force =    -0.00267332    0.00069864    0.00405475
     atom   21 type  2   force =    -0.00053553   -0.00116948   -0.00499390
     atom   22 type  2   force =    -0.00267332   -0.00069864   -0.00405475
     atom   23 type  2   force =     0.00053553    0.00116948   -0.00499390
     atom   24 type  2   force =     0.00267332    0.00069864   -0.00405475
     atom   25 type  2   force =    -0.00405475   -0.00069864   -0.00267332
     atom   26 type  2   force =    -0.00499390    0.00116948    0.00053553
     atom   27 type  2   force =     0.00405475    0.00069864   -0.00267332
     atom   28 type  2   force =     0.00499390   -0.00116948    0.00053553
     atom   29 type  2   force =     0.00405475   -0.00069864    0.00267332
     atom   30 type  2   force =     0.00499390    0.00116948   -0.00053553
     atom   31 type  2   force =    -0.00405475    0.00069864    0.00267332
     atom   32 type  2   force =    -0.00499390   -0.00116948   -0.00053553

     Total force =     0.000000     Total SCF correction =     0.000000

     Computing stress (Cartesian axis) and pressure

          total   stress  (Ry/bohr**3)                   (kbar)     P=   -0.07
   0.00000087   0.00000000   0.00000000          0.13      0.00      0.00
   0.00000000  -0.00000315   0.00000000          0.00     -0.46      0.00
   0.00000000   0.00000000   0.00000087          0.00      0.00      0.13

     Writing output data file Landau_36.save

     General routines

     Parallel routines

   This run was terminated on:   0:11:57   7Mar2020

   JOB DONE.