     Program PWSCF v.6.4.1 starts on 19Nov2019 at 18:31: 5

     K-points division:     npool     =      40
     Reading input from rscf.in

     Current dimensions of program PWSCF are:
     Max number of different atomic species (ntypx) = 10
     Max number of k-points (npk) =  40000
     Max angular momentum in pseudopotentials (lmaxx) =  3

     Subspace diagonalization in iterative solution of the eigenvalue problem:
     a serial algorithm will be used

     Message from routine setup:
     using ibrav=0 with symmetry is DISCOURAGED, use correct ibrav instead

     bravais-lattice index     =            0
     lattice parameter (alat)  =       9.7849  a.u.
     unit-cell volume          =    1402.1515 (a.u.)^3
     number of atoms/cell      =           16
     number of atomic types    =            2
     number of electrons       =       184.00
     number of Kohn-Sham states=          110
     kinetic-energy cutoff     =     120.0000  Ry
     charge density cutoff     =     480.0000  Ry
     convergence threshold     =      1.0E-08
     mixing beta               =       0.7000
     number of iterations used =            8  plain     mixing
     Exchange-correlation      = SLA PW NOGX NOGC ( 1  4  0  0 0 0)
     nstep                     =           50

     celldm(1)=   9.784926  celldm(2)=   0.000000  celldm(3)=   0.000000
     celldm(4)=   0.000000  celldm(5)=   0.000000  celldm(6)=   0.000000

     crystal axes: (cart. coord. in units of alat)
               a(1) = (   1.000000   0.000000   0.000000 )
               a(2) = (   0.000000   1.000000   0.000000 )
               a(3) = (   0.000000   0.000000   1.496657 )

     reciprocal axes: (cart. coord. in units 2 pi/alat)
               b(1) = (  1.000000  0.000000  0.000000 )
               b(2) = (  0.000000  1.000000  0.000000 )
               b(3) = (  0.000000  0.000000  0.668156 )

     PseudoPot. # 1 for W  read from file:
     /cluster/scratch/mnoe/QE/pps/W_ONCV_LDA-4.0.upf
     MD5 check sum: ba0307d5d4cd419d6f1d13dc49d7c13a
     Pseudo is Norm-conserving + core correction, Zval = 28.0
     Generated using ONCVPSP code by D. R. Hamann
     Using radial grid of 1380 points,  8 beta functions with:
                l(1) =   0
                l(2) =   0
                l(3) =   1
                l(4) =   1
                l(5) =   2
                l(6) =   2
                l(7) =   3
                l(8) =   3

     PseudoPot. # 2 for O  read from file:
     /cluster/scratch/mnoe/QE/pps/O_ONCV_LDA-3.0.upf
     MD5 check sum: b55cdb4f45ae2203d24ad12cf8d61a31
     Pseudo is Norm-conserving + core correction, Zval =  6.0
     Generated using ONCVPSP code by D. R. Hamann
     Using radial grid of  926 points,  5 beta functions with:
                l(1) =   0
                l(2) =   0
                l(3) =   1
                l(4) =   1
                l(5) =   2

     atomic species   valence    mass     pseudopotential
        W             28.00   183.84000     W ( 1.00)
        O              6.00    15.99940     O ( 1.00)

     16 Sym. Ops., with inversion, found (14 have fractional translation)

   Cartesian axes

     site n.     atom                  positions (alat units)
         1           W   tau(   1) = (   0.2500000   0.2500000   0.3183211  )
         2           W   tau(   2) = (   0.7500000   0.7500000   1.1783360  )
         3           W   tau(   3) = (   0.7500000   0.7500000   0.4300075  )
         4           W   tau(   4) = (   0.2500000   0.2500000   1.0666495  )
         5           O   tau(   5) = (   0.2500000   0.2500000   0.7204765  )
         6           O   tau(   6) = (   0.7500000   0.7500000   0.7761805  )
         7           O   tau(   7) = (   0.7500000   0.7500000   0.0278520  )
         8           O   tau(   8) = (   0.2500000   0.2500000   1.4688050  )
         9           O   tau(   9) = (   0.4774966   0.5225034   0.3741643  )
        10           O   tau(  10) = (   0.5225034   0.4774966   1.1224928  )
        11           O   tau(  11) = (   0.0225034   0.9774966   0.3741643  )
        12           O   tau(  12) = (   0.9774965   0.0225034   1.1224928  )
        13           O   tau(  13) = (   0.9774966   0.4774966   0.3741643  )
        14           O   tau(  14) = (   0.0225034   0.5225034   1.1224928  )
        15           O   tau(  15) = (   0.5225034   0.0225034   0.3741643  )
        16           O   tau(  16) = (   0.4774966   0.9774965   1.1224928  )

     number of k points=    40  gaussian smearing, width (Ry)=  0.0007
                       cart. coord. in units 2pi/alat
        k(    1) = (   0.0000000   0.0000000   0.0000000), wk =   0.0092593
        k(    2) = (   0.0000000   0.0000000   0.1113593), wk =   0.0185185
        k(    3) = (   0.0000000   0.0000000   0.2227186), wk =   0.0185185
        k(    4) = (   0.0000000   0.0000000  -0.3340779), wk =   0.0092593
        k(    5) = (   0.0000000   0.1666667   0.0000000), wk =   0.0370370
        k(    6) = (   0.0000000   0.1666667   0.1113593), wk =   0.0740741
        k(    7) = (   0.0000000   0.1666667   0.2227186), wk =   0.0740741
        k(    8) = (   0.0000000   0.1666667  -0.3340779), wk =   0.0370370
        k(    9) = (   0.0000000   0.3333333   0.0000000), wk =   0.0370370
        k(   10) = (   0.0000000   0.3333333   0.1113593), wk =   0.0740741
        k(   11) = (   0.0000000   0.3333333   0.2227186), wk =   0.0740741
        k(   12) = (   0.0000000   0.3333333  -0.3340779), wk =   0.0370370
        k(   13) = (   0.0000000  -0.5000000   0.0000000), wk =   0.0185185
        k(   14) = (   0.0000000  -0.5000000   0.1113593), wk =   0.0370370
        k(   15) = (   0.0000000  -0.5000000   0.2227186), wk =   0.0370370
        k(   16) = (   0.0000000  -0.5000000  -0.3340779), wk =   0.0185185
        k(   17) = (   0.1666667   0.1666667   0.0000000), wk =   0.0370370
        k(   18) = (   0.1666667   0.1666667   0.1113593), wk =   0.0740741
        k(   19) = (   0.1666667   0.1666667   0.2227186), wk =   0.0740741
        k(   20) = (   0.1666667   0.1666667  -0.3340779), wk =   0.0370370
        k(   21) = (   0.1666667   0.3333333   0.0000000), wk =   0.0740741
        k(   22) = (   0.1666667   0.3333333   0.1113593), wk =   0.1481481
        k(   23) = (   0.1666667   0.3333333   0.2227186), wk =   0.1481481
        k(   24) = (   0.1666667   0.3333333  -0.3340779), wk =   0.0740741
        k(   25) = (   0.1666667  -0.5000000   0.0000000), wk =   0.0370370
        k(   26) = (   0.1666667  -0.5000000   0.1113593), wk =   0.0740741
        k(   27) = (   0.1666667  -0.5000000   0.2227186), wk =   0.0740741
        k(   28) = (   0.1666667  -0.5000000  -0.3340779), wk =   0.0370370
        k(   29) = (   0.3333333   0.3333333   0.0000000), wk =   0.0370370
        k(   30) = (   0.3333333   0.3333333   0.1113593), wk =   0.0740741
        k(   31) = (   0.3333333   0.3333333   0.2227186), wk =   0.0740741
        k(   32) = (   0.3333333   0.3333333  -0.3340779), wk =   0.0370370
        k(   33) = (   0.3333333  -0.5000000   0.0000000), wk =   0.0370370
        k(   34) = (   0.3333333  -0.5000000   0.1113593), wk =   0.0740741
        k(   35) = (   0.3333333  -0.5000000   0.2227186), wk =   0.0740741
        k(   36) = (   0.3333333  -0.5000000  -0.3340779), wk =   0.0370370
        k(   37) = (  -0.5000000  -0.5000000   0.0000000), wk =   0.0092593
        k(   38) = (  -0.5000000  -0.5000000   0.1113593), wk =   0.0185185
        k(   39) = (  -0.5000000  -0.5000000   0.2227186), wk =   0.0185185
        k(   40) = (  -0.5000000  -0.5000000  -0.3340779), wk =   0.0092593

     Initial potential from superposition of free atoms

     starting charge  183.99828, renormalised to  184.00000
     Starting wfcs are  116 randomized atomic wfcs

     Self-consistent Calculation

     iteration #  1     ecut=   120.00 Ry     beta= 0.70
     Davidson diagonalization with overlap
     ethr =  1.00E-02,  avg # of iterations =  4.2

     total energy              =   -3126.97017750 Ry
     Harris-Foulkes estimate   =   -3132.28230839 Ry
     estimated scf accuracy    <       6.73557439 Ry

[...]

     End of self-consistent calculation

          k = 0.0000 0.0000 0.0000 ( 31095 PWs)   bands (ev):

   -66.1379 -66.1375 -66.1362 -66.1358 -30.5378 -30.5378 -30.5345 -30.5345
   -30.4641 -30.4585 -30.4420 -30.4420 -30.4394 -30.4394 -30.4046 -30.4002
   -20.2869 -20.2869 -20.2868 -20.2868 -20.2713 -20.2713 -20.2712 -20.2712
   -20.2693 -20.2693 -20.2692 -20.2692 -20.2612 -20.2611 -20.2567 -20.2565
   -20.2564 -20.2563 -20.2555 -20.2554 -20.2547 -20.2547 -20.2535 -20.2535
   -20.2504 -20.2504 -20.2493 -20.2493 -10.0641  -9.8144  -9.1839  -9.1657
    -8.9309  -8.7406  -7.7278  -7.7278  -7.7073  -7.7073  -7.6880  -7.5625
     0.8727   0.8735   1.2570   1.3452   1.6820   1.7160   2.2499   2.3405
     2.5800   2.5800   3.9950   3.9950   4.9813   5.0930   5.0930   5.6025
     5.6025   5.6881   5.6881   5.9266   6.0116   6.0116   6.1232   6.8028
     6.8028   6.8150   7.0426   7.1733   7.1874   7.1874   7.2190   7.2190
     8.2699   8.2709   8.2861   8.2861   9.0273   9.0297   9.7950   9.7950
    12.3837  12.3837  13.5958  13.5958  13.6665  13.7558  13.7627  14.3368
    14.3368  14.7439  14.9836  14.9884  15.4886  16.8182

[...]

          k =-0.5000-0.5000 0.0000 ( 31144 PWs)   bands (ev):

[...]

     the Fermi energy is     8.9804 ev

!    total energy              =   -3130.52468590 Ry
     Harris-Foulkes estimate   =   -3130.52468590 Ry
     estimated scf accuracy    <          5.5E-09 Ry

     The total energy is the sum of the following terms:

     one-electron contribution =   -2382.19223501 Ry
     hartree contribution      =    1309.65333719 Ry
     xc contribution           =    -483.09493312 Ry
     ewald contribution        =   -1574.89085496 Ry
     smearing contrib. (-TS)   =      -0.00000000 Ry

     convergence has been achieved in  12 iterations

     Forces acting on atoms (cartesian axes, Ry/au):

     atom    1 type  1   force =     0.00000000    0.00000000   -0.04341705
     atom    2 type  1   force =     0.00000000    0.00000000    0.04341705
     atom    3 type  1   force =     0.00000000    0.00000000    0.04341705
     atom    4 type  1   force =     0.00000000    0.00000000   -0.04341705
     atom    5 type  2   force =     0.00000000    0.00000000    0.06369423
     atom    6 type  2   force =     0.00000000    0.00000000   -0.06369423
     atom    7 type  2   force =     0.00000000    0.00000000   -0.06369423
     atom    8 type  2   force =     0.00000000    0.00000000    0.06369423
     atom    9 type  2   force =    -0.00501813    0.00501813    0.00000000
     atom   10 type  2   force =     0.00501813   -0.00501813    0.00000000
     atom   11 type  2   force =     0.00501813   -0.00501813    0.00000000
     atom   12 type  2   force =    -0.00501813    0.00501813    0.00000000
     atom   13 type  2   force =    -0.00501813   -0.00501813    0.00000000
     atom   14 type  2   force =     0.00501813    0.00501813    0.00000000
     atom   15 type  2   force =     0.00501813    0.00501813    0.00000000
[...]

     new trust radius        =       0.1107697012 bohr
     new conv_thr            =       0.0000000100 Ry

     new unit-cell volume =   1433.59114 a.u.^3 (   212.43629 Ang^3 )
     density =      7.24879 g/cm^3

CELL_PARAMETERS (angstrom)
   5.254546416   0.000000000   0.000000000
   0.000000000   5.254546416   0.000000000
   0.000000000   0.000000000   7.694107242

ATOMIC_POSITIONS (crystal)
W        0.250000000   0.250000000   0.212688050    0   0   0
W        0.750000023   0.750000023   0.787311965    0   0   0
W        0.750000023   0.750000023   0.287311965    0   0   0
W        0.250000000   0.250000000   0.712688035    0   0   0
O        0.250000000   0.250000000   0.481390555    0   0   0
O        0.750000023   0.750000023   0.518609445    0   0   0
O        0.750000023   0.750000023   0.018609458    0   0   0
O        0.250000000   0.250000000   0.981390555    0   0   0
O        0.477496588   0.522503366   0.250000000    0   0   0
O        0.522503412   0.477496634   0.750000000    0   0   0
O        0.022503395   0.977496634   0.250000000    0   0   0
O        0.977496542   0.022503429   0.750000000    0   0   0
O        0.977496634   0.477496588   0.250000000    0   0   0
O        0.022503429   0.522503412   0.750000000    0   0   0
O        0.522503366   0.022503395   0.250000000    0   0   0
O        0.477496634   0.977496542   0.750000000    0   0   0

     Writing output data file Landau_16.save/
     NEW-OLD atomic charge density approx. for the potential
     extrapolated charge  188.03521, renormalised to  184.00000

[...]

     enthalpy old            =   -3130.5246858979 Ry
     enthalpy new            =   -3130.5361441289 Ry

     CASE: enthalpy_new < enthalpy_old

[...]

     Threshold (ethr) on eigenvalues was too large:
     Diagonalizing with lowered threshold

     Davidson diagonalization with overlap
     ethr =  6.13E-11,  avg # of iterations =  4.0

[...]

     number of scf cycles    =   5
     number of bfgs steps    =   4

     enthalpy old            =   -3130.5366716537 Ry
     enthalpy new            =   -3130.5366717662 Ry

     CASE: enthalpy_new < enthalpy_old

     small trust_radius: resetting bfgs history

     new trust radius        =       0.0000039070 bohr
     new conv_thr            =            1.0E-10 Ry

     new unit-cell volume =   1424.41570 a.u.^3 (   211.07663 Ang^3 )
     density =      7.29548 g/cm^3

[...]

ATOMIC_POSITIONS (crystal)
W        0.250000000   0.250000000   0.212688050    0   0   0
W        0.750000023   0.750000023   0.787311965    0   0   0
W        0.750000023   0.750000023   0.287311965    0   0   0
W        0.250000000   0.250000000   0.712688035    0   0   0
O        0.250000000   0.250000000   0.481390555    0   0   0
O        0.750000023   0.750000023   0.518609445    0   0   0
O        0.750000023   0.750000023   0.018609458    0   0   0
O        0.250000000   0.250000000   0.981390555    0   0   0
O        0.477496588   0.522503366   0.250000000    0   0   0
O        0.522503412   0.477496634   0.750000000    0   0   0
O        0.022503395   0.977496634   0.250000000    0   0   0
O        0.977496542   0.022503429   0.750000000    0   0   0
O        0.977496634   0.477496588   0.250000000    0   0   0
O        0.022503429   0.522503412   0.750000000    0   0   0
O        0.522503366   0.022503395   0.250000000    0   0   0
O        0.477496634   0.977496542   0.750000000    0   0   0

     Writing output data file Landau_16.save/
     NEW-OLD atomic charge density approx. for the potential
     extrapolated charge  183.99982, renormalised to  184.00000

[...]

     Threshold (ethr) on eigenvalues was too large:
     Diagonalizing with lowered threshold

     Davidson diagonalization with overlap
     ethr =  2.22E-12,  avg # of iterations =  2.4

[...]

     bfgs converged in   6 scf cycles and   5 bfgs steps
     (criteria: energy <  1.0E-07 Ry, force <  1.0E-07Ry/Bohr, cell <  5.0E-01kbar)

     End of BFGS Geometry Optimization

     Final enthalpy =   -3130.5366717660 Ry
Begin final coordinates
     new unit-cell volume =   1424.41570 a.u.^3 (   211.07663 Ang^3 )
     density =      7.29548 g/cm^3

CELL_PARAMETERS (angstrom)
   5.242486255   0.000000000   0.000000000
   0.000000000   5.242486255   0.000000000
   0.000000000   0.000000000   7.680076443

ATOMIC_POSITIONS (crystal)
W        0.250000000   0.250000000   0.212688050    0   0   0
W        0.750000023   0.750000023   0.787311965    0   0   0
W        0.750000023   0.750000023   0.287311965    0   0   0
W        0.250000000   0.250000000   0.712688035    0   0   0
O        0.250000000   0.250000000   0.481390555    0   0   0
O        0.750000023   0.750000023   0.518609445    0   0   0
O        0.750000023   0.750000023   0.018609458    0   0   0
O        0.250000000   0.250000000   0.981390555    0   0   0
O        0.477496588   0.522503366   0.250000000    0   0   0
O        0.522503412   0.477496634   0.750000000    0   0   0
O        0.022503395   0.977496634   0.250000000    0   0   0
O        0.977496542   0.022503429   0.750000000    0   0   0
O        0.977496634   0.477496588   0.250000000    0   0   0
O        0.022503429   0.522503412   0.750000000    0   0   0
O        0.522503366   0.022503395   0.250000000    0   0   0
O        0.477496634   0.977496542   0.750000000    0   0   0
End final coordinates

     Writing output data file Landau_16.save/

     Final scf calculation at the relaxed structure.
     The G-vectors are recalculated for the final unit cell
     Results may differ from those at the preceding step.

     bravais-lattice index     =            0
     lattice parameter (alat)  =       9.7849  a.u.
     unit-cell volume          =    1424.4157 (a.u.)^3
     number of atoms/cell      =           16
     number of atomic types    =            2
     number of electrons       =       184.00
     number of Kohn-Sham states=          110
     kinetic-energy cutoff     =     120.0000  Ry
     charge density cutoff     =     480.0000  Ry
     convergence threshold     =      1.0E-10
     mixing beta               =       0.7000
     number of iterations used =            8  plain     mixing
     Exchange-correlation      = SLA PW NOGX NOGC ( 1  4  0  0 0 0)

     celldm(1)=   9.784926  celldm(2)=   0.000000  celldm(3)=   0.000000
     celldm(4)=   0.000000  celldm(5)=   0.000000  celldm(6)=   0.000000

     crystal axes: (cart. coord. in units of alat)
               a(1) = (   1.012462   0.000000   0.000000 )
               a(2) = (   0.000000   1.012462   0.000000 )
               a(3) = (   0.000000   0.000000   1.483224 )

     reciprocal axes: (cart. coord. in units 2 pi/alat)
               b(1) = (  0.987692  0.000000  0.000000 )
               b(2) = (  0.000000  0.987692  0.000000 )
               b(3) = (  0.000000  0.000000  0.674207 )

     PseudoPot. # 1 for W  read from file:
     /cluster/scratch/mnoe/QE/pps/W_ONCV_LDA-4.0.upf
     MD5 check sum: ba0307d5d4cd419d6f1d13dc49d7c13a
     Pseudo is Norm-conserving + core correction, Zval = 28.0
     Generated using ONCVPSP code by D. R. Hamann
     Using radial grid of 1380 points,  8 beta functions with:
                l(1) =   0
                l(2) =   0
                l(3) =   1
                l(4) =   1
                l(5) =   2
                l(6) =   2
                l(7) =   3
                l(8) =   3

     PseudoPot. # 2 for O  read from file:
     /cluster/scratch/mnoe/QE/pps/O_ONCV_LDA-3.0.upf
     MD5 check sum: b55cdb4f45ae2203d24ad12cf8d61a31
     Pseudo is Norm-conserving + core correction, Zval =  6.0
     Generated using ONCVPSP code by D. R. Hamann
     Using radial grid of  926 points,  5 beta functions with:
                l(1) =   0
                l(2) =   0
                l(3) =   1
                l(4) =   1
                l(5) =   2

     atomic species   valence    mass     pseudopotential
        W             28.00   183.84000     W ( 1.00)
        O              6.00    15.99940     O ( 1.00)

     16 Sym. Ops., with inversion, found (14 have fractional translation)

   Cartesian axes

     site n.     atom                  positions (alat units)
         1           W   tau(   1) = (   0.2531154   0.2531154   0.3154641  )
         2           W   tau(   2) = (   0.7593463   0.7593463   1.1677603  )
         3           W   tau(   3) = (   0.7593463   0.7593463   0.4261481  )
         4           W   tau(   4) = (   0.2531154   0.2531154   1.0570763  )
         5           O   tau(   5) = (   0.2531154   0.2531154   0.7140102  )
         6           O   tau(   6) = (   0.7593463   0.7593463   0.7692142  )
         7           O   tau(   7) = (   0.7593463   0.7593463   0.0276020  )
         8           O   tau(   8) = (   0.2531154   0.2531154   1.4556224  )
         9           O   tau(   9) = (   0.4834470   0.5290147   0.3708061  )
        10           O   tau(  10) = (   0.5290147   0.4834471   1.1124183  )
        11           O   tau(  11) = (   0.0227838   0.9896779   0.3708061  )
        12           O   tau(  12) = (   0.9896778   0.0227839   1.1124183  )
        13           O   tau(  13) = (   0.9896779   0.4834470   0.3708061  )
        14           O   tau(  14) = (   0.0227839   0.5290147   1.1124183  )
        15           O   tau(  15) = (   0.5290147   0.0227838   0.3708061  )
        16           O   tau(  16) = (   0.4834471   0.9896778   1.1124183  )

     number of k points=    40  gaussian smearing, width (Ry)=  0.0007
                       cart. coord. in units 2pi/alat
        k(    1) = (   0.0000000   0.0000000   0.0000000), wk =   0.0092593
        k(    2) = (   0.0000000   0.0000000   0.1123678), wk =   0.0185185
        k(    3) = (   0.0000000   0.0000000   0.2247356), wk =   0.0185185
        k(    4) = (   0.0000000   0.0000000  -0.3371034), wk =   0.0092593
        k(    5) = (   0.0000000   0.1646153   0.0000000), wk =   0.0370370
        k(    6) = (   0.0000000   0.1646153   0.1123678), wk =   0.0740741
        k(    7) = (   0.0000000   0.1646153   0.2247356), wk =   0.0740741
        k(    8) = (   0.0000000   0.1646153  -0.3371034), wk =   0.0370370
        k(    9) = (   0.0000000   0.3292306   0.0000000), wk =   0.0370370
        k(   10) = (   0.0000000   0.3292306   0.1123678), wk =   0.0740741
        k(   11) = (   0.0000000   0.3292306   0.2247356), wk =   0.0740741
        k(   12) = (   0.0000000   0.3292306  -0.3371034), wk =   0.0370370
        k(   13) = (   0.0000000  -0.4938458   0.0000000), wk =   0.0185185
        k(   14) = (   0.0000000  -0.4938458   0.1123678), wk =   0.0370370
        k(   15) = (   0.0000000  -0.4938458   0.2247356), wk =   0.0370370
        k(   16) = (   0.0000000  -0.4938458  -0.3371034), wk =   0.0185185
        k(   17) = (   0.1646153   0.1646153   0.0000000), wk =   0.0370370
        k(   18) = (   0.1646153   0.1646153   0.1123678), wk =   0.0740741
        k(   19) = (   0.1646153   0.1646153   0.2247356), wk =   0.0740741
        k(   20) = (   0.1646153   0.1646153  -0.3371034), wk =   0.0370370
        k(   21) = (   0.1646153   0.3292306   0.0000000), wk =   0.0740741
        k(   22) = (   0.1646153   0.3292306   0.1123678), wk =   0.1481481
        k(   23) = (   0.1646153   0.3292306   0.2247356), wk =   0.1481481
        k(   24) = (   0.1646153   0.3292306  -0.3371034), wk =   0.0740741
        k(   25) = (   0.1646153  -0.4938458   0.0000000), wk =   0.0370370
        k(   26) = (   0.1646153  -0.4938458   0.1123678), wk =   0.0740741
        k(   27) = (   0.1646153  -0.4938458   0.2247356), wk =   0.0740741
        k(   28) = (   0.1646153  -0.4938458  -0.3371034), wk =   0.0370370
        k(   29) = (   0.3292306   0.3292306   0.0000000), wk =   0.0370370
        k(   30) = (   0.3292306   0.3292306   0.1123678), wk =   0.0740741
        k(   31) = (   0.3292306   0.3292306   0.2247356), wk =   0.0740741
        k(   32) = (   0.3292306   0.3292306  -0.3371034), wk =   0.0370370
        k(   33) = (   0.3292306  -0.4938458   0.0000000), wk =   0.0370370
        k(   34) = (   0.3292306  -0.4938458   0.1123678), wk =   0.0740741
        k(   35) = (   0.3292306  -0.4938458   0.2247356), wk =   0.0740741
        k(   36) = (   0.3292306  -0.4938458  -0.3371034), wk =   0.0370370
        k(   37) = (  -0.4938458  -0.4938458   0.0000000), wk =   0.0092593
        k(   38) = (  -0.4938458  -0.4938458   0.1123678), wk =   0.0185185
        k(   39) = (  -0.4938458  -0.4938458   0.2247356), wk =   0.0185185
        k(   40) = (  -0.4938458  -0.4938458  -0.3371034), wk =   0.0092593

     Initial potential from superposition of free atoms

     starting charge  183.99828, renormalised to  184.00000
     Starting wfcs are  116 randomized atomic wfcs

     Self-consistent Calculation

[...]

     total energy              =   -3130.53685008 Ry
     Harris-Foulkes estimate   =   -3130.53685008 Ry
     estimated scf accuracy    <          5.3E-10 Ry

     iteration # 13     ecut=   120.00 Ry     beta= 0.70
     Davidson diagonalization with overlap
     ethr =  2.90E-13,  avg # of iterations =  3.5

     End of self-consistent calculation

[...]

          k = 0.3292-0.4938-0.3371 ( 31616 PWs)   bands (ev):

[...]

          k =-0.4938-0.4938-0.3371 ( 31672 PWs)   bands (ev):

   -66.4388 -66.4388 -66.4388 -66.4388 -30.7793 -30.7793 -30.7793 -30.7793
   -30.7630 -30.7630 -30.7630 -30.7630 -30.6885 -30.6885 -30.6885 -30.6885
   -20.6041 -20.6041 -20.6041 -20.6041 -20.5917 -20.5917 -20.5917 -20.5917
   -20.5864 -20.5864 -20.5864 -20.5864 -20.5754 -20.5754 -20.5754 -20.5754
   -20.5743 -20.5743 -20.5743 -20.5743 -20.5691 -20.5691 -20.5691 -20.5691
   -20.5654 -20.5654 -20.5653 -20.5653  -9.5798  -9.5798  -9.5798  -9.5798
    -8.6689  -8.6689  -8.6689  -8.6689  -7.9731  -7.9731  -7.9731  -7.9731
     1.0277   1.0277   1.0278   1.0278   2.9261   2.9261   2.9261   2.9261
     3.1674   3.1674   3.1674   3.1674   4.4864   4.4865   4.4865   4.4865
     5.1373   5.1373   5.1373   5.1373   5.8083   5.8083   5.8083   5.8083
     6.0239   6.0239   6.0239   6.0239   6.5155   6.5155   6.5155   6.5155
     7.3095   7.3095   7.3095   7.3095  11.0306  11.0306  11.0306  11.0306
    12.2481  12.2481  12.2481  12.2481  13.4099  13.4099  13.4099  13.4099
    15.0051  15.0051  15.0051  15.0051  17.8722  17.8722

     the Fermi energy is     8.6662 ev

!    total energy              =   -3130.53685008 Ry
     Harris-Foulkes estimate   =   -3130.53685008 Ry
     estimated scf accuracy    <          8.5E-11 Ry

     The total energy is the sum of the following terms:

     one-electron contribution =   -2394.23765612 Ry
     hartree contribution      =    1313.81958835 Ry
     xc contribution           =    -482.85322983 Ry
     ewald contribution        =   -1567.26555248 Ry
     smearing contrib. (-TS)   =      -0.00000000 Ry

     convergence has been achieved in  13 iterations

     Forces acting on atoms (cartesian axes, Ry/au):

     atom    1 type  1   force =     0.00000000    0.00000000   -0.00899282
     atom    2 type  1   force =     0.00000000    0.00000000    0.00899282
     atom    3 type  1   force =     0.00000000    0.00000000    0.00899282
     atom    4 type  1   force =     0.00000000    0.00000000   -0.00899282
     atom    5 type  2   force =     0.00000000    0.00000000    0.04852408
     atom    6 type  2   force =     0.00000000    0.00000000   -0.04852408
     atom    7 type  2   force =     0.00000000    0.00000000   -0.04852408
     atom    8 type  2   force =     0.00000000    0.00000000    0.04852408
     atom    9 type  2   force =    -0.00135818    0.00135818    0.00000000
     atom   10 type  2   force =     0.00135818   -0.00135818    0.00000000
     atom   11 type  2   force =     0.00135818   -0.00135818    0.00000000
     atom   12 type  2   force =    -0.00135818    0.00135818    0.00000000
     atom   13 type  2   force =    -0.00135818   -0.00135818    0.00000000
     atom   14 type  2   force =     0.00135818    0.00135818    0.00000000
     atom   15 type  2   force =     0.00135818    0.00135818    0.00000000
     atom   16 type  2   force =    -0.00135818   -0.00135818    0.00000000

     Total force =     0.000000     Total SCF correction =     0.000000

     Computing stress (Cartesian axis) and pressure

          total   stress  (Ry/bohr**3)                   (kbar)     P=    0.60
   0.00000591   0.00000000   0.00000000          0.87      0.00      0.00
   0.00000000   0.00000591   0.00000000          0.00      0.87      0.00
   0.00000000   0.00000000   0.00000041          0.00      0.00      0.06

     Writing output data file Landau_16.save/

     General routines

     Parallel routines

   This run was terminated on:  18:52:49  19Nov2019

   JOB DONE.