     Program PWSCF v.6.4.1 starts on 29Nov2019 at 19:35:52

     K-points division:     npool     =      40
     Reading input from scf.in

     Current dimensions of program PWSCF are:
     Max number of different atomic species (ntypx) = 10
     Max number of k-points (npk) =  40000
     Max angular momentum in pseudopotentials (lmaxx) =  3

     Subspace diagonalization in iterative solution of the eigenvalue problem:
     a serial algorithm will be used

     Message from routine setup:
     using ibrav=0 with symmetry is DISCOURAGED, use correct ibrav instead

     bravais-lattice index     =            0
     lattice parameter (alat)  =       9.7849  a.u.
     unit-cell volume          =    1402.1515 (a.u.)^3
     number of atoms/cell      =           16
     number of atomic types    =            2
     number of electrons       =       184.00
     number of Kohn-Sham states=          110
     kinetic-energy cutoff     =     120.0000  Ry
     charge density cutoff     =     480.0000  Ry
     convergence threshold     =      1.0E-08
     mixing beta               =       0.7000
     number of iterations used =            8  plain     mixing
     Exchange-correlation      = SLA PW NOGX NOGC ( 1  4  0  0 0 0)

     celldm(1)=   9.784926  celldm(2)=   0.000000  celldm(3)=   0.000000
     celldm(4)=   0.000000  celldm(5)=   0.000000  celldm(6)=   0.000000

     crystal axes: (cart. coord. in units of alat)
               a(1) = (   1.000000   0.000000   0.000000 )
               a(2) = (   0.000000   1.000000   0.000000 )
               a(3) = (   0.000000   0.000000   1.496657 )

     reciprocal axes: (cart. coord. in units 2 pi/alat)
               b(1) = (  1.000000  0.000000  0.000000 )
               b(2) = (  0.000000  1.000000  0.000000 )
               b(3) = (  0.000000  0.000000  0.668156 )

     PseudoPot. # 1 for W  read from file:
     /cluster/scratch/mnoe/QE/pps/W_ONCV_LDA-4.0.upf
     MD5 check sum: ba0307d5d4cd419d6f1d13dc49d7c13a
     Pseudo is Norm-conserving + core correction, Zval = 28.0
     Generated using ONCVPSP code by D. R. Hamann
     Using radial grid of 1380 points,  8 beta functions with:
                l(1) =   0
                l(2) =   0
                l(3) =   1
                l(4) =   1
                l(5) =   2
                l(6) =   2
                l(7) =   3
                l(8) =   3

     PseudoPot. # 2 for O  read from file:
     /cluster/scratch/mnoe/QE/pps/O_ONCV_LDA-3.0.upf
     MD5 check sum: b55cdb4f45ae2203d24ad12cf8d61a31
     Pseudo is Norm-conserving + core correction, Zval =  6.0
     Generated using ONCVPSP code by D. R. Hamann
     Using radial grid of  926 points,  5 beta functions with:
                l(1) =   0
                l(2) =   0
                l(3) =   1
                l(4) =   1
                l(5) =   2

     atomic species   valence    mass     pseudopotential
        W             28.00   183.84000     W ( 1.00)
        O              6.00    15.99940     O ( 1.00)

     16 Sym. Ops., with inversion, found (14 have fractional translation)

   Cartesian axes

     site n.     atom                  positions (alat units)
         1           W   tau(   1) = (   0.2500000   0.2500000   0.3264508  )
         2           W   tau(   2) = (   0.7500000   0.7500000   1.1702062  )
         3           W   tau(   3) = (   0.7500000   0.7500000   0.4218777  )
         4           W   tau(   4) = (   0.2500000   0.2500000   1.0747793  )
         5           O   tau(   5) = (   0.2500000   0.2500000   0.7358614  )
         6           O   tau(   6) = (   0.7500000   0.7500000   0.7607956  )
         7           O   tau(   7) = (   0.7500000   0.7500000   0.0124671  )
         8           O   tau(   8) = (   0.2500000   0.2500000   1.4841899  )
         9           O   tau(   9) = (   0.4494100   0.5505900   0.3741643  )
        10           O   tau(  10) = (   0.5505900   0.4494100   1.1224928  )
        11           O   tau(  11) = (   0.0505900   0.9494100   0.3741643  )
        12           O   tau(  12) = (   0.9494099   0.0505900   1.1224928  )
        13           O   tau(  13) = (   0.9494100   0.4494100   0.3741643  )
        14           O   tau(  14) = (   0.0505900   0.5505900   1.1224928  )
        15           O   tau(  15) = (   0.5505900   0.0505900   0.3741643  )
        16           O   tau(  16) = (   0.4494100   0.9494099   1.1224928  )

     number of k points=    40  gaussian smearing, width (Ry)=  0.0007
                       cart. coord. in units 2pi/alat
        k(    1) = (   0.0000000   0.0000000   0.0000000), wk =   0.0092593
        k(    2) = (   0.0000000   0.0000000   0.1113593), wk =   0.0185185
        k(    3) = (   0.0000000   0.0000000   0.2227186), wk =   0.0185185
        k(    4) = (   0.0000000   0.0000000  -0.3340779), wk =   0.0092593
        k(    5) = (   0.0000000   0.1666667   0.0000000), wk =   0.0370370
        k(    6) = (   0.0000000   0.1666667   0.1113593), wk =   0.0740741
        k(    7) = (   0.0000000   0.1666667   0.2227186), wk =   0.0740741
        k(    8) = (   0.0000000   0.1666667  -0.3340779), wk =   0.0370370
        k(    9) = (   0.0000000   0.3333333   0.0000000), wk =   0.0370370
        k(   10) = (   0.0000000   0.3333333   0.1113593), wk =   0.0740741
        k(   11) = (   0.0000000   0.3333333   0.2227186), wk =   0.0740741
        k(   12) = (   0.0000000   0.3333333  -0.3340779), wk =   0.0370370
        k(   13) = (   0.0000000  -0.5000000   0.0000000), wk =   0.0185185
        k(   14) = (   0.0000000  -0.5000000   0.1113593), wk =   0.0370370
        k(   15) = (   0.0000000  -0.5000000   0.2227186), wk =   0.0370370
        k(   16) = (   0.0000000  -0.5000000  -0.3340779), wk =   0.0185185
        k(   17) = (   0.1666667   0.1666667   0.0000000), wk =   0.0370370
        k(   18) = (   0.1666667   0.1666667   0.1113593), wk =   0.0740741
        k(   19) = (   0.1666667   0.1666667   0.2227186), wk =   0.0740741
        k(   20) = (   0.1666667   0.1666667  -0.3340779), wk =   0.0370370
        k(   21) = (   0.1666667   0.3333333   0.0000000), wk =   0.0740741
        k(   22) = (   0.1666667   0.3333333   0.1113593), wk =   0.1481481
        k(   23) = (   0.1666667   0.3333333   0.2227186), wk =   0.1481481
        k(   24) = (   0.1666667   0.3333333  -0.3340779), wk =   0.0740741
        k(   25) = (   0.1666667  -0.5000000   0.0000000), wk =   0.0370370
        k(   26) = (   0.1666667  -0.5000000   0.1113593), wk =   0.0740741
        k(   27) = (   0.1666667  -0.5000000   0.2227186), wk =   0.0740741
        k(   28) = (   0.1666667  -0.5000000  -0.3340779), wk =   0.0370370
        k(   29) = (   0.3333333   0.3333333   0.0000000), wk =   0.0370370
        k(   30) = (   0.3333333   0.3333333   0.1113593), wk =   0.0740741
        k(   31) = (   0.3333333   0.3333333   0.2227186), wk =   0.0740741
        k(   32) = (   0.3333333   0.3333333  -0.3340779), wk =   0.0370370
        k(   33) = (   0.3333333  -0.5000000   0.0000000), wk =   0.0370370
        k(   34) = (   0.3333333  -0.5000000   0.1113593), wk =   0.0740741
        k(   35) = (   0.3333333  -0.5000000   0.2227186), wk =   0.0740741
        k(   36) = (   0.3333333  -0.5000000  -0.3340779), wk =   0.0370370
        k(   37) = (  -0.5000000  -0.5000000   0.0000000), wk =   0.0092593
        k(   38) = (  -0.5000000  -0.5000000   0.1113593), wk =   0.0185185
        k(   39) = (  -0.5000000  -0.5000000   0.2227186), wk =   0.0185185
        k(   40) = (  -0.5000000  -0.5000000  -0.3340779), wk =   0.0092593

     Initial potential from superposition of free atoms

     starting charge  183.99828, renormalised to  184.00000
     Starting wfcs are  116 randomized atomic wfcs

     Self-consistent Calculation

     iteration #  1     ecut=   120.00 Ry     beta= 0.70
     Davidson diagonalization with overlap
     ethr =  1.00E-02,  avg # of iterations =  4.0

     total energy              =   -3126.98181698 Ry
     Harris-Foulkes estimate   =   -3132.29262367 Ry
     estimated scf accuracy    <       6.72432585 Ry

[...]

     total energy              =   -3130.55458525 Ry
     Harris-Foulkes estimate   =   -3130.55458527 Ry
     estimated scf accuracy    <       0.00000002 Ry

     iteration # 12     ecut=   120.00 Ry     beta= 0.70
     Davidson diagonalization with overlap
     ethr =  1.30E-11,  avg # of iterations =  2.0

     End of self-consistent calculation

          k = 0.0000 0.0000 0.0000 ( 31095 PWs)   bands (ev):

   -66.1725 -66.1721 -66.1705 -66.1701 -30.5662 -30.5598 -30.5118 -30.5118
   -30.5086 -30.5086 -30.5071 -30.5019 -30.4163 -30.4163 -30.4137 -30.4137
   -20.3327 -20.3327 -20.3326 -20.3325 -20.3150 -20.3145 -20.3095 -20.3095
   -20.3095 -20.3089 -20.3089 -20.3089 -20.3084 -20.3084 -20.3078 -20.3078
   -20.3003 -20.3003 -20.2997 -20.2997 -20.2992 -20.2991 -20.2985 -20.2984
   -20.2927 -20.2927 -20.2921 -20.2921  -9.9479  -9.6727  -9.0694  -9.0521
    -9.0402  -8.8730  -7.8511  -7.7406  -7.6226  -7.6226  -7.6017  -7.6017
     1.1867   1.1872   1.3705   1.6393   1.6408   1.8596   2.3888   2.4616
     2.7310   2.7310   4.1348   4.1348   5.0379   5.0379   5.0690   5.5207
     5.5207   5.5290   5.5290   5.8124   5.8124   5.9459   5.9640   6.8067
     6.8067   6.8874   7.0240   7.0244   7.3964   7.3964   7.4414   7.4414
     7.7805   7.7941   8.0789   8.0789   9.2279   9.2354  10.0306  10.0306
    12.2839  12.2839  12.8499  12.8527  13.4070  13.4070  13.7715  14.1558
    14.1558  14.9192  15.4087  15.4199  15.4588  16.8109

[...]

          k = 0.3333-0.5000-0.3341 ( 31120 PWs)   bands (ev):

[...]

          k =-0.5000-0.5000 0.0000 ( 31144 PWs)   bands (ev):

[...]

          k =-0.5000-0.5000-0.3341 ( 31088 PWs)   bands (ev):

   -66.1713 -66.1713 -66.1713 -66.1713 -30.5338 -30.5338 -30.5338 -30.5338
   -30.5155 -30.5155 -30.5155 -30.5155 -30.4106 -30.4106 -30.4106 -30.4106
   -20.3326 -20.3326 -20.3326 -20.3326 -20.3120 -20.3120 -20.3120 -20.3120
   -20.3098 -20.3098 -20.3098 -20.3098 -20.3078 -20.3078 -20.3077 -20.3077
   -20.3003 -20.3003 -20.3002 -20.3002 -20.2988 -20.2988 -20.2988 -20.2988
   -20.2919 -20.2919 -20.2919 -20.2919  -9.3175  -9.3175  -9.3175  -9.3175
    -8.4374  -8.4374  -8.4374  -8.4374  -7.7662  -7.7662  -7.7662  -7.7662
     1.2858   1.2858   1.2858   1.2858   3.1983   3.1983   3.1983   3.1983
     3.4651   3.4651   3.4651   3.4651   4.8662   4.8662   4.8662   4.8662
     5.3181   5.3181   5.3181   5.3181   6.0009   6.0009   6.0009   6.0009
     6.1689   6.1689   6.1689   6.1689   6.7561   6.7561   6.7561   6.7561
     7.4676   7.4676   7.4676   7.4676  11.3229  11.3229  11.3229  11.3229
    12.2826  12.2826  12.2826  12.2826  13.5710  13.5710  13.5710  13.5710
    15.6476  15.6476  15.6476  15.6476  18.3636  18.4441

     the Fermi energy is     8.5434 ev

!    total energy              =   -3130.55458525 Ry
     Harris-Foulkes estimate   =   -3130.55458526 Ry
     estimated scf accuracy    <          1.3E-09 Ry

     The total energy is the sum of the following terms:

     one-electron contribution =   -2360.44093250 Ry
     hartree contribution      =    1298.59429386 Ry
     xc contribution           =    -482.83465511 Ry
     ewald contribution        =   -1585.87329152 Ry
     smearing contrib. (-TS)   =      -0.00000000 Ry

     convergence has been achieved in  12 iterations

     Writing output data file chempot_0.save/

     General routines

     Parallel routines

   This run was terminated on:  19:39: 1  29Nov2019

   JOB DONE.