     Program PWSCF v.6.2 (svn rev. 14038) starts on 28Aug2019 at 14:28: 6

     K-points division:     npool     =      64
     Reading input from scf.in

     Current dimensions of program PWSCF are:
     Max number of different atomic species (ntypx) = 10
     Max number of k-points (npk) =  40000
     Max angular momentum in pseudopotentials (lmaxx) =  3

     Subspace diagonalization in iterative solution of the eigenvalue problem:
     a serial algorithm will be used

     bravais-lattice index     =            0
     lattice parameter (alat)  =      13.8371  a.u.
     unit-cell volume          =    2800.5265 (a.u.)^3
     number of atoms/cell      =           32
     number of atomic types    =            2
     number of electrons       =       368.52
     number of Kohn-Sham states=          221
     kinetic-energy cutoff     =     120.0000  Ry
     charge density cutoff     =     480.0000  Ry
     convergence threshold     =      1.0E-08
     mixing beta               =       0.7000
     number of iterations used =            8  plain     mixing
     Exchange-correlation      = SLA PW NOGX NOGC ( 1  4  0  0 0 0)

     celldm(1)=  13.837055  celldm(2)=   0.000000  celldm(3)=   0.000000
     celldm(4)=   0.000000  celldm(5)=   0.000000  celldm(6)=   0.000000

     crystal axes: (cart. coord. in units of alat)
               a(1) = (   1.000000   0.000000   0.000000 )
               a(2) = (   0.000000   1.056180   0.000000 )
               a(3) = (   0.000000   0.000000   1.000854 )

     reciprocal axes: (cart. coord. in units 2 pi/alat)
               b(1) = (  1.000000  0.000000  0.000000 )
               b(2) = (  0.000000  0.946808  0.000000 )
               b(3) = (  0.000000  0.000000  0.999147 )

     PseudoPot. # 1 for W  read from file:
     /cluster/scratch/mnoe/QE/pps/W_ONCV_LDA-4.0.upf
     MD5 check sum: ba0307d5d4cd419d6f1d13dc49d7c13a
     Pseudo is Norm-conserving + core correction, Zval = 28.0
     Generated using ONCVPSP code by D. R. Hamann
     Using radial grid of 1380 points,  8 beta functions with:
                l(1) =   0
                l(2) =   0
                l(3) =   1
                l(4) =   1
                l(5) =   2
                l(6) =   2
                l(7) =   3
                l(8) =   3

     PseudoPot. # 2 for O  read from file:
     /cluster/scratch/mnoe/QE/pps/O_ONCV_LDA-3.0.upf
     MD5 check sum: b55cdb4f45ae2203d24ad12cf8d61a31
     Pseudo is Norm-conserving + core correction, Zval =  6.0
     Generated using ONCVPSP code by D. R. Hamann
     Using radial grid of  926 points,  5 beta functions with:
                l(1) =   0
                l(2) =   0
                l(3) =   1
                l(4) =   1
                l(5) =   2

     atomic species   valence    mass     pseudopotential
        W             28.00   183.84000     W ( 1.00)
        O              6.00    15.99940     O ( 1.00)

      8 Sym. Ops., with inversion, found ( 6 have fractional translation)

   Cartesian axes

     site n.     atom                  positions (alat units)
         1           W   tau(   1) = (   0.2439900   0.2976949   0.0056849  )
         2           W   tau(   2) = (   0.7560100   0.7584851   0.9951693  )
         3           W   tau(   3) = (   0.2560100   0.2303951   0.5061120  )
         4           W   tau(   4) = (   0.7439900   0.8257848   0.4947422  )
         5           W   tau(   5) = (   0.7560100   0.2976949   0.4947422  )
         6           W   tau(   6) = (   0.2439900   0.7584851   0.5061120  )
         7           W   tau(   7) = (   0.7439900   0.2303951   0.9951693  )
         8           W   tau(   8) = (   0.2560100   0.8257848   0.0056849  )
         9           O   tau(   9) = (   0.2389100   0.0087874   0.0017715  )
        10           O   tau(  10) = (   0.7610900   1.0473926   0.9990827  )
        11           O   tau(  11) = (   0.2610900   0.5193026   0.5021986  )
        12           O   tau(  12) = (   0.7389100   0.5368774   0.4986556  )
        13           O   tau(  13) = (   0.7610900   0.0087874   0.4986556  )
        14           O   tau(  14) = (   0.2389100   1.0473926   0.5021986  )
        15           O   tau(  15) = (   0.7389100   0.5193026   0.9990827  )
        16           O   tau(  16) = (   0.2610900   0.5368774   0.0017715  )
        17           O   tau(  17) = (   0.5016400   0.2520257   0.4499240  )
        18           O   tau(  18) = (   0.4983600   0.8041543   0.5509301  )
        19           O   tau(  19) = (   0.9983600   0.2760643   0.9503511  )
        20           O   tau(  20) = (   0.0016401   0.7801156   0.0505031  )
        21           O   tau(  21) = (   0.4983600   0.2520257   0.0505031  )
        22           O   tau(  22) = (   0.5016400   0.8041543   0.9503511  )
        23           O   tau(  23) = (   0.0016401   0.2760643   0.5509301  )
        24           O   tau(  24) = (   0.9983600   0.7801156   0.4499240  )
        25           O   tau(  25) = (   0.6995400   0.2614257   0.7481485  )
        26           O   tau(  26) = (   0.3004600   0.7947543   0.2527056  )
        27           O   tau(  27) = (   0.8004600   0.2666643   0.2477214  )
        28           O   tau(  28) = (   0.1995400   0.7895156   0.7531328  )
        29           O   tau(  29) = (   0.3004600   0.2614257   0.7531328  )
        30           O   tau(  30) = (   0.6995400   0.7947543   0.2477214  )
        31           O   tau(  31) = (   0.1995400   0.2666643   0.2527056  )
        32           O   tau(  32) = (   0.8004600   0.7895156   0.7481485  )

     number of k points=    64  gaussian smearing, width (Ry)=  0.0007
                       cart. coord. in units 2pi/alat
        k(    1) = (   0.0000000   0.0000000   0.0000000), wk =   0.0092593
        k(    2) = (   0.0000000   0.0000000   0.1665244), wk =   0.0185185
        k(    3) = (   0.0000000   0.0000000   0.3330489), wk =   0.0185185
        k(    4) = (   0.0000000   0.0000000  -0.4995733), wk =   0.0092593
        k(    5) = (   0.0000000   0.1578014   0.0000000), wk =   0.0185185
        k(    6) = (   0.0000000   0.1578014   0.1665244), wk =   0.0370370
        k(    7) = (   0.0000000   0.1578014   0.3330489), wk =   0.0370370
        k(    8) = (   0.0000000   0.1578014  -0.4995733), wk =   0.0185185
        k(    9) = (   0.0000000   0.3156028   0.0000000), wk =   0.0185185
        k(   10) = (   0.0000000   0.3156028   0.1665244), wk =   0.0370370
        k(   11) = (   0.0000000   0.3156028   0.3330489), wk =   0.0370370
        k(   12) = (   0.0000000   0.3156028  -0.4995733), wk =   0.0185185
        k(   13) = (   0.0000000  -0.4734042   0.0000000), wk =   0.0092593
        k(   14) = (   0.0000000  -0.4734042   0.1665244), wk =   0.0185185
        k(   15) = (   0.0000000  -0.4734042   0.3330489), wk =   0.0185185
        k(   16) = (   0.0000000  -0.4734042  -0.4995733), wk =   0.0092593
        k(   17) = (   0.1666667   0.0000000   0.0000000), wk =   0.0185185
        k(   18) = (   0.1666667   0.0000000   0.1665244), wk =   0.0370370
        k(   19) = (   0.1666667   0.0000000   0.3330489), wk =   0.0370370
        k(   20) = (   0.1666667   0.0000000  -0.4995733), wk =   0.0185185
        k(   21) = (   0.1666667   0.1578014   0.0000000), wk =   0.0370370
        k(   22) = (   0.1666667   0.1578014   0.1665244), wk =   0.0740741
        k(   23) = (   0.1666667   0.1578014   0.3330489), wk =   0.0740741
        k(   24) = (   0.1666667   0.1578014  -0.4995733), wk =   0.0370370
        k(   25) = (   0.1666667   0.3156028   0.0000000), wk =   0.0370370
        k(   26) = (   0.1666667   0.3156028   0.1665244), wk =   0.0740741
        k(   27) = (   0.1666667   0.3156028   0.3330489), wk =   0.0740741
        k(   28) = (   0.1666667   0.3156028  -0.4995733), wk =   0.0370370
        k(   29) = (   0.1666667  -0.4734042   0.0000000), wk =   0.0185185
        k(   30) = (   0.1666667  -0.4734042   0.1665244), wk =   0.0370370
        k(   31) = (   0.1666667  -0.4734042   0.3330489), wk =   0.0370370
        k(   32) = (   0.1666667  -0.4734042  -0.4995733), wk =   0.0185185
        k(   33) = (   0.3333333   0.0000000   0.0000000), wk =   0.0185185
        k(   34) = (   0.3333333   0.0000000   0.1665244), wk =   0.0370370
        k(   35) = (   0.3333333   0.0000000   0.3330489), wk =   0.0370370
        k(   36) = (   0.3333333   0.0000000  -0.4995733), wk =   0.0185185
        k(   37) = (   0.3333333   0.1578014   0.0000000), wk =   0.0370370
        k(   38) = (   0.3333333   0.1578014   0.1665244), wk =   0.0740741
        k(   39) = (   0.3333333   0.1578014   0.3330489), wk =   0.0740741
        k(   40) = (   0.3333333   0.1578014  -0.4995733), wk =   0.0370370
        k(   41) = (   0.3333333   0.3156028   0.0000000), wk =   0.0370370
        k(   42) = (   0.3333333   0.3156028   0.1665244), wk =   0.0740741
        k(   43) = (   0.3333333   0.3156028   0.3330489), wk =   0.0740741
        k(   44) = (   0.3333333   0.3156028  -0.4995733), wk =   0.0370370
        k(   45) = (   0.3333333  -0.4734042   0.0000000), wk =   0.0185185
        k(   46) = (   0.3333333  -0.4734042   0.1665244), wk =   0.0370370
        k(   47) = (   0.3333333  -0.4734042   0.3330489), wk =   0.0370370
        k(   48) = (   0.3333333  -0.4734042  -0.4995733), wk =   0.0185185
        k(   49) = (  -0.5000000   0.0000000   0.0000000), wk =   0.0092593
        k(   50) = (  -0.5000000   0.0000000   0.1665244), wk =   0.0185185
        k(   51) = (  -0.5000000   0.0000000   0.3330489), wk =   0.0185185
        k(   52) = (  -0.5000000   0.0000000  -0.4995733), wk =   0.0092593
        k(   53) = (  -0.5000000   0.1578014   0.0000000), wk =   0.0185185
        k(   54) = (  -0.5000000   0.1578014   0.1665244), wk =   0.0370370
        k(   55) = (  -0.5000000   0.1578014   0.3330489), wk =   0.0370370
        k(   56) = (  -0.5000000   0.1578014  -0.4995733), wk =   0.0185185
        k(   57) = (  -0.5000000   0.3156028   0.0000000), wk =   0.0185185
        k(   58) = (  -0.5000000   0.3156028   0.1665244), wk =   0.0370370
        k(   59) = (  -0.5000000   0.3156028   0.3330489), wk =   0.0370370
        k(   60) = (  -0.5000000   0.3156028  -0.4995733), wk =   0.0185185
        k(   61) = (  -0.5000000  -0.4734042   0.0000000), wk =   0.0092593
        k(   62) = (  -0.5000000  -0.4734042   0.1665244), wk =   0.0185185
        k(   63) = (  -0.5000000  -0.4734042   0.3330489), wk =   0.0185185
        k(   64) = (  -0.5000000  -0.4734042  -0.4995733), wk =   0.0092593

     Initial potential from superposition of free atoms

     starting charge  367.99656, renormalised to  368.52000
     Starting wfc are  232 randomized atomic wfcs

     Self-consistent Calculation

     iteration #  1     ecut=   120.00 Ry     beta= 0.70
     Davidson diagonalization with overlap
     ethr =  1.00E-02,  avg # of iterations =  5.2

     total energy              =   -6253.52136915 Ry
     Harris-Foulkes estimate   =   -6264.30139999 Ry
     estimated scf accuracy    <      13.58958910 Ry

[...]

     total energy              =   -6260.74185419 Ry
     Harris-Foulkes estimate   =   -6260.74185421 Ry
     estimated scf accuracy    <       0.00000005 Ry

     iteration # 13     ecut=   120.00 Ry     beta= 0.70
     Davidson diagonalization with overlap
     ethr =  1.25E-11,  avg # of iterations =  2.8

     End of self-consistent calculation

          k = 0.0000 0.0000 0.0000 ( 62175 PWs)   bands (ev):

   -66.0218 -66.0213 -66.0207 -66.0207 -66.0203 -66.0203 -66.0197 -66.0193
   -30.4598 -30.4560 -30.4556 -30.4520 -30.4028 -30.3981 -30.3972 -30.3928
   -30.3666 -30.3652 -30.3606 -30.3590 -30.3584 -30.3572 -30.3552 -30.3528
   -30.2652 -30.2630 -30.2627 -30.2618 -30.2602 -30.2598 -30.2571 -30.2549
   -20.1724 -20.1722 -20.1720 -20.1719 -20.1713 -20.1712 -20.1710 -20.1710
   -20.1696 -20.1695 -20.1693 -20.1692 -20.1655 -20.1652 -20.1651 -20.1648
   -20.1600 -20.1597 -20.1593 -20.1592 -20.1587 -20.1586 -20.1584 -20.1581
   -20.1574 -20.1568 -20.1568 -20.1567 -20.1562 -20.1561 -20.1558 -20.1554
   -20.1458 -20.1457 -20.1454 -20.1453 -20.1450 -20.1448 -20.1446 -20.1445
   -20.1233 -20.1233 -20.1220 -20.1220 -20.1219 -20.1219 -20.1206 -20.1206
   -20.1171 -20.1171 -20.1160 -20.1160 -20.1157 -20.1157 -20.1146 -20.1146
    -9.8962  -9.6035  -9.4559  -9.4558  -9.1695  -9.1636  -9.0427  -8.9742
    -8.9612  -8.8339  -8.7996  -8.7986  -7.8300  -7.7653  -7.7600  -7.7224
    -7.7158  -7.7075  -7.6941  -7.6936  -7.5668  -7.5633  -7.5440  -7.5423
     1.2956   1.2967   1.3638   1.3707   1.3825   1.3957   1.4340   1.6754
     1.6770   1.6850   1.7276   1.9289   2.4547   2.5326   2.6129   2.6191
     2.7630   2.7736   4.1832   4.1993   4.4108   4.4402   4.8337   4.8739
     4.9021   4.9176   4.9321   4.9368   5.0883   5.0894   5.1409   5.4606
     5.4832   5.5464   5.5838   5.5860   5.5897   5.6302   5.6677   5.8493
     5.8737   5.9230   5.9252   5.9546   6.0015   6.0757   6.0839   6.1784
     6.1815   6.2838   6.2978   6.6063   6.6117   6.8353   6.8615   6.8742
     6.8895   6.9067   7.0370   7.0512   7.1090   7.1222   7.4247   7.4440
     7.4693   7.4873   7.8305   7.8454   8.0909   8.1190   8.1561   8.1841
     9.4220   9.4234  10.0840  10.0941  10.1170  10.1286  12.3166  12.3339
    12.3731  12.4129  12.4181  12.4458  12.5895  12.6065  12.8731  12.9459
    13.3060  13.3413  13.4512  13.4749  13.8169  14.1011  14.2169  14.2220
    14.3011  14.4560  14.5637  14.9062  15.5268  15.5413  15.5544  16.1287
    16.1454  16.8688  17.0930  17.1162  17.4928

[...]

          k = 0.3333-0.4734-0.4996 ( 62080 PWs)   bands (ev):

[...]

          k =-0.5000 0.0000 0.0000 ( 62184 PWs)   bands (ev):

[...]

          k =-0.5000-0.4734-0.4996 ( 62176 PWs)   bands (ev):

   -66.0205 -66.0205 -66.0205 -66.0205 -66.0205 -66.0205 -66.0205 -66.0205
   -30.4271 -30.4271 -30.4271 -30.4271 -30.4268 -30.4268 -30.4268 -30.4267
   -30.3150 -30.3150 -30.3150 -30.3150 -30.3130 -30.3130 -30.3130 -30.3130
   -30.3077 -30.3076 -30.3076 -30.3076 -30.3056 -30.3056 -30.3056 -30.3056
   -20.1714 -20.1714 -20.1714 -20.1714 -20.1714 -20.1713 -20.1713 -20.1713
   -20.1677 -20.1677 -20.1677 -20.1677 -20.1677 -20.1677 -20.1677 -20.1677
   -20.1584 -20.1584 -20.1584 -20.1584 -20.1580 -20.1580 -20.1580 -20.1580
   -20.1573 -20.1573 -20.1573 -20.1573 -20.1569 -20.1569 -20.1569 -20.1569
   -20.1451 -20.1451 -20.1451 -20.1451 -20.1451 -20.1450 -20.1450 -20.1450
   -20.1198 -20.1197 -20.1197 -20.1197 -20.1197 -20.1196 -20.1196 -20.1196
   -20.1184 -20.1184 -20.1184 -20.1184 -20.1183 -20.1183 -20.1183 -20.1183
    -8.8860  -8.8860  -8.8860  -8.8860  -8.8752  -8.8752  -8.8752  -8.8751
    -8.3632  -8.3632  -8.3631  -8.3631  -8.3452  -8.3452  -8.3452  -8.3452
    -8.2892  -8.2892  -8.2892  -8.2892  -8.2781  -8.2781  -8.2781  -8.2781
     3.0245   3.0245   3.0246   3.0246   3.0661   3.0661   3.0661   3.0661
     3.2034   3.2034   3.2034   3.2034   3.2582   3.2582   3.2582   3.2582
     3.4554   3.4554   3.4554   3.4554   3.5485   3.5485   3.5485   3.5485
     4.2056   4.2056   4.2057   4.2057   4.2172   4.2172   4.2172   4.2172
     4.4180   4.4180   4.4180   4.4180   4.4408   4.4408   4.4408   4.4409
     4.5183   4.5183   4.5183   4.5183   4.5472   4.5472   4.5472   4.5472
     7.1796   7.1796   7.1796   7.1796   7.2925   7.2926   7.2926   7.2926
     7.3723   7.3723   7.3724   7.3724   7.3951   7.3952   7.3952   7.3952
     7.6381   7.6381   7.6381   7.6381   7.6697   7.6697   7.6697   7.6697
    11.9112  11.9112  11.9112  11.9112  11.9210  11.9210  11.9210  11.9210
    12.3079  12.3079  12.3079  12.3079  12.4109  12.4109  12.4109  12.4109
    12.6040  12.6040  12.6040  12.6040  12.6506  12.6506  12.6506  12.6506
    17.1610  17.1610  17.1610  17.1610  17.2125  17.2125  17.2125  17.2125
    17.4223  17.4224  17.4227  17.4228  17.4419

     the Fermi energy is     9.7894 ev

!    total energy              =   -6260.74185420 Ry
     Harris-Foulkes estimate   =   -6260.74185420 Ry
     estimated scf accuracy    <          1.3E-09 Ry

     The total energy is the sum of the following terms:

     one-electron contribution =   -4714.78314802 Ry
     hartree contribution      =    2596.05252962 Ry
     xc contribution           =    -966.24386573 Ry
     ewald contribution        =   -3175.76734442 Ry
     smearing contrib. (-TS)   =      -0.00002565 Ry

     convergence has been achieved in  13 iterations

     Writing output data file Landau_13.save

     General routines

     Parallel routines

   This run was terminated on:  14:45: 3  28Aug2019

   JOB DONE.