     Program PWSCF v.6.2 (svn rev. 14038) starts on 28Aug2019 at 21: 8:18

     K-points division:     npool     =      64
     Reading input from scf.in

     Current dimensions of program PWSCF are:
     Max number of different atomic species (ntypx) = 10
     Max number of k-points (npk) =  40000
     Max angular momentum in pseudopotentials (lmaxx) =  3

     Subspace diagonalization in iterative solution of the eigenvalue problem:
     a serial algorithm will be used

     bravais-lattice index     =            0
     lattice parameter (alat)  =      13.8262  a.u.
     unit-cell volume          =    2782.2244 (a.u.)^3
     number of atoms/cell      =           32
     number of atomic types    =            2
     number of electrons       =       368.84
     number of Kohn-Sham states=          221
     kinetic-energy cutoff     =     120.0000  Ry
     charge density cutoff     =     480.0000  Ry
     convergence threshold     =      1.0E-08
     mixing beta               =       0.7000
     number of iterations used =            8  plain     mixing
     Exchange-correlation      = SLA PW NOGX NOGC ( 1  4  0  0 0 0)

     celldm(1)=  13.826159  celldm(2)=   0.000000  celldm(3)=   0.000000
     celldm(4)=   0.000000  celldm(5)=   0.000000  celldm(6)=   0.000000

     crystal axes: (cart. coord. in units of alat)
               a(1) = (   1.000000   0.000000   0.000000 )
               a(2) = (   0.000000   1.047744   0.000000 )
               a(3) = (   0.000000   0.000000   1.004691 )

     reciprocal axes: (cart. coord. in units 2 pi/alat)
               b(1) = (  1.000000  0.000000  0.000000 )
               b(2) = (  0.000000  0.954431  0.000000 )
               b(3) = (  0.000000  0.000000  0.995331 )

     PseudoPot. # 1 for W  read from file:
     /cluster/scratch/mnoe/QE/pps/W_ONCV_LDA-4.0.upf
     MD5 check sum: ba0307d5d4cd419d6f1d13dc49d7c13a
     Pseudo is Norm-conserving + core correction, Zval = 28.0
     Generated using ONCVPSP code by D. R. Hamann
     Using radial grid of 1380 points,  8 beta functions with:
                l(1) =   0
                l(2) =   0
                l(3) =   1
                l(4) =   1
                l(5) =   2
                l(6) =   2
                l(7) =   3
                l(8) =   3

     PseudoPot. # 2 for O  read from file:
     /cluster/scratch/mnoe/QE/pps/O_ONCV_LDA-3.0.upf
     MD5 check sum: b55cdb4f45ae2203d24ad12cf8d61a31
     Pseudo is Norm-conserving + core correction, Zval =  6.0
     Generated using ONCVPSP code by D. R. Hamann
     Using radial grid of  926 points,  5 beta functions with:
                l(1) =   0
                l(2) =   0
                l(3) =   1
                l(4) =   1
                l(5) =   2

     atomic species   valence    mass     pseudopotential
        W             28.00   183.84000     W ( 1.00)
        O              6.00    15.99940     O ( 1.00)

      8 Sym. Ops., with inversion, found ( 6 have fractional translation)

   Cartesian axes

     site n.     atom                  positions (alat units)
         1           W   tau(   1) = (   0.2361300   0.2953172   0.0131614  )
         2           W   tau(   2) = (   0.7638700   0.7524270   0.9915290  )
         3           W   tau(   3) = (   0.2638700   0.2285549   0.5155067  )
         4           W   tau(   4) = (   0.7361300   0.8191892   0.4891838  )
         5           W   tau(   5) = (   0.7638700   0.2953172   0.4891838  )
         6           W   tau(   6) = (   0.2361300   0.7524270   0.5155067  )
         7           W   tau(   7) = (   0.7361300   0.2285549   0.9915290  )
         8           W   tau(   8) = (   0.2638700   0.8191892   0.0131614  )
         9           O   tau(   9) = (   0.2244100   0.0087172   0.0040991  )
        10           O   tau(  10) = (   0.7755900   1.0390269   1.0005914  )
        11           O   tau(  11) = (   0.2755900   0.5151548   0.5064444  )
        12           O   tau(  12) = (   0.7244100   0.5325893   0.4982461  )
        13           O   tau(  13) = (   0.7755900   0.0087172   0.4982461  )
        14           O   tau(  14) = (   0.2244100   1.0390269   0.5064444  )
        15           O   tau(  15) = (   0.7244100   0.5151548   1.0005914  )
        16           O   tau(  16) = (   0.2755900   0.5325893   0.0040991  )
        17           O   tau(  17) = (   0.5037900   0.2344223   0.4516486  )
        18           O   tau(  18) = (   0.4962100   0.8133219   0.5530419  )
        19           O   tau(  19) = (   0.9962100   0.2894498   0.9539939  )
        20           O   tau(  20) = (   0.0037900   0.7582943   0.0506967  )
        21           O   tau(  21) = (   0.4962100   0.2344223   0.0506967  )
        22           O   tau(  22) = (   0.5037900   0.8133219   0.9539939  )
        23           O   tau(  23) = (   0.0037900   0.2894498   0.5530419  )
        24           O   tau(  24) = (   0.9962100   0.7582943   0.4516486  )
        25           O   tau(  25) = (   0.6995400   0.2559325   0.7477409  )
        26           O   tau(  26) = (   0.3004600   0.7918117   0.2569496  )
        27           O   tau(  27) = (   0.8004600   0.2679396   0.2453957  )
        28           O   tau(  28) = (   0.1995400   0.7798045   0.7592949  )
        29           O   tau(  29) = (   0.3004600   0.2559325   0.7592949  )
        30           O   tau(  30) = (   0.6995400   0.7918117   0.2453957  )
        31           O   tau(  31) = (   0.1995400   0.2679396   0.2569496  )
        32           O   tau(  32) = (   0.8004600   0.7798045   0.7477409  )

     number of k points=    64  gaussian smearing, width (Ry)=  0.0007
                       cart. coord. in units 2pi/alat
        k(    1) = (   0.0000000   0.0000000   0.0000000), wk =   0.0092593
        k(    2) = (   0.0000000   0.0000000   0.1658886), wk =   0.0185185
        k(    3) = (   0.0000000   0.0000000   0.3317771), wk =   0.0185185
        k(    4) = (   0.0000000   0.0000000  -0.4976657), wk =   0.0092593
        k(    5) = (   0.0000000   0.1590719   0.0000000), wk =   0.0185185
        k(    6) = (   0.0000000   0.1590719   0.1658886), wk =   0.0370370
        k(    7) = (   0.0000000   0.1590719   0.3317771), wk =   0.0370370
        k(    8) = (   0.0000000   0.1590719  -0.4976657), wk =   0.0185185
        k(    9) = (   0.0000000   0.3181438   0.0000000), wk =   0.0185185
        k(   10) = (   0.0000000   0.3181438   0.1658886), wk =   0.0370370
        k(   11) = (   0.0000000   0.3181438   0.3317771), wk =   0.0370370
        k(   12) = (   0.0000000   0.3181438  -0.4976657), wk =   0.0185185
        k(   13) = (   0.0000000  -0.4772157   0.0000000), wk =   0.0092593
        k(   14) = (   0.0000000  -0.4772157   0.1658886), wk =   0.0185185
        k(   15) = (   0.0000000  -0.4772157   0.3317771), wk =   0.0185185
        k(   16) = (   0.0000000  -0.4772157  -0.4976657), wk =   0.0092593
        k(   17) = (   0.1666667   0.0000000   0.0000000), wk =   0.0185185
        k(   18) = (   0.1666667   0.0000000   0.1658886), wk =   0.0370370
        k(   19) = (   0.1666667   0.0000000   0.3317771), wk =   0.0370370
        k(   20) = (   0.1666667   0.0000000  -0.4976657), wk =   0.0185185
        k(   21) = (   0.1666667   0.1590719   0.0000000), wk =   0.0370370
        k(   22) = (   0.1666667   0.1590719   0.1658886), wk =   0.0740741
        k(   23) = (   0.1666667   0.1590719   0.3317771), wk =   0.0740741
        k(   24) = (   0.1666667   0.1590719  -0.4976657), wk =   0.0370370
        k(   25) = (   0.1666667   0.3181438   0.0000000), wk =   0.0370370
        k(   26) = (   0.1666667   0.3181438   0.1658886), wk =   0.0740741
        k(   27) = (   0.1666667   0.3181438   0.3317771), wk =   0.0740741
        k(   28) = (   0.1666667   0.3181438  -0.4976657), wk =   0.0370370
        k(   29) = (   0.1666667  -0.4772157   0.0000000), wk =   0.0185185
        k(   30) = (   0.1666667  -0.4772157   0.1658886), wk =   0.0370370
        k(   31) = (   0.1666667  -0.4772157   0.3317771), wk =   0.0370370
        k(   32) = (   0.1666667  -0.4772157  -0.4976657), wk =   0.0185185
        k(   33) = (   0.3333333   0.0000000   0.0000000), wk =   0.0185185
        k(   34) = (   0.3333333   0.0000000   0.1658886), wk =   0.0370370
        k(   35) = (   0.3333333   0.0000000   0.3317771), wk =   0.0370370
        k(   36) = (   0.3333333   0.0000000  -0.4976657), wk =   0.0185185
        k(   37) = (   0.3333333   0.1590719   0.0000000), wk =   0.0370370
        k(   38) = (   0.3333333   0.1590719   0.1658886), wk =   0.0740741
        k(   39) = (   0.3333333   0.1590719   0.3317771), wk =   0.0740741
        k(   40) = (   0.3333333   0.1590719  -0.4976657), wk =   0.0370370
        k(   41) = (   0.3333333   0.3181438   0.0000000), wk =   0.0370370
        k(   42) = (   0.3333333   0.3181438   0.1658886), wk =   0.0740741
        k(   43) = (   0.3333333   0.3181438   0.3317771), wk =   0.0740741
        k(   44) = (   0.3333333   0.3181438  -0.4976657), wk =   0.0370370
        k(   45) = (   0.3333333  -0.4772157   0.0000000), wk =   0.0185185
        k(   46) = (   0.3333333  -0.4772157   0.1658886), wk =   0.0370370
        k(   47) = (   0.3333333  -0.4772157   0.3317771), wk =   0.0370370
        k(   48) = (   0.3333333  -0.4772157  -0.4976657), wk =   0.0185185
        k(   49) = (  -0.5000000   0.0000000   0.0000000), wk =   0.0092593
        k(   50) = (  -0.5000000   0.0000000   0.1658886), wk =   0.0185185
        k(   51) = (  -0.5000000   0.0000000   0.3317771), wk =   0.0185185
        k(   52) = (  -0.5000000   0.0000000  -0.4976657), wk =   0.0092593
        k(   53) = (  -0.5000000   0.1590719   0.0000000), wk =   0.0185185
        k(   54) = (  -0.5000000   0.1590719   0.1658886), wk =   0.0370370
        k(   55) = (  -0.5000000   0.1590719   0.3317771), wk =   0.0370370
        k(   56) = (  -0.5000000   0.1590719  -0.4976657), wk =   0.0185185
        k(   57) = (  -0.5000000   0.3181438   0.0000000), wk =   0.0185185
        k(   58) = (  -0.5000000   0.3181438   0.1658886), wk =   0.0370370
        k(   59) = (  -0.5000000   0.3181438   0.3317771), wk =   0.0370370
        k(   60) = (  -0.5000000   0.3181438  -0.4976657), wk =   0.0185185
        k(   61) = (  -0.5000000  -0.4772157   0.0000000), wk =   0.0092593
        k(   62) = (  -0.5000000  -0.4772157   0.1658886), wk =   0.0185185
        k(   63) = (  -0.5000000  -0.4772157   0.3317771), wk =   0.0185185
        k(   64) = (  -0.5000000  -0.4772157  -0.4976657), wk =   0.0092593

     Initial potential from superposition of free atoms

     starting charge  367.99656, renormalised to  368.84000
     Starting wfc are  232 randomized atomic wfcs

     Self-consistent Calculation

     iteration #  1     ecut=   120.00 Ry     beta= 0.70
     Davidson diagonalization with overlap
     ethr =  1.00E-02,  avg # of iterations =  5.2

     total energy              =   -6253.22754327 Ry
     Harris-Foulkes estimate   =   -6264.08741120 Ry
     estimated scf accuracy    <      13.65481611 Ry

[...]

     total energy              =   -6260.48805128 Ry
     Harris-Foulkes estimate   =   -6260.48805130 Ry
     estimated scf accuracy    <       0.00000003 Ry

     iteration # 13     ecut=   120.00 Ry     beta= 0.70
     Davidson diagonalization with overlap
     ethr =  9.49E-12,  avg # of iterations =  2.4

     End of self-consistent calculation

          k = 0.0000 0.0000 0.0000 ( 61707 PWs)   bands (ev):

   -65.8228 -65.8223 -65.8218 -65.8217 -65.8213 -65.8212 -65.8208 -65.8203
   -30.2744 -30.2676 -30.2670 -30.2603 -30.2255 -30.2163 -30.2137 -30.1991
   -30.1936 -30.1929 -30.1808 -30.1720 -30.1687 -30.1634 -30.1567 -30.1449
   -30.0946 -30.0928 -30.0906 -30.0898 -30.0748 -30.0691 -30.0679 -30.0623
   -19.9702 -19.9700 -19.9695 -19.9694 -19.9681 -19.9679 -19.9672 -19.9671
   -19.9572 -19.9570 -19.9570 -19.9565 -19.9564 -19.9562 -19.9562 -19.9561
   -19.9560 -19.9552 -19.9541 -19.9539 -19.9537 -19.9530 -19.9522 -19.9519
   -19.9501 -19.9495 -19.9494 -19.9492 -19.9486 -19.9482 -19.9481 -19.9479
   -19.9386 -19.9384 -19.9383 -19.9381 -19.9365 -19.9362 -19.9361 -19.9359
   -19.9176 -19.9175 -19.9163 -19.9162 -19.9122 -19.9122 -19.9109 -19.9109
   -19.9107 -19.9107 -19.9093 -19.9093 -19.9061 -19.9060 -19.9048 -19.9047
    -9.7743  -9.4575  -9.3265  -9.3255  -9.0273  -8.9917  -8.9147  -8.8077
    -8.7883  -8.7021  -8.6606  -8.6529  -7.7351  -7.6471  -7.6432  -7.6145
    -7.6049  -7.5884  -7.5820  -7.5573  -7.4870  -7.4616  -7.4554  -7.4404
     1.4998   1.5099   1.5545   1.5608   1.5866   1.6024   1.6320   1.8023
     1.8085   1.8652   1.9005   2.0989   2.5711   2.6641   2.7094   2.7384
     2.8565   2.9092   4.2825   4.3581   4.5235   4.6842   4.8427   4.9509
     4.9834   4.9950   5.0146   5.0165   5.2403   5.2685   5.3501   5.5381
     5.6514   5.6635   5.7200   5.7264   5.7884   5.8050   5.9220   5.9565
     5.9585   6.0086   6.0222   6.0746   6.0853   6.1378   6.1723   6.2832
     6.3091   6.3916   6.4267   6.6685   6.6941   6.9279   6.9301   6.9916
     7.0378   7.0670   7.0814   7.1221   7.1226   7.2011   7.4043   7.4478
     7.4992   7.5385   7.8923   7.9156   8.1042   8.1679   8.2480   8.3028
     9.8288   9.8510  10.3124  10.3286  10.3580  10.3786  12.3923  12.4689
    12.5801  12.6684  12.7040  12.7198  12.7245  12.8178  12.8894  12.9892
    13.4421  13.4922  13.5190  13.5813  13.8500  13.9840  14.3026  14.3027
    14.7032  14.7343  14.9840  15.0178  15.6587  15.6912  15.7892  16.1863
    16.2804  16.9485  17.1057  17.2263  17.6401

[...]

          k = 0.3333-0.4772-0.4977 ( 61704 PWs)   bands (ev):

[...]

          k =-0.5000 0.0000 0.0000 ( 61740 PWs)   bands (ev):

[...]

          k =-0.5000-0.4772-0.4977 ( 61760 PWs)   bands (ev):

   -65.8216 -65.8216 -65.8215 -65.8215 -65.8215 -65.8215 -65.8215 -65.8215
   -30.2374 -30.2374 -30.2374 -30.2374 -30.2367 -30.2367 -30.2367 -30.2367
   -30.1459 -30.1459 -30.1459 -30.1459 -30.1435 -30.1435 -30.1435 -30.1435
   -30.1126 -30.1126 -30.1126 -30.1126 -30.1102 -30.1101 -30.1101 -30.1101
   -19.9686 -19.9686 -19.9686 -19.9686 -19.9686 -19.9686 -19.9686 -19.9686
   -19.9564 -19.9564 -19.9564 -19.9564 -19.9562 -19.9562 -19.9562 -19.9562
   -19.9543 -19.9542 -19.9542 -19.9542 -19.9540 -19.9540 -19.9540 -19.9540
   -19.9491 -19.9491 -19.9491 -19.9490 -19.9488 -19.9488 -19.9488 -19.9488
   -19.9373 -19.9373 -19.9373 -19.9373 -19.9371 -19.9371 -19.9371 -19.9371
   -19.9145 -19.9144 -19.9144 -19.9144 -19.9143 -19.9143 -19.9143 -19.9143
   -19.9078 -19.9078 -19.9078 -19.9078 -19.9077 -19.9077 -19.9077 -19.9077
    -8.7764  -8.7763  -8.7763  -8.7763  -8.7491  -8.7491  -8.7490  -8.7490
    -8.2432  -8.2432  -8.2432  -8.2432  -8.1981  -8.1981  -8.1981  -8.1981
    -8.1640  -8.1639  -8.1639  -8.1639  -8.1262  -8.1261  -8.1261  -8.1261
     3.0746   3.0746   3.0746   3.0746   3.1704   3.1704   3.1704   3.1704
     3.3374   3.3374   3.3374   3.3374   3.4709   3.4709   3.4710   3.4710
     3.5258   3.5258   3.5258   3.5258   3.7239   3.7239   3.7239   3.7239
     4.3222   4.3222   4.3222   4.3222   4.3466   4.3466   4.3466   4.3466
     4.5224   4.5224   4.5224   4.5224   4.5976   4.5976   4.5976   4.5976
     4.6760   4.6760   4.6760   4.6760   4.7521   4.7521   4.7521   4.7521
     7.2269   7.2269   7.2269   7.2269   7.4179   7.4179   7.4179   7.4179
     7.4774   7.4774   7.4774   7.4774   7.5451   7.5451   7.5451   7.5451
     7.7056   7.7056   7.7056   7.7056   7.7841   7.7841   7.7841   7.7841
    12.1107  12.1107  12.1107  12.1107  12.1350  12.1350  12.1350  12.1350
    12.4061  12.4061  12.4061  12.4061  12.5927  12.5927  12.5927  12.5928
    12.7557  12.7557  12.7557  12.7557  12.8671  12.8671  12.8671  12.8671
    17.1953  17.1953  17.1953  17.1953  17.3017  17.3018  17.3018  17.3018
    17.5493  17.5493  17.5494  17.5494  17.6116

     the Fermi energy is    10.3528 ev

!    total energy              =   -6260.48805129 Ry
     Harris-Foulkes estimate   =   -6260.48805129 Ry
     estimated scf accuracy    <          9.9E-10 Ry

     The total energy is the sum of the following terms:

     one-electron contribution =   -4681.08298398 Ry
     hartree contribution      =    2581.72228258 Ry
     xc contribution           =    -966.59155915 Ry
     ewald contribution        =   -3194.53577338 Ry
     smearing contrib. (-TS)   =      -0.00001735 Ry

     convergence has been achieved in  13 iterations

     Writing output data file Landau_30.save

     General routines

     Parallel routines

   This run was terminated on:  21:22: 1  28Aug2019

   JOB DONE.