     Program PWSCF v.6.4.1 starts on  3Dec2019 at 16:40:45

     K-points division:     npool     =      40
     Reading input from scf.in

     Current dimensions of program PWSCF are:
     Max number of different atomic species (ntypx) = 10
     Max number of k-points (npk) =  40000
     Max angular momentum in pseudopotentials (lmaxx) =  3

     Subspace diagonalization in iterative solution of the eigenvalue problem:
     a serial algorithm will be used

     Message from routine setup:
     using ibrav=0 with symmetry is DISCOURAGED, use correct ibrav instead

     bravais-lattice index     =            0
     lattice parameter (alat)  =      13.8397  a.u.
     unit-cell volume          =    2804.9817 (a.u.)^3
     number of atoms/cell      =           32
     number of atomic types    =            2
     number of electrons       =       368.00
     number of Kohn-Sham states=          221
     kinetic-energy cutoff     =     120.0000  Ry
     charge density cutoff     =     480.0000  Ry
     convergence threshold     =      1.0E-08
     mixing beta               =       0.7000
     number of iterations used =            8  plain     mixing
     Exchange-correlation      = SLA PW NOGX NOGC ( 1  4  0  0 0 0)

     celldm(1)=  13.839685  celldm(2)=   0.000000  celldm(3)=   0.000000
     celldm(4)=   0.000000  celldm(5)=   0.000000  celldm(6)=   0.000000

     crystal axes: (cart. coord. in units of alat)
               a(1) = (   1.000000   0.000000   0.000000 )
               a(2) = (   0.000000   1.058160   0.000000 )
               a(3) = (   0.000000   0.000000   1.000000 )

     reciprocal axes: (cart. coord. in units 2 pi/alat)
               b(1) = (  1.000000  0.000000  0.000000 )
               b(2) = (  0.000000  0.945037  0.000000 )
               b(3) = (  0.000000  0.000000  1.000000 )

     PseudoPot. # 1 for W  read from file:
     /cluster/scratch/mnoe/QE/pps/W_ONCV_LDA-4.0.upf
     MD5 check sum: ba0307d5d4cd419d6f1d13dc49d7c13a
     Pseudo is Norm-conserving + core correction, Zval = 28.0
     Generated using ONCVPSP code by D. R. Hamann
     Using radial grid of 1380 points,  8 beta functions with:
                l(1) =   0
                l(2) =   0
                l(3) =   1
                l(4) =   1
                l(5) =   2
                l(6) =   2
                l(7) =   3
                l(8) =   3

     PseudoPot. # 2 for O  read from file:
     /cluster/scratch/mnoe/QE/pps/O_ONCV_LDA-3.0.upf
     MD5 check sum: b55cdb4f45ae2203d24ad12cf8d61a31
     Pseudo is Norm-conserving + core correction, Zval =  6.0
     Generated using ONCVPSP code by D. R. Hamann
     Using radial grid of  926 points,  5 beta functions with:
                l(1) =   0
                l(2) =   0
                l(3) =   1
                l(4) =   1
                l(5) =   2

     atomic species   valence    mass     pseudopotential
        W             28.00   183.84000     W ( 1.00)
        O              6.00    15.99940     O ( 1.00)

      8 Sym. Ops., with inversion, found ( 6 have fractional translation)

   Cartesian axes

     site n.     atom                  positions (alat units)
         1           W   tau(   1) = (   0.2379800   0.2982530   0.0113600  )
         2           W   tau(   2) = (   0.7620200   0.7599071   0.9886400  )
         3           W   tau(   3) = (   0.2620200   0.2308271   0.5113600  )
         4           W   tau(   4) = (   0.7379800   0.8273330   0.4886400  )
         5           W   tau(   5) = (   0.7620200   0.2982530   0.4886400  )
         6           W   tau(   6) = (   0.2379800   0.7599071   0.5113600  )
         7           W   tau(   7) = (   0.7379800   0.2308271   0.9886400  )
         8           W   tau(   8) = (   0.2620200   0.8273330   0.0113600  )
         9           O   tau(   9) = (   0.2278200   0.0088039   0.0035300  )
        10           O   tau(  10) = (   0.7721800   1.0493562   0.9964700  )
        11           O   tau(  11) = (   0.2721800   0.5202761   0.5035300  )
        12           O   tau(  12) = (   0.7278200   0.5378839   0.4964700  )
        13           O   tau(  13) = (   0.7721800   0.0088039   0.4964700  )
        14           O   tau(  14) = (   0.2278200   1.0493562   0.5035300  )
        15           O   tau(  15) = (   0.7278200   0.5202761   0.9964700  )
        16           O   tau(  16) = (   0.2721800   0.5378839   0.0035300  )
        17           O   tau(  17) = (   0.5032900   0.2404563   0.4495400  )
        18           O   tau(  18) = (   0.4967100   0.8177038   0.5504600  )
        19           O   tau(  19) = (   0.9967100   0.2886238   0.9495400  )
        20           O   tau(  20) = (   0.0032899   0.7695363   0.0504600  )
        21           O   tau(  21) = (   0.4967100   0.2404563   0.0504600  )
        22           O   tau(  22) = (   0.5032900   0.8177038   0.9495400  )
        23           O   tau(  23) = (   0.0032899   0.2886238   0.5504600  )
        24           O   tau(  24) = (   0.9967100   0.7695363   0.4495400  )
        25           O   tau(  25) = (   0.6995400   0.2592810   0.7450100  )
        26           O   tau(  26) = (   0.3004600   0.7988791   0.2549900  )
        27           O   tau(  27) = (   0.8004600   0.2697991   0.2450100  )
        28           O   tau(  28) = (   0.1995400   0.7883610   0.7549900  )
        29           O   tau(  29) = (   0.3004600   0.2592810   0.7549900  )
        30           O   tau(  30) = (   0.6995400   0.7988791   0.2450100  )
        31           O   tau(  31) = (   0.1995400   0.2697991   0.2549900  )
        32           O   tau(  32) = (   0.8004600   0.7883610   0.7450100  )

     number of k points=    64  gaussian smearing, width (Ry)=  0.0007
                       cart. coord. in units 2pi/alat
        k(    1) = (   0.0000000   0.0000000   0.0000000), wk =   0.0092593
        k(    2) = (   0.0000000   0.0000000   0.1666667), wk =   0.0185185
        k(    3) = (   0.0000000   0.0000000   0.3333333), wk =   0.0185185
        k(    4) = (   0.0000000   0.0000000  -0.5000000), wk =   0.0092593
        k(    5) = (   0.0000000   0.1575061   0.0000000), wk =   0.0185185
        k(    6) = (   0.0000000   0.1575061   0.1666667), wk =   0.0370370
        k(    7) = (   0.0000000   0.1575061   0.3333333), wk =   0.0370370
        k(    8) = (   0.0000000   0.1575061  -0.5000000), wk =   0.0185185
        k(    9) = (   0.0000000   0.3150122   0.0000000), wk =   0.0185185
        k(   10) = (   0.0000000   0.3150122   0.1666667), wk =   0.0370370
        k(   11) = (   0.0000000   0.3150122   0.3333333), wk =   0.0370370
        k(   12) = (   0.0000000   0.3150122  -0.5000000), wk =   0.0185185
        k(   13) = (   0.0000000  -0.4725183   0.0000000), wk =   0.0092593
        k(   14) = (   0.0000000  -0.4725183   0.1666667), wk =   0.0185185
        k(   15) = (   0.0000000  -0.4725183   0.3333333), wk =   0.0185185
        k(   16) = (   0.0000000  -0.4725183  -0.5000000), wk =   0.0092593
        k(   17) = (   0.1666667   0.0000000   0.1666667), wk =   0.0370370
        k(   18) = (   0.1666667   0.0000000   0.3333333), wk =   0.0370370
        k(   19) = (   0.1666667   0.0000000  -0.5000000), wk =   0.0185185
        k(   20) = (   0.1666667   0.1575061   0.1666667), wk =   0.0740741
        k(   21) = (   0.1666667   0.1575061   0.3333333), wk =   0.0740741
        k(   22) = (   0.1666667   0.1575061  -0.5000000), wk =   0.0370370
        k(   23) = (   0.1666667   0.3150122   0.1666667), wk =   0.0740741
        k(   24) = (   0.1666667   0.3150122   0.3333333), wk =   0.0740741
        k(   25) = (   0.1666667   0.3150122  -0.5000000), wk =   0.0370370
        k(   26) = (   0.1666667  -0.4725183   0.1666667), wk =   0.0370370
        k(   27) = (   0.1666667  -0.4725183   0.3333333), wk =   0.0370370
        k(   28) = (   0.1666667  -0.4725183  -0.5000000), wk =   0.0185185
        k(   29) = (   0.3333333   0.0000000   0.3333333), wk =   0.0370370
        k(   30) = (   0.3333333   0.0000000  -0.5000000), wk =   0.0185185
        k(   31) = (   0.3333333   0.1575061   0.3333333), wk =   0.0740741
        k(   32) = (   0.3333333   0.1575061  -0.5000000), wk =   0.0370370
        k(   33) = (   0.3333333   0.3150122   0.3333333), wk =   0.0740741
        k(   34) = (   0.3333333   0.3150122  -0.5000000), wk =   0.0370370
        k(   35) = (   0.3333333  -0.4725183   0.3333333), wk =   0.0370370
        k(   36) = (   0.3333333  -0.4725183  -0.5000000), wk =   0.0185185
        k(   37) = (  -0.5000000   0.0000000  -0.5000000), wk =   0.0092593
        k(   38) = (  -0.5000000   0.1575061  -0.5000000), wk =   0.0185185
        k(   39) = (  -0.5000000   0.3150122  -0.5000000), wk =   0.0185185
        k(   40) = (  -0.5000000  -0.4725183  -0.5000000), wk =   0.0092593
        k(   41) = (   0.1666667   0.0000000   0.0000000), wk =   0.0185185
        k(   42) = (   0.3333333   0.0000000   0.0000000), wk =   0.0185185
        k(   43) = (  -0.5000000   0.0000000   0.0000000), wk =   0.0092593
        k(   44) = (   0.1666667  -0.1575061   0.0000000), wk =   0.0370370
        k(   45) = (   0.3333333  -0.1575061   0.0000000), wk =   0.0370370
        k(   46) = (  -0.5000000  -0.1575061   0.0000000), wk =   0.0185185
        k(   47) = (   0.1666667  -0.3150122   0.0000000), wk =   0.0370370
        k(   48) = (   0.3333333  -0.3150122   0.0000000), wk =   0.0370370
        k(   49) = (  -0.5000000  -0.3150122   0.0000000), wk =   0.0185185
        k(   50) = (   0.1666667   0.4725183   0.0000000), wk =   0.0185185
        k(   51) = (   0.3333333   0.4725183   0.0000000), wk =   0.0185185
        k(   52) = (  -0.5000000   0.4725183   0.0000000), wk =   0.0092593
        k(   53) = (   0.3333333   0.0000000   0.1666667), wk =   0.0370370
        k(   54) = (  -0.5000000   0.0000000   0.1666667), wk =   0.0185185
        k(   55) = (   0.3333333  -0.1575061   0.1666667), wk =   0.0740741
        k(   56) = (  -0.5000000  -0.1575061   0.1666667), wk =   0.0370370
        k(   57) = (   0.3333333  -0.3150122   0.1666667), wk =   0.0740741
        k(   58) = (  -0.5000000  -0.3150122   0.1666667), wk =   0.0370370
        k(   59) = (   0.3333333   0.4725183   0.1666667), wk =   0.0370370
        k(   60) = (  -0.5000000   0.4725183   0.1666667), wk =   0.0185185
        k(   61) = (  -0.5000000   0.0000000   0.3333333), wk =   0.0185185
        k(   62) = (  -0.5000000  -0.1575061   0.3333333), wk =   0.0370370
        k(   63) = (  -0.5000000  -0.3150122   0.3333333), wk =   0.0370370
        k(   64) = (  -0.5000000   0.4725183   0.3333333), wk =   0.0185185

     Initial potential from superposition of free atoms

     starting charge  367.99656, renormalised to  368.00000
     Starting wfcs are  232 randomized atomic wfcs

     Self-consistent Calculation

     iteration #  1     ecut=   120.00 Ry     beta= 0.70
     Davidson diagonalization with overlap
     ethr =  1.00E-02,  avg # of iterations =  5.0

     total energy              =   -6253.94881181 Ry
     Harris-Foulkes estimate   =   -6264.56674433 Ry
     estimated scf accuracy    <      13.43736735 Ry

[...]

     total energy              =   -6261.10765891 Ry
     Harris-Foulkes estimate   =   -6261.10765891 Ry
     estimated scf accuracy    <       0.00000001 Ry

     iteration # 13     ecut=   120.00 Ry     beta= 0.70
     Davidson diagonalization with overlap
     ethr =  2.86E-12,  avg # of iterations =  2.8

     End of self-consistent calculation

          k = 0.0000 0.0000 0.0000 ( 62239 PWs)   bands (ev):

   -66.1701 -66.1697 -66.1691 -66.1691 -66.1687 -66.1687 -66.1681 -66.1677
   -30.5476 -30.5448 -30.5418 -30.5397 -30.5308 -30.5308 -30.5224 -30.5173
   -30.5157 -30.5091 -30.5026 -30.4988 -30.4665 -30.4644 -30.4614 -30.4527
   -30.4366 -30.4352 -30.4349 -30.4312 -30.4204 -30.4155 -30.4143 -30.4091
   -20.3358 -20.3357 -20.3356 -20.3355 -20.3353 -20.3352 -20.3351 -20.3350
   -20.3158 -20.3154 -20.3153 -20.3151 -20.3150 -20.3148 -20.3146 -20.3143
   -20.3118 -20.3116 -20.3114 -20.3111 -20.3110 -20.3108 -20.3107 -20.3104
   -20.3089 -20.3087 -20.3087 -20.3085 -20.3043 -20.3040 -20.3039 -20.3036
   -20.3020 -20.3017 -20.3015 -20.3010 -20.3010 -20.3008 -20.3006 -20.3003
   -20.2949 -20.2948 -20.2945 -20.2943 -20.2943 -20.2943 -20.2934 -20.2932
   -20.2882 -20.2880 -20.2872 -20.2870 -20.2867 -20.2863 -20.2857 -20.2854
    -9.9413  -9.6917  -9.4976  -9.4448  -9.2926  -9.2018  -9.0481  -9.0305
    -8.9288  -8.7733  -8.7671  -8.7483  -7.8849  -7.8586  -7.8071  -7.7872
    -7.7536  -7.7516  -7.7333  -7.7030  -7.6647  -7.6646  -7.6460  -7.6405
     1.2084   1.2146   1.2649   1.2723   1.3732   1.3803   1.4922   1.6571
     1.7643   1.7837   1.7953   1.9262   2.3497   2.4292   2.6393   2.6522
     2.7969   2.7989   4.0973   4.1996   4.2893   4.4496   4.7571   4.7752
     4.7826   4.8017   4.8058   4.9618   5.1496   5.1790   5.1864   5.4559
     5.5054   5.5615   5.5628   5.5700   5.6107   5.6159   5.7295   5.8095
     5.8456   5.8744   5.8913   5.9063   5.9313   5.9649   6.0000   6.0639
     6.1120   6.2237   6.2720   6.4969   6.5707   6.7863   6.8275   6.8781
     6.8885   6.9433   6.9509   6.9661   6.9720   7.0523   7.2157   7.2602
     7.3191   7.3638   7.7061   7.7242   7.9945   8.0581   8.0855   8.1496
     9.4748   9.4884  10.0569  10.0787  10.1006  10.1240  12.1355  12.2022
    12.3297  12.3488  12.3891  12.4063  12.4720  12.5324  12.5480  12.7550
    13.2326  13.2454  13.2711  13.3634  13.5615  13.7253  14.0403  14.0465
    14.2809  14.3429  14.5461  14.8973  15.3320  15.3960  15.4256  15.9714
    15.9834  16.6893  16.8819  16.9407  17.5395

[...]

          k =-0.5000 0.0000-0.5000 ( 62308 PWs)   bands (ev):

[...]

          k = 0.3333 0.4725 0.1667 ( 62252 PWs)   bands (ev):

[...]

          k =-0.5000 0.4725 0.3333 ( 62200 PWs)   bands (ev):

   -66.1691 -66.1691 -66.1691 -66.1691 -66.1686 -66.1686 -66.1686 -66.1686
   -30.5215 -30.5215 -30.5214 -30.5214 -30.5003 -30.5003 -30.4991 -30.4991
   -30.4931 -30.4931 -30.4917 -30.4917 -30.4707 -30.4707 -30.4706 -30.4706
   -30.4569 -30.4569 -30.4552 -30.4551 -30.4475 -30.4475 -30.4465 -30.4465
   -20.3355 -20.3355 -20.3355 -20.3355 -20.3353 -20.3353 -20.3353 -20.3352
   -20.3153 -20.3153 -20.3153 -20.3153 -20.3149 -20.3149 -20.3149 -20.3149
   -20.3112 -20.3112 -20.3112 -20.3112 -20.3110 -20.3110 -20.3110 -20.3110
   -20.3067 -20.3067 -20.3066 -20.3066 -20.3066 -20.3066 -20.3065 -20.3065
   -20.2991 -20.2991 -20.2991 -20.2991 -20.2980 -20.2979 -20.2979 -20.2979
   -20.2978 -20.2978 -20.2978 -20.2977 -20.2955 -20.2955 -20.2955 -20.2955
   -20.2873 -20.2873 -20.2873 -20.2873 -20.2865 -20.2865 -20.2865 -20.2865
    -9.2174  -9.2174  -9.2071  -9.2071  -8.7690  -8.7689  -8.7387  -8.7387
    -8.5475  -8.5474  -8.5199  -8.5199  -8.3255  -8.3255  -8.3055  -8.3055
    -8.2590  -8.2590  -8.2475  -8.2475  -8.1515  -8.1515  -8.1478  -8.1478
     2.2214   2.2214   2.2351   2.2351   2.9551   2.9551   3.0063   3.0063
     3.1193   3.1193   3.1496   3.1496   3.2327   3.2327   3.2934   3.2934
     3.4672   3.4672   3.5305   3.5305   3.6119   3.6119   3.6733   3.6733
     3.8182   3.8182   3.9868   3.9868   4.2730   4.2730   4.3041   4.3041
     4.3910   4.3910   4.4602   4.4602   4.5496   4.5496   4.6441   4.6441
     4.7381   4.7381   4.8873   4.8873   5.0200   5.0201   5.0682   5.0682
     6.9670   6.9670   7.0654   7.0654   7.1425   7.1425   7.1753   7.1753
     7.2394   7.2394   7.3136   7.3136   7.3717   7.3717   7.4214   7.4215
     7.4947   7.4947   7.5334   7.5334   7.6012   7.6012   7.6286   7.6286
    11.4866  11.4866  11.5239  11.5239  11.6873  11.6873  11.7898  11.7898
    12.1729  12.1729  12.2192  12.2192  12.2698  12.2698  12.3971  12.3971
    12.5082  12.5082  12.6328  12.6328  12.9365  12.9365  13.0129  13.0130
    16.3927  16.3927  16.4359  16.4359  16.9546  16.9547  17.0615  17.0615
    17.1002  17.1002  17.1714  17.1715  17.2629

     the Fermi energy is     8.9742 ev

!    total energy              =   -6261.10765891 Ry
     Harris-Foulkes estimate   =   -6261.10765891 Ry
     estimated scf accuracy    <          7.2E-10 Ry

     The total energy is the sum of the following terms:

     one-electron contribution =   -4702.18548834 Ry
     hartree contribution      =    2587.81636190 Ry
     xc contribution           =    -965.48020797 Ry
     ewald contribution        =   -3181.25832449 Ry
     smearing contrib. (-TS)   =      -0.00000000 Ry

     convergence has been achieved in  13 iterations

     Writing output data file chempot_0.save/

     General routines

     Parallel routines

   This run was terminated on:  17: 5:50   3Dec2019

   JOB DONE.