     Program PWSCF v.6.2 (svn rev. 14038) starts on 28Feb2020 at 18:42:22

     K-points division:     npool     =      40
     Reading input from rscf.in

     Current dimensions of program PWSCF are:
     Max number of different atomic species (ntypx) = 10
     Max number of k-points (npk) =  40000
     Max angular momentum in pseudopotentials (lmaxx) =  3

     Subspace diagonalization in iterative solution of the eigenvalue problem:
     a serial algorithm will be used

     bravais-lattice index     =            0
     lattice parameter (alat)  =      13.8397  a.u.
     unit-cell volume          =    2804.9816 (a.u.)^3
     number of atoms/cell      =           32
     number of atomic types    =            2
     number of electrons       =       368.00
     number of Kohn-Sham states=          221
     kinetic-energy cutoff     =     120.0000  Ry
     charge density cutoff     =     480.0000  Ry
     convergence threshold     =      1.0E-08
     mixing beta               =       0.7000
     number of iterations used =            8  plain     mixing
     Exchange-correlation      = SLA PW NOGX NOGC ( 1  4  0  0 0 0)
     nstep                     =           50

     celldm(1)=  13.839685  celldm(2)=   0.000000  celldm(3)=   0.000000
     celldm(4)=   0.000000  celldm(5)=   0.000000  celldm(6)=   0.000000

     crystal axes: (cart. coord. in units of alat)
               a(1) = (   1.000000   0.000000   0.000000 )
               a(2) = (   0.000000   1.058160   0.000000 )
               a(3) = (   0.000000   0.000000   1.000000 )

     reciprocal axes: (cart. coord. in units 2 pi/alat)
               b(1) = (  1.000000  0.000000  0.000000 )
               b(2) = (  0.000000  0.945037  0.000000 )
               b(3) = (  0.000000  0.000000  1.000000 )

     PseudoPot. # 1 for W  read from file:
     /cluster/scratch/mnoe/QE/pps/W_ONCV_LDA-4.0.upf
     MD5 check sum: ba0307d5d4cd419d6f1d13dc49d7c13a
     Pseudo is Norm-conserving + core correction, Zval = 28.0
     Generated using ONCVPSP code by D. R. Hamann
     Using radial grid of 1380 points,  8 beta functions with:
                l(1) =   0
                l(2) =   0
                l(3) =   1
                l(4) =   1
                l(5) =   2
                l(6) =   2
                l(7) =   3
                l(8) =   3

     PseudoPot. # 2 for O  read from file:
     /cluster/scratch/mnoe/QE/pps/O_ONCV_LDA-3.0.upf
     MD5 check sum: a1bd6164e7280c17a38c229939bfbd54
     Pseudo is Norm-conserving + core correction, Zval =  6.0
     Generated using ONCVPSP code by D. R. Hamann
     Using radial grid of  926 points,  5 beta functions with:
                l(1) =   0
                l(2) =   0
                l(3) =   1
                l(4) =   1
                l(5) =   2

     atomic species   valence    mass     pseudopotential
        W             28.00   183.84000     W ( 1.00)
        O              6.00    15.99940     O ( 1.00)

      8 Sym. Ops. (no inversion) found ( 4 have fractional translation)

   Cartesian axes

     site n.     atom                  positions (alat units)
         1           W   tau(   1) = (   0.2850800   0.3122677   0.2510000  )
         2           W   tau(   2) = (  -0.2510000   0.7458924  -0.7149199  )
         3           W   tau(   3) = (   0.2149200   0.2168124   0.7510000  )
         4           W   tau(   4) = (   0.7510000   0.8413477   0.7850800  )
         5           W   tau(   5) = (   0.7149200   0.3122677   0.7490000  )
         6           W   tau(   6) = (   0.2510000   0.7458924   0.7149200  )
         7           W   tau(   7) = (  -0.2149199   0.2168124  -0.7510000  )
         8           W   tau(   8) = (   0.2490000   0.8413477   0.2149200  )
         9           O   tau(   9) = (   0.2885700   0.0353229   0.2779700  )
        10           O   tau(  10) = (  -0.2779701   1.0228373  -0.7114300  )
        11           O   tau(  11) = (   0.2114300   0.4937572   0.7779700  )
        12           O   tau(  12) = (   0.7779700   0.5644029   0.7885700  )
        13           O   tau(  13) = (   0.7114300   0.0353229   0.7220300  )
        14           O   tau(  14) = (   0.2779700   1.0228373   0.7114300  )
        15           O   tau(  15) = (  -0.2114300   0.4937572  -0.7779701  )
        16           O   tau(  16) = (   0.2220300   0.5644029   0.2114300  )
        17           O   tau(  17) = (   0.4875899   0.3085383   0.7679968  )
        18           O   tau(  18) = (   0.4974500   0.7653883   0.7320033  )
        19           O   tau(  19) = (  -0.9875900   0.2205417   1.2679967  )
        20           O   tau(  20) = (   0.0025500   0.8218518   0.2320033  )
        21           O   tau(  21) = (   0.5124101   0.3085383   0.2320033  )
        22           O   tau(  22) = (   0.5025500   0.7653883   1.2679967  )
        23           O   tau(  23) = (  -0.0124100   0.2205417   0.7320033  )
        24           O   tau(  24) = (  -1.0025500   0.8218518   0.7679968  )
        25           O   tau(  25) = (   0.7679968   0.2363083   2.0025500  )
        26           O   tau(  26) = (   0.2320033   0.7496218   0.4875900  )
        27           O   tau(  27) = (   0.7320033   0.2927718   0.5025500  )
        28           O   tau(  28) = (   0.2679968   0.8376183   1.9875899  )
        29           O   tau(  29) = (   0.2320033   0.2363083   0.9974500  )
        30           O   tau(  30) = (   0.7679968   0.7496218   0.5124100  )
        31           O   tau(  31) = (   0.2679968   0.2927718   0.4974500  )
        32           O   tau(  32) = (   0.7320033   0.8376183   1.0124101  )

     number of k points=    40  gaussian smearing, width (Ry)=  0.0007
                       cart. coord. in units 2pi/alat
        k(    1) = (   0.0000000   0.0000000   0.0000000), wk =   0.0092593
        k(    2) = (   0.0000000   0.0000000   0.1666667), wk =   0.0370370
        k(    3) = (   0.0000000   0.0000000   0.3333333), wk =   0.0370370
        k(    4) = (   0.0000000   0.0000000  -0.5000000), wk =   0.0185185
        k(    5) = (   0.0000000   0.1575061   0.0000000), wk =   0.0185185
        k(    6) = (   0.0000000   0.1575061   0.1666667), wk =   0.0740741
        k(    7) = (   0.0000000   0.1575061   0.3333333), wk =   0.0740741
        k(    8) = (   0.0000000   0.1575061  -0.5000000), wk =   0.0370370
        k(    9) = (   0.0000000   0.3150122   0.0000000), wk =   0.0185185
        k(   10) = (   0.0000000   0.3150122   0.1666667), wk =   0.0740741
        k(   11) = (   0.0000000   0.3150122   0.3333333), wk =   0.0740741
        k(   12) = (   0.0000000   0.3150122  -0.5000000), wk =   0.0370370
        k(   13) = (   0.0000000  -0.4725183   0.0000000), wk =   0.0092593
        k(   14) = (   0.0000000  -0.4725183   0.1666667), wk =   0.0370370
        k(   15) = (   0.0000000  -0.4725183   0.3333333), wk =   0.0370370
        k(   16) = (   0.0000000  -0.4725183  -0.5000000), wk =   0.0185185
        k(   17) = (   0.1666667   0.0000000   0.1666667), wk =   0.0370370
        k(   18) = (   0.1666667   0.0000000   0.3333333), wk =   0.0740741
        k(   19) = (   0.1666667   0.0000000  -0.5000000), wk =   0.0370370
        k(   20) = (   0.1666667   0.1575061   0.1666667), wk =   0.0740741
        k(   21) = (   0.1666667   0.1575061   0.3333333), wk =   0.1481481
        k(   22) = (   0.1666667   0.1575061  -0.5000000), wk =   0.0740741
        k(   23) = (   0.1666667   0.3150122   0.1666667), wk =   0.0740741
        k(   24) = (   0.1666667   0.3150122   0.3333333), wk =   0.1481481
        k(   25) = (   0.1666667   0.3150122  -0.5000000), wk =   0.0740741
        k(   26) = (   0.1666667  -0.4725183   0.1666667), wk =   0.0370370
        k(   27) = (   0.1666667  -0.4725183   0.3333333), wk =   0.0740741
        k(   28) = (   0.1666667  -0.4725183  -0.5000000), wk =   0.0370370
        k(   29) = (   0.3333333   0.0000000   0.3333333), wk =   0.0370370
        k(   30) = (   0.3333333   0.0000000  -0.5000000), wk =   0.0370370
        k(   31) = (   0.3333333   0.1575061   0.3333333), wk =   0.0740741
        k(   32) = (   0.3333333   0.1575061  -0.5000000), wk =   0.0740741
        k(   33) = (   0.3333333   0.3150122   0.3333333), wk =   0.0740741
        k(   34) = (   0.3333333   0.3150122  -0.5000000), wk =   0.0740741
        k(   35) = (   0.3333333  -0.4725183   0.3333333), wk =   0.0370370
        k(   36) = (   0.3333333  -0.4725183  -0.5000000), wk =   0.0370370
        k(   37) = (  -0.5000000   0.0000000  -0.5000000), wk =   0.0092593
        k(   38) = (  -0.5000000   0.1575061  -0.5000000), wk =   0.0185185
        k(   39) = (  -0.5000000   0.3150122  -0.5000000), wk =   0.0185185
        k(   40) = (  -0.5000000  -0.4725183  -0.5000000), wk =   0.0092593

     Initial potential from superposition of free atoms

     starting charge  367.99656, renormalised to  368.00000
     Starting wfc are  232 randomized atomic wfcs

     Self-consistent Calculation

     iteration #  1     ecut=   120.00 Ry     beta= 0.70
     Davidson diagonalization with overlap
     ethr =  1.00E-02,  avg # of iterations =  4.5

     total energy              =   -6253.32057244 Ry
     Harris-Foulkes estimate   =   -6264.23236920 Ry
     estimated scf accuracy    <      13.80266762 Ry

[...]

     End of self-consistent calculation

          k = 0.0000 0.0000 0.0000 ( 62239 PWs)   bands (ev):

   -66.1373 -66.1369 -66.1366 -66.1365 -66.1361 -66.1361 -66.1358 -66.1354
   -30.8130 -30.8118 -30.8093 -30.8093 -30.7245 -30.7245 -30.7222 -30.7215
   -30.4785 -30.4780 -30.4716 -30.4716 -30.3982 -30.3982 -30.3933 -30.3932
   -30.2681 -30.2665 -30.2665 -30.2650 -30.2169 -30.2161 -30.2161 -30.2154
   -20.3068 -20.3067 -20.3066 -20.3066 -20.3033 -20.3033 -20.3031 -20.3031
   -20.2867 -20.2866 -20.2863 -20.2863 -20.2849 -20.2849 -20.2848 -20.2848
   -20.2698 -20.2697 -20.2697 -20.2696 -20.2685 -20.2685 -20.2684 -20.2682
   -20.2644 -20.2642 -20.2637 -20.2637 -20.2633 -20.2633 -20.2627 -20.2625
   -20.2463 -20.2461 -20.2460 -20.2458 -20.2441 -20.2437 -20.2436 -20.2432
   -20.2311 -20.2310 -20.2309 -20.2306 -20.2279 -20.2276 -20.2275 -20.2274
   -20.2233 -20.2230 -20.2230 -20.2229 -20.2223 -20.2223 -20.2223 -20.2222
   -10.0765  -9.8888  -9.7216  -9.7216  -9.2288  -9.2288  -8.9919  -8.9848
    -8.3477  -8.3241  -8.2183  -8.2183  -8.1207  -8.0963  -8.0963  -8.0880
    -7.8512  -7.8511  -7.8014  -7.8014  -7.2039  -7.1186  -7.1186  -7.0379
     1.0044   1.0214   1.1581   1.1581   1.4846   1.4846   1.5748   1.5953
     2.0644   2.1571   2.3463   2.3617   2.3617   2.4007   2.6959   2.6988
     2.7593   2.7593   3.9407   3.9407   4.0539   4.1338   4.1338   4.2626
     4.4554   4.4554   4.7770   4.7902   5.0088   5.0436   5.1515   5.1515
     5.2346   5.3964   5.3964   5.4970   5.6811   5.6811   5.7699   5.7962
     5.8168   5.8168   5.9640   6.0419   6.0691   6.0691   6.1421   6.3399
     6.3960   6.5053   6.5053   6.5491   6.9191   6.9482   6.9482   7.0533
     7.0533   7.0948   7.2131   7.2911   7.2911   7.3885   7.5270   7.6251
     7.6251   7.6661   7.9468   7.9916   8.2743   8.4313   8.4313   8.4413
     9.8435  10.0912  10.0912  10.2331  10.3712  10.5142  12.2712  12.5274
[...]
W        0.214919988   0.204895608   0.750999988    0   0   0
W        0.751000033   0.795104358   0.785080012    0   0   0
W        0.714919967   0.295104389   0.749000012    0   0   0
W        0.250999988   0.704895611   0.714919988    0   0   0
W       -0.214919923   0.204895608  -0.750999989    0   0   0
W        0.249000012   0.795104358   0.214919967    0   0   0
O        0.288569977   0.033381401   0.277970032    0   0   0
O       -0.277970054   0.966618653  -0.711429990    0   0   0
O        0.211430023   0.466618586   0.777970021    0   0   0
O        0.777970032   0.533381419   0.788569977    0   0   0
O        0.711429968   0.033381401   0.722029979    0   0   0
O        0.277970021   0.966618653   0.711430023    0   0   0
O       -0.211429990   0.466618586  -0.777970054    0   0   0
O        0.222029979   0.533381419   0.211429968    0   0   0
O        0.487589932   0.291580011   0.767996751    0   0   0
O        0.497449958   0.723319978   0.732003292    0   0   0
O       -0.987589965   0.208420020   1.267996728    0   0   0
O        0.002550003   0.776679993   0.232003317    0   0   0
O        0.512410068   0.291580011   0.232003317    0   0   0
O        0.502550042   0.723319978   1.267996728    0   0   0
O       -0.012410041   0.208420020   0.732003292    0   0   0
O       -1.002550009   0.776679993   0.767996751    0   0   0
O        0.767996822   0.223320008   2.002550042    0   0   0
O        0.232003305   0.708420036   0.487589965    0   0   0
O        0.732003254   0.276680023   0.502550009    0   0   0
O        0.267996768   0.791579935   1.987589932    0   0   0
O        0.232003305   0.223320008   0.997449964    0   0   0
O        0.767996822   0.708420036   0.512410035    0   0   0
O        0.267996768   0.276680023   0.497449991    0   0   0
O        0.732003254   0.791579935   1.012410074    0   0   0
End final coordinates

     A final scf calculation at the relaxed structure.
     The G-vectors are recalculated for the final unit cell
     Results may differ from those at the preceding step.

     bravais-lattice index     =            0
     lattice parameter (alat)  =      13.8397  a.u.
     unit-cell volume          =    2787.4595 (a.u.)^3
     number of atoms/cell      =           32
     number of atomic types    =            2
     number of electrons       =       368.00
     number of Kohn-Sham states=          221
     kinetic-energy cutoff     =     120.0000  Ry
     charge density cutoff     =     480.0000  Ry
     convergence threshold     =      1.0E-10
     mixing beta               =       0.7000
     number of iterations used =            8  plain     mixing
     Exchange-correlation      = SLA PW NOGX NOGC ( 1  4  0  0 0 0)

     celldm(1)=  13.839685  celldm(2)=   0.000000  celldm(3)=   0.000000
     celldm(4)=   0.000000  celldm(5)=   0.000000  celldm(6)=   0.000000

     crystal axes: (cart. coord. in units of alat)
               a(1) = (   1.020870   0.000000   0.000000 )
               a(2) = (   0.000000   1.008995   0.000000 )
               a(3) = (   0.000000   0.000000   1.020870 )

     reciprocal axes: (cart. coord. in units 2 pi/alat)
               b(1) = (  0.979557  0.000000  0.000000 )
               b(2) = (  0.000000  0.991085  0.000000 )
               b(3) = (  0.000000  0.000000  0.979557 )

     PseudoPot. # 1 for W  read from file:
     /cluster/scratch/mnoe/QE/pps/W_ONCV_LDA-4.0.upf
     MD5 check sum: ba0307d5d4cd419d6f1d13dc49d7c13a
     Pseudo is Norm-conserving + core correction, Zval = 28.0
     Generated using ONCVPSP code by D. R. Hamann
     Using radial grid of 1380 points,  8 beta functions with:
                l(1) =   0
                l(2) =   0
                l(3) =   1
                l(4) =   1
                l(5) =   2
                l(6) =   2
                l(7) =   3
                l(8) =   3

     PseudoPot. # 2 for O  read from file:
     /cluster/scratch/mnoe/QE/pps/O_ONCV_LDA-3.0.upf
     MD5 check sum: a1bd6164e7280c17a38c229939bfbd54
     Pseudo is Norm-conserving + core correction, Zval =  6.0
     Generated using ONCVPSP code by D. R. Hamann
     Using radial grid of  926 points,  5 beta functions with:
                l(1) =   0
                l(2) =   0
                l(3) =   1
                l(4) =   1
                l(5) =   2

     atomic species   valence    mass     pseudopotential
        W             28.00   183.84000     W ( 1.00)
        O              6.00    15.99940     O ( 1.00)

      8 Sym. Ops. (no inversion) found ( 4 have fractional translation)

   Cartesian axes

     site n.     atom                  positions (alat units)
         1           W   tau(   1) = (   0.2910296   0.2977589   0.2562384  )
         2           W   tau(   2) = (  -0.2562384   0.7112362  -0.7298403  )
         3           W   tau(   3) = (   0.2194054   0.2067387   0.7666734  )
         4           W   tau(   4) = (   0.7666734   0.8022564   0.8014646  )
         5           W   tau(   5) = (   0.7298403   0.2977589   0.7646316  )
         6           W   tau(   6) = (   0.2562384   0.7112362   0.7298404  )
         7           W   tau(   7) = (  -0.2194053   0.2067387  -0.7666734  )
         8           W   tau(   8) = (   0.2541966   0.8022564   0.2194053  )
         9           O   tau(   9) = (   0.2945924   0.0336817   0.2837713  )
        10           O   tau(  10) = (  -0.2837713   0.9753135  -0.7262775  )
        11           O   tau(  11) = (   0.2158426   0.4708159   0.7942062  )
        12           O   tau(  12) = (   0.7942063   0.5381792   0.8050274  )
        13           O   tau(  13) = (   0.7262775   0.0336817   0.7370987  )
        14           O   tau(  14) = (   0.2837713   0.9753135   0.7262776  )
        15           O   tau(  15) = (  -0.2158425   0.4708159  -0.7942063  )
        16           O   tau(  16) = (   0.2266637   0.5381792   0.2158425  )
        17           O   tau(  17) = (   0.4977659   0.2942028   0.7840248  )
        18           O   tau(  18) = (   0.5078317   0.7298263   0.7472802  )
        19           O   tau(  19) = (  -1.0082010   0.2102948   1.2944598  )
        20           O   tau(  20) = (   0.0026032   0.7836663   0.2368452  )
        21           O   tau(  21) = (   0.5231041   0.2942028   0.2368452  )
        22           O   tau(  22) = (   0.5130383   0.7298263   1.2944598  )
        23           O   tau(  23) = (  -0.0126690   0.2102948   0.7472802  )
        24           O   tau(  24) = (  -1.0234732   0.7836663   0.7840248  )
        25           O   tau(  25) = (   0.7840249   0.2253288   2.0443432  )
        26           O   tau(  26) = (   0.2368452   0.7147923   0.4977660  )
        27           O   tau(  27) = (   0.7472802   0.2791688   0.5130382  )
        28           O   tau(  28) = (   0.2735899   0.7987003   2.0290709  )
        29           O   tau(  29) = (   0.2368452   0.2253288   1.0182667  )
        30           O   tau(  30) = (   0.7840249   0.7147923   0.5231040  )
        31           O   tau(  31) = (   0.2735899   0.2791688   0.5078318  )
        32           O   tau(  32) = (   0.7472802   0.7987003   1.0335391  )

     number of k points=    40  gaussian smearing, width (Ry)=  0.0007
                       cart. coord. in units 2pi/alat
        k(    1) = (   0.0000000   0.0000000   0.0000000), wk =   0.0092593
        k(    2) = (   0.0000000   0.0000000   0.1632594), wk =   0.0370370
        k(    3) = (   0.0000000   0.0000000   0.3265189), wk =   0.0370370
        k(    4) = (   0.0000000   0.0000000  -0.4897783), wk =   0.0185185
        k(    5) = (   0.0000000   0.1651809   0.0000000), wk =   0.0185185
        k(    6) = (   0.0000000   0.1651809   0.1632594), wk =   0.0740741
        k(    7) = (   0.0000000   0.1651809   0.3265189), wk =   0.0740741
        k(    8) = (   0.0000000   0.1651809  -0.4897783), wk =   0.0370370
        k(    9) = (   0.0000000   0.3303617   0.0000000), wk =   0.0185185
        k(   10) = (   0.0000000   0.3303617   0.1632594), wk =   0.0740741
        k(   11) = (   0.0000000   0.3303617   0.3265189), wk =   0.0740741
        k(   12) = (   0.0000000   0.3303617  -0.4897783), wk =   0.0370370
        k(   13) = (   0.0000000  -0.4955426   0.0000000), wk =   0.0092593
        k(   14) = (   0.0000000  -0.4955426   0.1632594), wk =   0.0370370
        k(   15) = (   0.0000000  -0.4955426   0.3265189), wk =   0.0370370
        k(   16) = (   0.0000000  -0.4955426  -0.4897783), wk =   0.0185185
        k(   17) = (   0.1632594   0.0000000   0.1632594), wk =   0.0370370
        k(   18) = (   0.1632594   0.0000000   0.3265189), wk =   0.0740741
        k(   19) = (   0.1632594   0.0000000  -0.4897783), wk =   0.0370370
        k(   20) = (   0.1632594   0.1651809   0.1632594), wk =   0.0740741
        k(   21) = (   0.1632594   0.1651809   0.3265189), wk =   0.1481481
        k(   22) = (   0.1632594   0.1651809  -0.4897783), wk =   0.0740741
        k(   23) = (   0.1632594   0.3303617   0.1632594), wk =   0.0740741
        k(   24) = (   0.1632594   0.3303617   0.3265189), wk =   0.1481481
        k(   25) = (   0.1632594   0.3303617  -0.4897783), wk =   0.0740741
        k(   26) = (   0.1632594  -0.4955426   0.1632594), wk =   0.0370370
        k(   27) = (   0.1632594  -0.4955426   0.3265189), wk =   0.0740741
        k(   28) = (   0.1632594  -0.4955426  -0.4897783), wk =   0.0370370
        k(   29) = (   0.3265189   0.0000000   0.3265189), wk =   0.0370370
        k(   30) = (   0.3265189   0.0000000  -0.4897783), wk =   0.0370370
        k(   31) = (   0.3265189   0.1651809   0.3265189), wk =   0.0740741
        k(   32) = (   0.3265189   0.1651809  -0.4897783), wk =   0.0740741
        k(   33) = (   0.3265189   0.3303617   0.3265189), wk =   0.0740741
        k(   34) = (   0.3265189   0.3303617  -0.4897783), wk =   0.0740741
        k(   35) = (   0.3265189  -0.4955426   0.3265189), wk =   0.0370370
        k(   36) = (   0.3265189  -0.4955426  -0.4897783), wk =   0.0370370
        k(   37) = (  -0.4897783   0.0000000  -0.4897783), wk =   0.0092593
        k(   38) = (  -0.4897783   0.1651809  -0.4897783), wk =   0.0185185
        k(   39) = (  -0.4897783   0.3303617  -0.4897783), wk =   0.0185185
        k(   40) = (  -0.4897783  -0.4955426  -0.4897783), wk =   0.0092593

     Initial potential from superposition of free atoms

     starting charge  367.99656, renormalised to  368.00000
     Starting wfc are  232 randomized atomic wfcs

     Writing output data file Landau_39.save

     Self-consistent Calculation

[...]

     total energy              =   -6260.85613735 Ry
     Harris-Foulkes estimate   =   -6260.85613735 Ry
     estimated scf accuracy    <          9.1E-10 Ry

     iteration # 14     ecut=   120.00 Ry     beta= 0.70
     Davidson diagonalization with overlap
     ethr =  2.48E-13,  avg # of iterations =  2.0

     End of self-consistent calculation

[...]

          k = 0.3265-0.4955-0.4898 ( 61844 PWs)   bands (ev):

[...]

          k =-0.4898-0.4955-0.4898 ( 61808 PWs)   bands (ev):

   -66.0163 -66.0163 -66.0163 -66.0163 -66.0162 -66.0162 -66.0162 -66.0162
   -30.5241 -30.5241 -30.5239 -30.5239 -30.5239 -30.5239 -30.5233 -30.5233
   -30.2746 -30.2746 -30.2726 -30.2726 -30.2726 -30.2726 -30.2709 -30.2709
   -30.2501 -30.2501 -30.2478 -30.2478 -30.2478 -30.2478 -30.2454 -30.2454
   -20.1956 -20.1956 -20.1956 -20.1956 -20.1955 -20.1955 -20.1955 -20.1955
   -20.1800 -20.1800 -20.1800 -20.1800 -20.1799 -20.1799 -20.1799 -20.1798
   -20.1514 -20.1514 -20.1514 -20.1514 -20.1514 -20.1514 -20.1514 -20.1514
   -20.1477 -20.1477 -20.1476 -20.1476 -20.1475 -20.1475 -20.1475 -20.1475
   -20.1272 -20.1272 -20.1270 -20.1270 -20.1269 -20.1269 -20.1269 -20.1269
   -20.1159 -20.1159 -20.1158 -20.1158 -20.1158 -20.1157 -20.1155 -20.1155
   -20.1041 -20.1041 -20.1041 -20.1041 -20.1041 -20.1040 -20.1040 -20.1040
    -8.9558  -8.9558  -8.9098  -8.9098  -8.9098  -8.9097  -8.8514  -8.8514
    -8.3200  -8.3200  -8.2404  -8.2404  -8.2404  -8.2403  -8.1514  -8.1514
    -7.9797  -7.9797  -7.9527  -7.9527  -7.9527  -7.9527  -7.9465  -7.9464
     2.8364   2.8364   2.8364   2.8364   2.8375   2.8375   2.9442   2.9442
     3.1964   3.1964   3.3445   3.3445   3.3445   3.3445   3.3585   3.3585
     3.4323   3.4323   3.6360   3.6361   3.6361   3.6361   3.7138   3.7138
     4.2755   4.2755   4.2755   4.2755   4.2787   4.2787   4.2886   4.2886
     4.5003   4.5003   4.5646   4.5646   4.5679   4.5679   4.5679   4.5679
     4.8250   4.8250   4.8410   4.8410   4.8410   4.8410   4.9660   4.9660
     7.3278   7.3278   7.3278   7.3278   7.3334   7.3334   7.3656   7.3656
     7.4648   7.4648   7.4649   7.4649   7.5437   7.5437   7.6724   7.6724
     7.9628   7.9628   8.0038   8.0038   8.0038   8.0038   8.0226   8.0226
    12.0794  12.0794  12.1017  12.1017  12.1017  12.1017  12.1116  12.1116
    12.2965  12.2965  12.4474  12.4474  12.4981  12.4981  12.4981  12.4981
    12.7029  12.7029  12.7228  12.7228  12.7870  12.7870  12.7870  12.7870
    16.5015  16.5015  16.5818  16.5818  16.5818  16.5818  16.8157  16.8157
    17.2970  17.2970  17.2970  17.2970  17.3830

     the Fermi energy is     9.0848 ev

!    total energy              =   -6260.85613735 Ry
     Harris-Foulkes estimate   =   -6260.85613735 Ry
     estimated scf accuracy    <          7.0E-11 Ry

     The total energy is the sum of the following terms:

     one-electron contribution =   -4667.23701565 Ry
     hartree contribution      =    2572.56699603 Ry
     xc contribution           =    -965.60244074 Ry
     ewald contribution        =   -3200.58367699 Ry
     smearing contrib. (-TS)   =      -0.00000000 Ry

     convergence has been achieved in  14 iterations

     Forces acting on atoms (cartesian axes, Ry/au):

     atom    1 type  1   force =    -0.10223876    0.00001483    0.01054627
     atom    2 type  1   force =    -0.01054627   -0.00001483   -0.10223876
     atom    3 type  1   force =     0.10223876   -0.00001483    0.01054627
     atom    4 type  1   force =     0.01054627    0.00001483   -0.10223876
     atom    5 type  1   force =     0.10223876    0.00001483   -0.01054627
     atom    6 type  1   force =     0.01054627   -0.00001483    0.10223876
     atom    7 type  1   force =    -0.10223876   -0.00001483   -0.01054627
     atom    8 type  1   force =    -0.01054627    0.00001483    0.10223876
     atom    9 type  2   force =    -0.00139253   -0.11142272   -0.02802582
     atom   10 type  2   force =     0.02802582    0.11142272   -0.00139253
     atom   11 type  2   force =     0.00139253    0.11142272   -0.02802582
     atom   12 type  2   force =    -0.02802582   -0.11142272   -0.00139253
     atom   13 type  2   force =     0.00139253   -0.11142272    0.02802582
     atom   14 type  2   force =    -0.02802582    0.11142272    0.00139253
     atom   15 type  2   force =    -0.00139253    0.11142272    0.02802582
     atom   16 type  2   force =     0.02802582   -0.11142272    0.00139253
     atom   17 type  2   force =    -0.06313604    0.00075290    0.01003714
     atom   18 type  2   force =     0.00758236   -0.01876635    0.00865965
     atom   19 type  2   force =     0.06313604   -0.00075290    0.01003714
     atom   20 type  2   force =    -0.00758236    0.01876635    0.00865965
     atom   21 type  2   force =     0.06313604    0.00075290   -0.01003714
     atom   22 type  2   force =    -0.00758236   -0.01876635   -0.00865965
     atom   23 type  2   force =    -0.06313604   -0.00075290   -0.01003714
     atom   24 type  2   force =     0.00758236    0.01876635   -0.00865965
     atom   25 type  2   force =    -0.00865965   -0.01876635   -0.00758236
     atom   26 type  2   force =    -0.01003714   -0.00075290   -0.06313604
     atom   27 type  2   force =     0.00865965    0.01876635   -0.00758236
     atom   28 type  2   force =     0.01003714    0.00075290   -0.06313604
     atom   29 type  2   force =     0.00865965   -0.01876635    0.00758236
     atom   30 type  2   force =     0.01003714   -0.00075290    0.06313604
     atom   31 type  2   force =    -0.00865965    0.01876635    0.00758236
     atom   32 type  2   force =    -0.01003714    0.00075290    0.06313604

     Total force =     0.000000     Total SCF correction =     0.000000

     Computing stress (Cartesian axis) and pressure

          total   stress  (Ry/bohr**3)                   (kbar)     P=    0.93
   0.00001029   0.00000000   0.00000000          1.51      0.00      0.00
   0.00000000  -0.00000152   0.00000000          0.00     -0.22      0.00
   0.00000000   0.00000000   0.00001029          0.00      0.00      1.51

     Writing output data file Landau_39.save

     General routines

     Parallel routines

   This run was terminated on:  21: 6: 4  28Feb2020

   JOB DONE.