     Program PWSCF v.6.2 (svn rev. 14038) starts on  4Mar2020 at 21:58:36

     K-points division:     npool     =      64
     Reading input from rscf.in

     Current dimensions of program PWSCF are:
     Max number of different atomic species (ntypx) = 10
     Max number of k-points (npk) =  40000
     Max angular momentum in pseudopotentials (lmaxx) =  3

     Subspace diagonalization in iterative solution of the eigenvalue problem:
     a serial algorithm will be used

     Found symmetry operation: I + (  0.5000  0.0000 -0.5000)
     This is a supercell, fractional translations are disabled

     bravais-lattice index     =            0
     lattice parameter (alat)  =      13.8397  a.u.
     unit-cell volume          =    2804.9816 (a.u.)^3
     number of atoms/cell      =           32
     number of atomic types    =            2
     number of electrons       =       368.00
     number of Kohn-Sham states=          221
     kinetic-energy cutoff     =     120.0000  Ry
     charge density cutoff     =     480.0000  Ry
     convergence threshold     =      1.0E-08
     mixing beta               =       0.7000
     number of iterations used =            8  plain     mixing
     Exchange-correlation      = SLA PW NOGX NOGC ( 1  4  0  0 0 0)
     nstep                     =           50

     celldm(1)=  13.839685  celldm(2)=   0.000000  celldm(3)=   0.000000
     celldm(4)=   0.000000  celldm(5)=   0.000000  celldm(6)=   0.000000

     crystal axes: (cart. coord. in units of alat)
               a(1) = (   1.000000   0.000000   0.000000 )
               a(2) = (   0.000000   1.058160   0.000000 )
               a(3) = (   0.000000   0.000000   1.000000 )

     reciprocal axes: (cart. coord. in units 2 pi/alat)
               b(1) = (  1.000000  0.000000  0.000000 )
               b(2) = (  0.000000  0.945037  0.000000 )
               b(3) = (  0.000000  0.000000  1.000000 )

     PseudoPot. # 1 for W  read from file:
     /cluster/scratch/mnoe/QE/pps/W_ONCV_LDA-4.0.upf
     MD5 check sum: ba0307d5d4cd419d6f1d13dc49d7c13a
     Pseudo is Norm-conserving + core correction, Zval = 28.0
     Generated using ONCVPSP code by D. R. Hamann
     Using radial grid of 1380 points,  8 beta functions with:
                l(1) =   0
                l(2) =   0
                l(3) =   1
                l(4) =   1
                l(5) =   2
                l(6) =   2
                l(7) =   3
                l(8) =   3

     PseudoPot. # 2 for O  read from file:
     /cluster/scratch/mnoe/QE/pps/O_ONCV_LDA-3.0.upf
     MD5 check sum: a1bd6164e7280c17a38c229939bfbd54
     Pseudo is Norm-conserving + core correction, Zval =  6.0
     Generated using ONCVPSP code by D. R. Hamann
     Using radial grid of  926 points,  5 beta functions with:
                l(1) =   0
                l(2) =   0
                l(3) =   1
                l(4) =   1
                l(5) =   2

     atomic species   valence    mass     pseudopotential
        W             28.00   183.84000     W ( 1.00)
        O              6.00    15.99940     O ( 1.00)

      2 Sym. Ops., with inversion, found

   Cartesian axes

     site n.     atom                  positions (alat units)
         1           W   tau(   1) = (   0.2500000   0.2953051   0.0000000  )
         2           W   tau(   2) = (   0.7500000   0.7628550   0.0000000  )
         3           W   tau(   3) = (   0.2500000   0.2337750   0.5000000  )
         4           W   tau(   4) = (   0.7500000   0.8243851   0.5000000  )
         5           W   tau(   5) = (   0.7500000   0.2953051   0.5000000  )
         6           W   tau(   6) = (   0.2500000   0.7628550   0.5000000  )
         7           W   tau(   7) = (   0.7500000   0.2337750   0.0000000  )
         8           W   tau(   8) = (   0.2500000   0.8243851   0.0000000  )
         9           O   tau(   9) = (   0.2500000   0.0080008   0.0000000  )
        10           O   tau(  10) = (   0.7500000   1.0501593   0.0000000  )
        11           O   tau(  11) = (   0.2500000   0.5210792   0.5000000  )
        12           O   tau(  12) = (   0.7500000   0.5370808   0.5000000  )
        13           O   tau(  13) = (   0.7500000   0.0080008   0.5000000  )
        14           O   tau(  14) = (   0.2500000   1.0501593   0.5000000  )
        15           O   tau(  15) = (   0.7500000   0.5210792   0.0000000  )
        16           O   tau(  16) = (   0.2500000   0.5370808   0.0000000  )
        17           O   tau(  17) = (   0.5000000   0.2645400   0.4563520  )
        18           O   tau(  18) = (   0.5000000   0.7936201   0.5436480  )
        19           O   tau(  19) = (   0.0000000   0.2645400   0.9563521  )
        20           O   tau(  20) = (   0.0000000   0.7936201   0.0436480  )
        21           O   tau(  21) = (   0.5000000   0.2645400   0.0436480  )
        22           O   tau(  22) = (   0.5000000   0.7936201   0.9563521  )
        23           O   tau(  23) = (   0.0000000   0.2645400   0.5436480  )
        24           O   tau(  24) = (   0.0000000   0.7936201   0.4563520  )
        25           O   tau(  25) = (   0.7063520   0.2645400   0.7500000  )
        26           O   tau(  26) = (   0.2936480   0.7936201   0.2500000  )
        27           O   tau(  27) = (   0.7936480   0.2645400   0.2500000  )
        28           O   tau(  28) = (   0.2063520   0.7936201   0.7500000  )
        29           O   tau(  29) = (   0.2936480   0.2645400   0.7500000  )
        30           O   tau(  30) = (   0.7063520   0.7936201   0.2500000  )
        31           O   tau(  31) = (   0.2063520   0.2645400   0.2500000  )
        32           O   tau(  32) = (   0.7936480   0.7936201   0.7500000  )

     number of k points=   112  gaussian smearing, width (Ry)=  0.0007

     Number of k-points >= 100: set verbosity='high' to print them.

     Initial potential from superposition of free atoms

     starting charge  367.99656, renormalised to  368.00000
     Starting wfc are  232 randomized atomic wfcs

     Self-consistent Calculation

     iteration #  1     ecut=   120.00 Ry     beta= 0.70
     Davidson diagonalization with overlap
     ethr =  1.00E-02,  avg # of iterations =  5.1

     total energy              =   -6254.02452030 Ry
     Harris-Foulkes estimate   =   -6264.58751298 Ry
     estimated scf accuracy    <      13.38674210 Ry

[...]

     End of self-consistent calculation

     Number of k-points >= 100: set verbosity='high' to print the bands.

     the Fermi energy is     8.9983 ev

!    total energy              =   -6261.10116428 Ry
     Harris-Foulkes estimate   =   -6261.10116428 Ry
     estimated scf accuracy    <          2.9E-09 Ry

     The total energy is the sum of the following terms:

     one-electron contribution =   -4745.06513377 Ry
     hartree contribution      =    2609.26299542 Ry
     xc contribution           =    -965.92301765 Ry
     ewald contribution        =   -3159.37600828 Ry
     smearing contrib. (-TS)   =      -0.00000000 Ry

     convergence has been achieved in  14 iterations

     Forces acting on atoms (cartesian axes, Ry/au):

     atom    1 type  1   force =    -0.00003130    0.02330363    0.00000203
     atom    2 type  1   force =     0.00003130   -0.02330363   -0.00000203
     atom    3 type  1   force =    -0.00002401   -0.02330179   -0.00000230
     atom    4 type  1   force =     0.00002401    0.02330179    0.00000230
     atom    5 type  1   force =     0.00002104    0.02331041    0.00000852
     atom    6 type  1   force =    -0.00002104   -0.02331041   -0.00000852
     atom    7 type  1   force =     0.00003144   -0.02331719   -0.00001008
     atom    8 type  1   force =    -0.00003144    0.02331719    0.00001008
     atom    9 type  2   force =    -0.00000057   -0.01165749    0.00000020
     atom   10 type  2   force =     0.00000057    0.01165749   -0.00000020
     atom   11 type  2   force =    -0.00000003    0.01166051   -0.00000028
     atom   12 type  2   force =     0.00000003   -0.01166051    0.00000028
     atom   13 type  2   force =    -0.00000007   -0.01165903    0.00000007
     atom   14 type  2   force =     0.00000007    0.01165903   -0.00000007
     atom   15 type  2   force =     0.00000056    0.01166044   -0.00000030
     atom   16 type  2   force =    -0.00000056   -0.01166044    0.00000030
     atom   17 type  2   force =     0.00000027    0.00000064   -0.00599025
     atom   18 type  2   force =    -0.00000027   -0.00000064    0.00599025
     atom   19 type  2   force =     0.00000037    0.00000017   -0.00599044
     atom   20 type  2   force =    -0.00000037   -0.00000017    0.00599044
     atom   21 type  2   force =    -0.00000055   -0.00000028    0.00599048
     atom   22 type  2   force =     0.00000055    0.00000028   -0.00599048
     atom   23 type  2   force =    -0.00000049    0.00000049    0.00599110
     atom   24 type  2   force =     0.00000049   -0.00000049   -0.00599110
     atom   25 type  2   force =    -0.00598994    0.00000006    0.00000338
     atom   26 type  2   force =     0.00598994   -0.00000006   -0.00000338
     atom   27 type  2   force =     0.00599069   -0.00000026   -0.00000312
     atom   28 type  2   force =    -0.00599069    0.00000026    0.00000312
     atom   29 type  2   force =     0.00598992    0.00000079    0.00000403
     atom   30 type  2   force =    -0.00598992   -0.00000079   -0.00000403
     atom   31 type  2   force =    -0.00599097    0.00000075   -0.00000428
     atom   32 type  2   force =     0.00599097   -0.00000075    0.00000428

     Total force =     0.000000     Total SCF correction =     0.000000

     Computing stress (Cartesian axis) and pressure

          total   stress  (Ry/bohr**3)                   (kbar)     P=   22.58
   0.00030492  -0.00000000  -0.00000000         44.86     -0.00     -0.00
  -0.00000000  -0.00014931   0.00000000         -0.00    -21.96      0.00
  -0.00000000   0.00000000   0.00030488         -0.00      0.00     44.85

     BFGS Geometry Optimization

     number of scf cycles    =   1
     number of bfgs steps    =   0

     enthalpy new            =   -6261.1011642794 Ry

     new trust radius        =       0.0807461178 bohr
     new conv_thr            =       0.0000000100 Ry

     new unit-cell volume =   2837.27643 a.u.^3 (   420.44098 Ang^3 )
     density =      7.32519 g/cm^3

CELL_PARAMETERS (angstrom)
   7.379474316  -0.000000597  -0.000000085
  -0.000000632   7.720662856   0.000000754
  -0.000000085   0.000000713   7.379467596

ATOMIC_POSITIONS (crystal)
W        0.250000000   0.279074128  -0.000000000    0   0   0
W        0.749999985   0.720925872  -0.000000000    0   0   0
W        0.250000000   0.220925888   0.500000000    0   0   0
W        0.749999985   0.779074125   0.500000000    0   0   0
W        0.749999985   0.279074128   0.500000000    0   0   0
W        0.250000000   0.720925872   0.500000000    0   0   0
W        0.749999985   0.220925888  -0.000000000    0   0   0
W        0.250000000   0.779074125   0.000000000    0   0   0
O        0.250000000   0.007561045   0.000000000    0   0   0
O        0.749999985   0.992438959  -0.000000000    0   0   0
O        0.250000000   0.492438956   0.500000000    0   0   0
O        0.749999985   0.507561041   0.500000000    0   0   0
O        0.749999985   0.007561045   0.500000000    0   0   0
O        0.250000000   0.992438959   0.500000000    0   0   0
O        0.749999985   0.492438956  -0.000000000    0   0   0
O        0.250000000   0.507561041   0.000000000    0   0   0
O        0.500000000   0.250000000   0.456352018    0   0   0
O        0.500000000   0.749999999   0.543647980    0   0   0
O        0.000000000   0.250000000   0.956352051    0   0   0
O        0.000000000   0.749999999   0.043647972    0   0   0
O        0.500000000   0.250000000   0.043647972    0   0   0
O        0.500000000   0.749999999   0.956352051    0   0   0
O        0.000000000   0.250000000   0.543647980    0   0   0
O        0.000000000   0.749999999   0.456352018    0   0   0
O        0.706352035   0.250000000   0.749999985    0   0   0
O        0.293647967   0.749999999   0.250000000    0   0   0
O        0.793647995   0.250000000   0.250000000    0   0   0
O        0.206352034   0.749999999   0.749999985    0   0   0
O        0.293647967   0.250000000   0.749999985    0   0   0
O        0.706352035   0.749999999   0.250000000    0   0   0
O        0.206352034   0.250000000   0.250000000    0   0   0
O        0.793647995   0.749999999   0.749999985    0   0   0

     Writing output data file Landau_7.save
     NEW-OLD atomic charge density approx. for the potential
     extrapolated charge  372.18865, renormalised to  368.00000

[...]

     enthalpy old            =   -6261.1011642794 Ry
     enthalpy new            =   -6261.1071567726 Ry

     CASE: enthalpy_new < enthalpy_old

[...]

     number of scf cycles    =   4
     number of bfgs steps    =   3

     enthalpy old            =   -6261.1074394400 Ry
     enthalpy new            =   -6261.1074446550 Ry

     CASE: enthalpy_new < enthalpy_old

     new trust radius        =       0.0002959208 bohr
     new conv_thr            =            1.0E-10 Ry

     new unit-cell volume =   2827.99479 a.u.^3 (   419.06559 Ang^3 )
     density =      7.34923 g/cm^3

[...]

ATOMIC_POSITIONS (crystal)
W        0.250000000   0.279074128   0.000000000    0   0   0
W        0.749999985   0.720925872  -0.000000000    0   0   0
W        0.250000000   0.220925888   0.500000000    0   0   0
W        0.749999985   0.779074125   0.500000000    0   0   0
W        0.749999985   0.279074128   0.500000000    0   0   0
W        0.250000000   0.720925872   0.500000000    0   0   0
W        0.749999985   0.220925888   0.000000000    0   0   0
W        0.250000000   0.779074125   0.000000000    0   0   0
O        0.250000000   0.007561045   0.000000000    0   0   0
O        0.749999985   0.992438959  -0.000000000    0   0   0
O        0.250000000   0.492438956   0.500000000    0   0   0
O        0.749999985   0.507561041   0.500000000    0   0   0
O        0.749999985   0.007561045   0.500000000    0   0   0
O        0.250000000   0.992438959   0.500000000    0   0   0
O        0.749999985   0.492438956  -0.000000000    0   0   0
O        0.250000000   0.507561041   0.000000000    0   0   0
O        0.500000000   0.250000000   0.456352018    0   0   0
O        0.500000000   0.749999999   0.543647980    0   0   0
O       -0.000000000   0.250000000   0.956352051    0   0   0
O       -0.000000000   0.749999999   0.043647972    0   0   0
O        0.500000000   0.250000000   0.043647972    0   0   0
O        0.500000000   0.749999999   0.956352051    0   0   0
O        0.000000000   0.250000000   0.543647980    0   0   0
O       -0.000000000   0.749999999   0.456352018    0   0   0
O        0.706352035   0.250000000   0.749999985    0   0   0
O        0.293647967   0.749999999   0.250000000    0   0   0
O        0.793647995   0.250000000   0.250000000    0   0   0
O        0.206352034   0.749999999   0.749999985    0   0   0
O        0.293647967   0.250000000   0.749999985    0   0   0
O        0.706352035   0.749999999   0.250000000    0   0   0
O        0.206352034   0.250000000   0.250000000    0   0   0
O        0.793647995   0.749999999   0.749999985    0   0   0

     Writing output data file Landau_7.save
     NEW-OLD atomic charge density approx. for the potential
     extrapolated charge  367.99894, renormalised to  368.00000

[...]

     Threshold (ethr) on eigenvalues was too large:
     Diagonalizing with lowered threshold

     Davidson diagonalization with overlap
     ethr =  2.03E-11,  avg # of iterations =  3.7

[...]

     bfgs converged in   5 scf cycles and   4 bfgs steps
     (criteria: energy <  1.0E-07 Ry, force <  1.0E-07Ry/Bohr, cell <  5.0E-01kbar)

     End of BFGS Geometry Optimization

     Final enthalpy =   -6261.1074447189 Ry
Begin final coordinates
     new unit-cell volume =   2827.99479 a.u.^3 (   419.06559 Ang^3 )
     density =      7.34923 g/cm^3

CELL_PARAMETERS (angstrom)
   7.369903642  -0.000000478  -0.000000011
  -0.000000505   7.715398433   0.000000346
  -0.000000011   0.000000331   7.369903993

ATOMIC_POSITIONS (crystal)
W        0.250000000   0.279074128   0.000000000    0   0   0
W        0.749999985   0.720925872   0.000000000    0   0   0
W        0.250000000   0.220925888   0.500000000    0   0   0
W        0.749999985   0.779074125   0.500000000    0   0   0
W        0.749999985   0.279074128   0.500000000    0   0   0
W        0.250000000   0.720925872   0.500000000    0   0   0
W        0.749999985   0.220925888   0.000000000    0   0   0
W        0.250000000   0.779074125   0.000000000    0   0   0
O        0.250000000   0.007561045   0.000000000    0   0   0
O        0.749999985   0.992438959  -0.000000000    0   0   0
O        0.250000000   0.492438956   0.500000000    0   0   0
O        0.749999985   0.507561041   0.500000000    0   0   0
O        0.749999985   0.007561045   0.500000000    0   0   0
O        0.250000000   0.992438959   0.500000000    0   0   0
O        0.749999985   0.492438956  -0.000000000    0   0   0
O        0.250000000   0.507561041   0.000000000    0   0   0
O        0.500000000   0.250000000   0.456352018    0   0   0
O        0.500000000   0.749999999   0.543647980    0   0   0
O       -0.000000000   0.250000000   0.956352051    0   0   0
O       -0.000000000   0.749999999   0.043647972    0   0   0
O        0.500000000   0.250000000   0.043647972    0   0   0
O        0.500000000   0.749999999   0.956352051    0   0   0
O        0.000000000   0.250000000   0.543647980    0   0   0
O       -0.000000000   0.749999999   0.456352018    0   0   0
O        0.706352035   0.250000000   0.749999985    0   0   0
O        0.293647967   0.749999999   0.250000000    0   0   0
O        0.793647995   0.250000000   0.250000000    0   0   0
O        0.206352034   0.749999999   0.749999985    0   0   0
O        0.293647967   0.250000000   0.749999985    0   0   0
O        0.706352035   0.749999999   0.250000000    0   0   0
O        0.206352034   0.250000000   0.250000000    0   0   0
O        0.793647995   0.749999999   0.749999985    0   0   0
End final coordinates

     A final scf calculation at the relaxed structure.
     The G-vectors are recalculated for the final unit cell
     Results may differ from those at the preceding step.

     bravais-lattice index     =            0
     lattice parameter (alat)  =      13.8397  a.u.
     unit-cell volume          =    2827.9948 (a.u.)^3
     number of atoms/cell      =           32
     number of atomic types    =            2
     number of electrons       =       368.00
     number of Kohn-Sham states=          221
     kinetic-energy cutoff     =     120.0000  Ry
     charge density cutoff     =     480.0000  Ry
     convergence threshold     =      1.0E-10
     mixing beta               =       0.7000
     number of iterations used =            8  plain     mixing
     Exchange-correlation      = SLA PW NOGX NOGC ( 1  4  0  0 0 0)

     celldm(1)=  13.839685  celldm(2)=   0.000000  celldm(3)=   0.000000
     celldm(4)=   0.000000  celldm(5)=   0.000000  celldm(6)=   0.000000

     crystal axes: (cart. coord. in units of alat)
               a(1) = (   1.006316  -0.000000  -0.000000 )
               a(2) = (  -0.000000   1.053491   0.000000 )
               a(3) = (  -0.000000   0.000000   1.006316 )

     reciprocal axes: (cart. coord. in units 2 pi/alat)
               b(1) = (  0.993723  0.000000  0.000000 )
               b(2) = (  0.000000  0.949225 -0.000000 )
               b(3) = (  0.000000 -0.000000  0.993723 )

     PseudoPot. # 1 for W  read from file:
     /cluster/scratch/mnoe/QE/pps/W_ONCV_LDA-4.0.upf
     MD5 check sum: ba0307d5d4cd419d6f1d13dc49d7c13a
     Pseudo is Norm-conserving + core correction, Zval = 28.0
     Generated using ONCVPSP code by D. R. Hamann
     Using radial grid of 1380 points,  8 beta functions with:
                l(1) =   0
                l(2) =   0
                l(3) =   1
                l(4) =   1
                l(5) =   2
                l(6) =   2
                l(7) =   3
                l(8) =   3

     PseudoPot. # 2 for O  read from file:
     /cluster/scratch/mnoe/QE/pps/O_ONCV_LDA-3.0.upf
     MD5 check sum: a1bd6164e7280c17a38c229939bfbd54
     Pseudo is Norm-conserving + core correction, Zval =  6.0
     Generated using ONCVPSP code by D. R. Hamann
     Using radial grid of  926 points,  5 beta functions with:
                l(1) =   0
                l(2) =   0
                l(3) =   1
                l(4) =   1
                l(5) =   2

     atomic species   valence    mass     pseudopotential
        W             28.00   183.84000     W ( 1.00)
        O              6.00    15.99940     O ( 1.00)

      2 Sym. Ops., with inversion, found

   Cartesian axes

     site n.     atom                  positions (alat units)
         1           W   tau(   1) = (   0.2515790   0.2940022   0.0000000  )
         2           W   tau(   2) = (   0.7547371   0.7594892   0.0000000  )
         3           W   tau(   3) = (   0.2515790   0.2327435   0.5031581  )
         4           W   tau(   4) = (   0.7547371   0.8207479   0.5031582  )
         5           W   tau(   5) = (   0.7547371   0.2940022   0.5031581  )
         6           W   tau(   6) = (   0.2515790   0.7594892   0.5031582  )
         7           W   tau(   7) = (   0.7547371   0.2327435   0.0000000  )
         8           W   tau(   8) = (   0.2515790   0.8207479   0.0000000  )
         9           O   tau(   9) = (   0.2515790   0.0079655  -0.0000000  )
        10           O   tau(  10) = (   0.7547371   1.0455259   0.0000000  )
        11           O   tau(  11) = (   0.2515790   0.5187802   0.5031581  )
        12           O   tau(  12) = (   0.7547371   0.5347112   0.5031581  )
        13           O   tau(  13) = (   0.7547371   0.0079655   0.5031581  )
        14           O   tau(  14) = (   0.2515790   1.0455260   0.5031582  )
        15           O   tau(  15) = (   0.7547371   0.5187802   0.0000000  )
        16           O   tau(  16) = (   0.2515790   0.5347112   0.0000000  )
        17           O   tau(  17) = (   0.5031581   0.2633728   0.4592345  )
        18           O   tau(  18) = (   0.5031580   0.7901186   0.5470818  )
        19           O   tau(  19) = (  -0.0000000   0.2633729   0.9623926  )
        20           O   tau(  20) = (  -0.0000001   0.7901186   0.0439237  )
        21           O   tau(  21) = (   0.5031581   0.2633728   0.0439237  )
        22           O   tau(  22) = (   0.5031580   0.7901186   0.9623926  )
        23           O   tau(  23) = (  -0.0000000   0.2633729   0.5470818  )
        24           O   tau(  24) = (  -0.0000001   0.7901186   0.4592345  )
        25           O   tau(  25) = (   0.7108135   0.2633728   0.7547372  )
        26           O   tau(  26) = (   0.2955027   0.7901186   0.2515791  )
        27           O   tau(  27) = (   0.7986608   0.2633728   0.2515791  )
        28           O   tau(  28) = (   0.2076553   0.7901186   0.7547372  )
        29           O   tau(  29) = (   0.2955027   0.2633729   0.7547372  )
        30           O   tau(  30) = (   0.7108134   0.7901185   0.2515791  )
        31           O   tau(  31) = (   0.2076554   0.2633729   0.2515791  )
        32           O   tau(  32) = (   0.7986608   0.7901186   0.7547372  )

     number of k points=   112  gaussian smearing, width (Ry)=  0.0007

     Number of k-points >= 100: set verbosity='high' to print them.

     Initial potential from superposition of free atoms

     starting charge  367.99656, renormalised to  368.00000
     Starting wfc are  232 randomized atomic wfcs

     Writing output data file Landau_7.save

     Self-consistent Calculation

[...]

     total energy              =   -6261.10757849 Ry
     Harris-Foulkes estimate   =   -6261.10757849 Ry
     estimated scf accuracy    <          2.5E-10 Ry

     iteration # 17     ecut=   120.00 Ry     beta= 0.70
     Davidson diagonalization with overlap
     ethr =  1.00E-13,  avg # of iterations =  2.0

     End of self-consistent calculation

     Number of k-points >= 100: set verbosity='high' to print the bands.

     the Fermi energy is     8.8507 ev

!    total energy              =   -6261.10757849 Ry
     Harris-Foulkes estimate   =   -6261.10757849 Ry
     estimated scf accuracy    <          8.7E-11 Ry

     The total energy is the sum of the following terms:

     one-electron contribution =   -4756.38757550 Ry
     hartree contribution      =    2612.99275408 Ry
     xc contribution           =    -965.66915894 Ry
     ewald contribution        =   -3152.04359812 Ry
     smearing contrib. (-TS)   =      -0.00000000 Ry

     convergence has been achieved in  17 iterations

     Forces acting on atoms (cartesian axes, Ry/au):

     atom    1 type  1   force =     0.00000832    0.00688777    0.00000329
     atom    2 type  1   force =    -0.00000832   -0.00688777   -0.00000329
     atom    3 type  1   force =     0.00000137   -0.00689997   -0.00000299
     atom    4 type  1   force =    -0.00000137    0.00689997    0.00000299
     atom    5 type  1   force =    -0.00000064    0.00688601   -0.00000608
     atom    6 type  1   force =     0.00000064   -0.00688601    0.00000608
     atom    7 type  1   force =    -0.00000698   -0.00689818    0.00000475
     atom    8 type  1   force =     0.00000698    0.00689818   -0.00000475
     atom    9 type  2   force =     0.00000011   -0.00351084    0.00000006
     atom   10 type  2   force =    -0.00000011    0.00351084   -0.00000006
     atom   11 type  2   force =     0.00000005    0.00351083   -0.00000001
     atom   12 type  2   force =    -0.00000005   -0.00351083    0.00000001
     atom   13 type  2   force =    -0.00000004   -0.00351035   -0.00000000
     atom   14 type  2   force =     0.00000004    0.00351035    0.00000000
     atom   15 type  2   force =    -0.00000006    0.00351041   -0.00000002
     atom   16 type  2   force =     0.00000006   -0.00351041    0.00000002
     atom   17 type  2   force =     0.00000026    0.00000003   -0.00107665
     atom   18 type  2   force =    -0.00000026   -0.00000003    0.00107665
     atom   19 type  2   force =    -0.00000014    0.00000008   -0.00107660
     atom   20 type  2   force =     0.00000014   -0.00000008    0.00107660
     atom   21 type  2   force =     0.00000009    0.00000001    0.00107670
     atom   22 type  2   force =    -0.00000009   -0.00000001   -0.00107670
     atom   23 type  2   force =    -0.00000030    0.00000003    0.00107650
     atom   24 type  2   force =     0.00000030   -0.00000003   -0.00107650
     atom   25 type  2   force =    -0.00107665    0.00000002   -0.00000013
     atom   26 type  2   force =     0.00107665   -0.00000002    0.00000013
     atom   27 type  2   force =     0.00107654    0.00000001    0.00000019
     atom   28 type  2   force =    -0.00107654   -0.00000001   -0.00000019
     atom   29 type  2   force =     0.00107662   -0.00000001   -0.00000006
     atom   30 type  2   force =    -0.00107662    0.00000001    0.00000006
     atom   31 type  2   force =    -0.00107654   -0.00000001    0.00000006
     atom   32 type  2   force =     0.00107654    0.00000001   -0.00000006

     Total force =     0.000000     Total SCF correction =     0.000000

     Computing stress (Cartesian axis) and pressure

          total   stress  (Ry/bohr**3)                   (kbar)     P=    0.22
   0.00000227   0.00000000   0.00000000          0.33      0.00      0.00
   0.00000000  -0.00000001  -0.00000000          0.00     -0.00     -0.00
   0.00000000  -0.00000000   0.00000226          0.00     -0.00      0.33

     Writing output data file Landau_7.save

     General routines

     Parallel routines

   This run was terminated on:   2: 1:21   5Mar2020

   JOB DONE.