     Program PWSCF v.6.2 (svn rev. 14038) starts on 26Mar2020 at  0: 0:16

     K-points division:     npool     =      40
     Reading input from scf.in

     Current dimensions of program PWSCF are:
     Max number of different atomic species (ntypx) = 10
     Max number of k-points (npk) =  40000
     Max angular momentum in pseudopotentials (lmaxx) =  3

     Subspace diagonalization in iterative solution of the eigenvalue problem:
     a serial algorithm will be used

     bravais-lattice index     =            0
     lattice parameter (alat)  =      13.9508  a.u.
     unit-cell volume          =    2756.1412 (a.u.)^3
     number of atoms/cell      =           32
     number of atomic types    =            2
     number of electrons       =       369.00
     number of Kohn-Sham states=          222
     kinetic-energy cutoff     =     120.0000  Ry
     charge density cutoff     =     480.0000  Ry
     convergence threshold     =      1.0E-08
     mixing beta               =       0.7000
     number of iterations used =            8  plain     mixing
     Exchange-correlation      = SLA PW NOGX NOGC ( 1  4  0  0 0 0)

     celldm(1)=  13.950838  celldm(2)=   0.000000  celldm(3)=   0.000000
     celldm(4)=   0.000000  celldm(5)=   0.000000  celldm(6)=   0.000000

     crystal axes: (cart. coord. in units of alat)
               a(1) = (   1.000000   0.000000   0.000000 )
               a(2) = (   0.000000   1.015081   0.000000 )
               a(3) = (   0.000000   0.000000   1.000000 )

     reciprocal axes: (cart. coord. in units 2 pi/alat)
               b(1) = (  1.000000  0.000000  0.000000 )
               b(2) = (  0.000000  0.985143  0.000000 )
               b(3) = (  0.000000  0.000000  1.000000 )

     PseudoPot. # 1 for W  read from file:
     /cluster/scratch/mnoe/QE/pps/W_ONCV_LDA-4.0.upf
     MD5 check sum: ba0307d5d4cd419d6f1d13dc49d7c13a
     Pseudo is Norm-conserving + core correction, Zval = 28.0
     Generated using ONCVPSP code by D. R. Hamann
     Using radial grid of 1380 points,  8 beta functions with:
                l(1) =   0
                l(2) =   0
                l(3) =   1
                l(4) =   1
                l(5) =   2
                l(6) =   2
                l(7) =   3
                l(8) =   3

     PseudoPot. # 2 for O  read from file:
     /cluster/scratch/mnoe/QE/pps/O_ONCV_LDA-3.0.upf
     MD5 check sum: a1bd6164e7280c17a38c229939bfbd54
     Pseudo is Norm-conserving + core correction, Zval =  6.0
     Generated using ONCVPSP code by D. R. Hamann
     Using radial grid of  926 points,  5 beta functions with:
                l(1) =   0
                l(2) =   0
                l(3) =   1
                l(4) =   1
                l(5) =   2

     atomic species   valence    mass     pseudopotential
        W             28.00   183.84000     W ( 1.00)
        O              6.00    15.99940     O ( 1.00)

      8 Sym. Ops. (no inversion) found ( 7 have fractional translation)

   Cartesian axes

     site n.     atom                  positions (alat units)
         1           W   tau(   1) = (   0.2176270   0.2842867  -0.0009270  )
         2           W   tau(   2) = (   0.7509270   0.7307941  -0.0323730  )
         3           W   tau(   3) = (   0.2823730   0.2232537   0.4990730  )
         4           W   tau(   4) = (   0.7490730   0.7918271   0.4676270  )
         5           W   tau(   5) = (   0.7823730   0.2842867   0.5009270  )
         6           W   tau(   6) = (   0.2490730   0.7307941   0.5323730  )
         7           W   tau(   7) = (   0.7176270   0.2232537   0.0009270  )
         8           W   tau(   8) = (   0.2509270   0.7918271   0.0323730  )
         9           O   tau(   9) = (   0.2143960   0.0079486  -0.0258300  )
        10           O   tau(  10) = (   0.7758300  -0.0079486  -0.0356040  )
        11           O   tau(  11) = (   0.2856040   0.4995918   0.4741700  )
        12           O   tau(  12) = (   0.7241700   0.5154889   0.4643960  )
        13           O   tau(  13) = (   0.7856040   0.0079486   0.5258300  )
        14           O   tau(  14) = (   0.2241700  -0.0079486   0.5356040  )
        15           O   tau(  15) = (   0.7143960   0.4995918   0.0258300  )
        16           O   tau(  16) = (   0.2758300   0.5154889   0.0356040  )
        17           O   tau(  17) = (   0.5114570   0.2148063   0.4539337  )
        18           O   tau(  18) = (   0.5023490   0.7863151   0.5460663  )
        19           O   tau(  19) = (  -0.0114570   0.2927340   0.9539338  )
        20           O   tau(  20) = (  -0.0023490   0.7363062   0.0460663  )
        21           O   tau(  21) = (   0.4885430   0.2148063   0.0460663  )
        22           O   tau(  22) = (   0.4976510   0.7863151   0.9539338  )
        23           O   tau(  23) = (   0.0114569   0.2927340   0.5460663  )
        24           O   tau(  24) = (   0.0023490   0.7363062   0.4539337  )
        25           O   tau(  25) = (   0.7039337   0.2787747   0.7476510  )
        26           O   tau(  26) = (   0.2960663   0.8002745   0.2614570  )
        27           O   tau(  27) = (   0.7960663   0.2287657   0.2476511  )
        28           O   tau(  28) = (   0.2039337   0.7223468   0.7614570  )
        29           O   tau(  29) = (   0.2960663   0.2787747   0.7523490  )
        30           O   tau(  30) = (   0.7039337   0.8002745   0.2385431  )
        31           O   tau(  31) = (   0.2039337   0.2287657   0.2523490  )
        32           O   tau(  32) = (   0.7960663   0.7223468   0.7385430  )

     number of k points=    40  gaussian smearing, width (Ry)=  0.0007
                       cart. coord. in units 2pi/alat
        k(    1) = (   0.0000000   0.0000000   0.0000000), wk =   0.0092593
        k(    2) = (   0.0000000   0.0000000   0.1666667), wk =   0.0370370
        k(    3) = (   0.0000000   0.0000000   0.3333333), wk =   0.0370370
        k(    4) = (   0.0000000   0.0000000  -0.5000000), wk =   0.0185185
        k(    5) = (   0.0000000   0.1641905   0.0000000), wk =   0.0185185
        k(    6) = (   0.0000000   0.1641905   0.1666667), wk =   0.0740741
        k(    7) = (   0.0000000   0.1641905   0.3333333), wk =   0.0740741
        k(    8) = (   0.0000000   0.1641905  -0.5000000), wk =   0.0370370
        k(    9) = (   0.0000000   0.3283811   0.0000000), wk =   0.0185185
        k(   10) = (   0.0000000   0.3283811   0.1666667), wk =   0.0740741
        k(   11) = (   0.0000000   0.3283811   0.3333333), wk =   0.0740741
        k(   12) = (   0.0000000   0.3283811  -0.5000000), wk =   0.0370370
        k(   13) = (   0.0000000  -0.4925716   0.0000000), wk =   0.0092593
        k(   14) = (   0.0000000  -0.4925716   0.1666667), wk =   0.0370370
        k(   15) = (   0.0000000  -0.4925716   0.3333333), wk =   0.0370370
        k(   16) = (   0.0000000  -0.4925716  -0.5000000), wk =   0.0185185
        k(   17) = (   0.1666667   0.0000000   0.1666667), wk =   0.0370370
        k(   18) = (   0.1666667   0.0000000   0.3333333), wk =   0.0740741
        k(   19) = (   0.1666667   0.0000000  -0.5000000), wk =   0.0370370
        k(   20) = (   0.1666667   0.1641905   0.1666667), wk =   0.0740741
        k(   21) = (   0.1666667   0.1641905   0.3333333), wk =   0.1481481
        k(   22) = (   0.1666667   0.1641905  -0.5000000), wk =   0.0740741
        k(   23) = (   0.1666667   0.3283811   0.1666667), wk =   0.0740741
        k(   24) = (   0.1666667   0.3283811   0.3333333), wk =   0.1481481
        k(   25) = (   0.1666667   0.3283811  -0.5000000), wk =   0.0740741
        k(   26) = (   0.1666667  -0.4925716   0.1666667), wk =   0.0370370
        k(   27) = (   0.1666667  -0.4925716   0.3333333), wk =   0.0740741
        k(   28) = (   0.1666667  -0.4925716  -0.5000000), wk =   0.0370370
        k(   29) = (   0.3333333   0.0000000   0.3333333), wk =   0.0370370
        k(   30) = (   0.3333333   0.0000000  -0.5000000), wk =   0.0370370
        k(   31) = (   0.3333333   0.1641905   0.3333333), wk =   0.0740741
        k(   32) = (   0.3333333   0.1641905  -0.5000000), wk =   0.0740741
        k(   33) = (   0.3333333   0.3283811   0.3333333), wk =   0.0740741
        k(   34) = (   0.3333333   0.3283811  -0.5000000), wk =   0.0740741
        k(   35) = (   0.3333333  -0.4925716   0.3333333), wk =   0.0370370
        k(   36) = (   0.3333333  -0.4925716  -0.5000000), wk =   0.0370370
        k(   37) = (  -0.5000000   0.0000000  -0.5000000), wk =   0.0092593
        k(   38) = (  -0.5000000   0.1641905  -0.5000000), wk =   0.0185185
        k(   39) = (  -0.5000000   0.3283811  -0.5000000), wk =   0.0185185
        k(   40) = (  -0.5000000  -0.4925716  -0.5000000), wk =   0.0092593

     Initial potential from superposition of free atoms

     starting charge  367.99656, renormalised to  369.00000
     Starting wfc are  232 randomized atomic wfcs

     Self-consistent Calculation

     iteration #  1     ecut=   120.00 Ry     beta= 0.70
     Davidson diagonalization with overlap
     ethr =  1.00E-02,  avg # of iterations =  5.1

     total energy              =   -6253.01441806 Ry
     Harris-Foulkes estimate   =   -6263.90804835 Ry
     estimated scf accuracy    <      13.68071649 Ry

[...]

     total energy              =   -6260.28486466 Ry
     Harris-Foulkes estimate   =   -6260.28486470 Ry
     estimated scf accuracy    <       0.00000009 Ry

     iteration # 12     ecut=   120.00 Ry     beta= 0.70
     Davidson diagonalization with overlap
     ethr =  2.46E-11,  avg # of iterations =  2.0

     End of self-consistent calculation

          k = 0.0000 0.0000 0.0000 ( 61221 PWs)   bands (ev):

   -65.6321 -65.6314 -65.6313 -65.6313 -65.6305 -65.6305 -65.6304 -65.6296
   -30.1770 -30.1725 -30.1704 -30.1703 -30.0950 -30.0941 -30.0941 -30.0837
   -30.0080 -29.9990 -29.9990 -29.9898 -29.9296 -29.9253 -29.9253 -29.9196
   -29.9145 -29.9130 -29.9048 -29.9048 -29.8320 -29.8320 -29.8274 -29.8257
   -19.7689 -19.7688 -19.7688 -19.7688 -19.7657 -19.7657 -19.7657 -19.7656
   -19.7561 -19.7559 -19.7559 -19.7556 -19.7550 -19.7549 -19.7548 -19.7548
   -19.7545 -19.7543 -19.7543 -19.7541 -19.7520 -19.7520 -19.7519 -19.7517
   -19.7406 -19.7402 -19.7402 -19.7398 -19.7370 -19.7362 -19.7362 -19.7358
   -19.7355 -19.7353 -19.7349 -19.7349 -19.7327 -19.7326 -19.7317 -19.7314
   -19.7312 -19.7301 -19.7301 -19.7301 -19.7292 -19.7292 -19.7291 -19.7289
   -19.7259 -19.7257 -19.7248 -19.7248 -19.7224 -19.7224 -19.7217 -19.7214
    -9.6400  -9.2921  -9.2325  -9.2325  -8.7783  -8.7783  -8.7543  -8.6209
    -8.4799  -8.3988  -8.3988  -8.3884  -7.7553  -7.6892  -7.5930  -7.5930
    -7.4449  -7.3774  -7.3774  -7.3256  -7.3131  -7.2958  -7.1882  -7.1882
     1.6721   1.7232   1.7428   1.7428   1.9033   1.9387   1.9478   1.9478
     2.1207   2.1207   2.2099   2.3817   2.6925   2.7591   2.8603   2.9669
     2.9999   2.9999   4.5408   4.5408   4.7719   4.9018   4.9150   4.9298
     4.9298   5.0775   5.0775   5.0926   5.4419   5.4419   5.5269   5.6620
     5.7130   5.7188   5.7504   5.7504   5.9935   5.9935   6.0398   6.0832
     6.0832   6.0962   6.0981   6.2043   6.2043   6.2503   6.3342   6.4029
     6.5355   6.6654   6.6956   6.6956   6.8674   6.9306   7.1360   7.1360
     7.1719   7.3003   7.3094   7.3094   7.3270   7.4329   7.4329   7.4972
     7.7630   7.7630   8.0406   8.0965   8.1869   8.2849   8.2849   8.4526
    10.3054  10.4422  10.5682  10.5682  10.6029  10.6654  12.5488  12.5578
    12.5578  12.7293  12.7293  12.8825  13.0303  13.2655  13.2655  13.3950
    13.4299  13.5771  13.5771  13.6588  14.0596  14.0596  14.0643  14.3831
    15.0974  15.1692  15.2671  15.2671  15.6144  15.9365  16.2195  16.2508
    16.2508  17.0277  17.2602  17.2602  17.8350  18.1468

[...]

          k = 0.3333-0.4926-0.5000 ( 61176 PWs)   bands (ev):

[...]

          k =-0.5000 0.0000-0.5000 ( 61260 PWs)   bands (ev):

[...]

          k =-0.5000-0.4926-0.5000 ( 61176 PWs)   bands (ev):

   -65.6309 -65.6309 -65.6309 -65.6309 -65.6309 -65.6309 -65.6309 -65.6309
   -30.1315 -30.1315 -30.1305 -30.1305 -30.1305 -30.1304 -30.1304 -30.1304
   -29.9640 -29.9640 -29.9639 -29.9639 -29.9639 -29.9638 -29.9632 -29.9632
   -29.8697 -29.8697 -29.8697 -29.8697 -29.8697 -29.8697 -29.8694 -29.8694
   -19.7672 -19.7672 -19.7672 -19.7672 -19.7672 -19.7672 -19.7671 -19.7671
   -19.7556 -19.7556 -19.7551 -19.7551 -19.7551 -19.7551 -19.7551 -19.7551
   -19.7534 -19.7534 -19.7534 -19.7534 -19.7534 -19.7533 -19.7529 -19.7529
   -19.7383 -19.7383 -19.7383 -19.7383 -19.7383 -19.7383 -19.7383 -19.7382
   -19.7336 -19.7336 -19.7336 -19.7336 -19.7335 -19.7335 -19.7334 -19.7334
   -19.7301 -19.7301 -19.7300 -19.7300 -19.7298 -19.7298 -19.7298 -19.7298
   -19.7239 -19.7239 -19.7238 -19.7238 -19.7237 -19.7237 -19.7236 -19.7236
    -8.7152  -8.7152  -8.6451  -8.6451  -8.6321  -8.6321  -8.6321  -8.6321
    -8.1635  -8.1635  -8.0687  -8.0687  -8.0687  -8.0687  -8.0179  -8.0179
    -7.8947  -7.8947  -7.8947  -7.8947  -7.8298  -7.8298  -7.8101  -7.8101
     3.1970   3.1970   3.1970   3.1970   3.1972   3.1972   3.2609   3.2609
     3.3691   3.3691   3.5331   3.5331   3.5331   3.5331   3.6917   3.6917
     3.7687   3.7687   3.8343   3.8343   3.8697   3.8697   3.8697   3.8697
     4.4240   4.4240   4.4339   4.4339   4.5361   4.5361   4.5361   4.5361
     4.7166   4.7166   4.7228   4.7228   4.7228   4.7228   4.8163   4.8164
     4.8831   4.8831   4.9679   4.9679   4.9679   4.9679   4.9781   4.9781
     7.2700   7.2700   7.4005   7.4005   7.4005   7.4005   7.5625   7.5625
     7.6475   7.6476   7.6476   7.6476   7.7034   7.7035   7.7968   7.7968
     7.9438   7.9438   7.9438   7.9438   7.9635   7.9636   8.0091   8.0091
    12.2201  12.2201  12.2825  12.2825  12.2825  12.2826  12.3506  12.3506
    12.6652  12.6652  12.6652  12.6652  12.6990  12.6991  12.8608  12.8608
    12.9202  12.9202  13.0668  13.0668  13.0668  13.0668  13.1122  13.1122
    17.0934  17.0934  17.0934  17.0934  17.2161  17.2161  17.3191  17.3191
    17.7001  17.7304  17.7307  17.7307  17.7307  17.7546

     the Fermi energy is    10.7028 ev

!    total energy              =   -6260.28486468 Ry
     Harris-Foulkes estimate   =   -6260.28486468 Ry
     estimated scf accuracy    <          9.8E-09 Ry

     The total energy is the sum of the following terms:

     one-electron contribution =   -4627.69137020 Ry
     hartree contribution      =    2557.60378360 Ry
     xc contribution           =    -966.73100689 Ry
     ewald contribution        =   -3223.46621174 Ry
     smearing contrib. (-TS)   =      -0.00005944 Ry

     convergence has been achieved in  12 iterations

     Writing output data file Landau_18.save

     General routines

     Parallel routines

   This run was terminated on:   0: 9:37  26Mar2020

   JOB DONE.