     Program PWSCF v.6.2 (svn rev. 14038) starts on 30Apr2019 at 21:38:10

     K-points division:     npool     =      32
     Reading input from rscf.in

     Current dimensions of program PWSCF are:
     Max number of different atomic species (ntypx) = 10
     Max number of k-points (npk) =  40000
     Max angular momentum in pseudopotentials (lmaxx) =  3

     Subspace diagonalization in iterative solution of the eigenvalue problem:
     a serial algorithm will be used

     bravais-lattice index     =            0
     lattice parameter (alat)  =      13.8397  a.u.
     unit-cell volume          =    2804.9816 (a.u.)^3
     number of atoms/cell      =           32
     number of atomic types    =            2
     number of electrons       =       368.00
     number of Kohn-Sham states=          221
     kinetic-energy cutoff     =     120.0000  Ry
     charge density cutoff     =     480.0000  Ry
     convergence threshold     =      1.0E-08
     mixing beta               =       0.7000
     number of iterations used =            8  plain     mixing
     Exchange-correlation      = SLA PW NOGX NOGC ( 1  4  0  0 0 0)
     nstep                     =           50

     celldm(1)=  13.839685  celldm(2)=   0.000000  celldm(3)=   0.000000
     celldm(4)=   0.000000  celldm(5)=   0.000000  celldm(6)=   0.000000

     crystal axes: (cart. coord. in units of alat)
               a(1) = (   1.000000   0.000000   0.000000 )
               a(2) = (   0.000000   1.058160   0.000000 )
               a(3) = (   0.000000   0.000000   1.000000 )

     reciprocal axes: (cart. coord. in units 2 pi/alat)
               b(1) = (  1.000000  0.000000  0.000000 )
               b(2) = (  0.000000  0.945037  0.000000 )
               b(3) = (  0.000000  0.000000  1.000000 )

     PseudoPot. # 1 for W  read from file:
     /cluster/scratch/mnoe/QE/pps/W_ONCV_LDA-4.0.upf
     MD5 check sum: ba0307d5d4cd419d6f1d13dc49d7c13a
     Pseudo is Norm-conserving + core correction, Zval = 28.0
     Generated using ONCVPSP code by D. R. Hamann
     Using radial grid of 1380 points,  8 beta functions with:
                l(1) =   0
                l(2) =   0
                l(3) =   1
                l(4) =   1
                l(5) =   2
                l(6) =   2
                l(7) =   3
                l(8) =   3

     PseudoPot. # 2 for O  read from file:
     /cluster/scratch/mnoe/QE/pps/O_ONCV_LDA-3.0.upf
     MD5 check sum: a1bd6164e7280c17a38c229939bfbd54
     Pseudo is Norm-conserving + core correction, Zval =  6.0
     Generated using ONCVPSP code by D. R. Hamann
     Using radial grid of  926 points,  5 beta functions with:
                l(1) =   0
                l(2) =   0
                l(3) =   1
                l(4) =   1
                l(5) =   2

     atomic species   valence    mass     pseudopotential
        W             28.00   183.84000     W ( 1.00)
        O              6.00    15.99940     O ( 1.00)

      8 Sym. Ops. (no inversion) found ( 4 have fractional translation)

   Cartesian axes

     site n.     atom                  positions (alat units)
         1           W   tau(   1) = (   0.2553900   0.2982530   0.2501500  )
         2           W   tau(   2) = (  -0.2501500   0.7599071  -0.7446100  )
         3           W   tau(   3) = (   0.2446100   0.2308271   0.7501500  )
         4           W   tau(   4) = (   0.7501500   0.8273330   0.7553900  )
         5           W   tau(   5) = (   0.7446100   0.2982530   0.7498500  )
         6           W   tau(   6) = (   0.2501500   0.7599071   0.7446100  )
         7           W   tau(   7) = (  -0.2446100   0.2308271  -0.7501500  )
         8           W   tau(   8) = (   0.2498500   0.8273330   0.2446100  )
         9           O   tau(   9) = (   0.2559400   0.0088039   0.2543000  )
        10           O   tau(  10) = (  -0.2543001   1.0493562  -0.7440600  )
        11           O   tau(  11) = (   0.2440600   0.5202761   0.7543000  )
        12           O   tau(  12) = (   0.7543000   0.5378839   0.7559400  )
        13           O   tau(  13) = (   0.7440600   0.0088039   0.7457000  )
        14           O   tau(  14) = (   0.2543000   1.0493562   0.7440600  )
        15           O   tau(  15) = (  -0.2440600   0.5202761  -0.7543001  )
        16           O   tau(  16) = (   0.2457000   0.5378839   0.2440600  )
        17           O   tau(  17) = (   0.4980900   0.2713122   0.6995400  )
        18           O   tau(  18) = (   0.4996100   0.7892816   0.8004600  )
        19           O   tau(  19) = (  -0.9980899   0.2577678   1.1995400  )
        20           O   tau(  20) = (   0.0003899   0.7979584   0.3004600  )
        21           O   tau(  21) = (   0.5019100   0.2713122   0.3004600  )
        22           O   tau(  22) = (   0.5003900   0.7892816   1.1995400  )
        23           O   tau(  23) = (  -0.0019101   0.2577678   0.8004600  )
        24           O   tau(  24) = (  -1.0003900   0.7979584   0.6995400  )
        25           O   tau(  25) = (   0.6995400   0.2602016   2.0003900  )
        26           O   tau(  26) = (   0.3004600   0.7868478   0.4980900  )
        27           O   tau(  27) = (   0.8004600   0.2688785   0.5003900  )
        28           O   tau(  28) = (   0.1995400   0.8003922   1.9980899  )
        29           O   tau(  29) = (   0.3004600   0.2602016   0.9996101  )
        30           O   tau(  30) = (   0.6995400   0.7868478   0.5019100  )
        31           O   tau(  31) = (   0.1995400   0.2688785   0.4996100  )
        32           O   tau(  32) = (   0.8004600   0.8003922   1.0019101  )

     number of k points=    40  gaussian smearing, width (Ry)=  0.0007
                       cart. coord. in units 2pi/alat
        k(    1) = (   0.0000000   0.0000000   0.0000000), wk =   0.0092593
        k(    2) = (   0.0000000   0.0000000   0.1666667), wk =   0.0370370
        k(    3) = (   0.0000000   0.0000000   0.3333333), wk =   0.0370370
        k(    4) = (   0.0000000   0.0000000  -0.5000000), wk =   0.0185185
        k(    5) = (   0.0000000   0.1575061   0.0000000), wk =   0.0185185
        k(    6) = (   0.0000000   0.1575061   0.1666667), wk =   0.0740741
        k(    7) = (   0.0000000   0.1575061   0.3333333), wk =   0.0740741
        k(    8) = (   0.0000000   0.1575061  -0.5000000), wk =   0.0370370
        k(    9) = (   0.0000000   0.3150122   0.0000000), wk =   0.0185185
        k(   10) = (   0.0000000   0.3150122   0.1666667), wk =   0.0740741
        k(   11) = (   0.0000000   0.3150122   0.3333333), wk =   0.0740741
        k(   12) = (   0.0000000   0.3150122  -0.5000000), wk =   0.0370370
        k(   13) = (   0.0000000  -0.4725183   0.0000000), wk =   0.0092593
        k(   14) = (   0.0000000  -0.4725183   0.1666667), wk =   0.0370370
        k(   15) = (   0.0000000  -0.4725183   0.3333333), wk =   0.0370370
        k(   16) = (   0.0000000  -0.4725183  -0.5000000), wk =   0.0185185
        k(   17) = (   0.1666667   0.0000000   0.1666667), wk =   0.0370370
        k(   18) = (   0.1666667   0.0000000   0.3333333), wk =   0.0740741
        k(   19) = (   0.1666667   0.0000000  -0.5000000), wk =   0.0370370
        k(   20) = (   0.1666667   0.1575061   0.1666667), wk =   0.0740741
        k(   21) = (   0.1666667   0.1575061   0.3333333), wk =   0.1481481
        k(   22) = (   0.1666667   0.1575061  -0.5000000), wk =   0.0740741
        k(   23) = (   0.1666667   0.3150122   0.1666667), wk =   0.0740741
        k(   24) = (   0.1666667   0.3150122   0.3333333), wk =   0.1481481
        k(   25) = (   0.1666667   0.3150122  -0.5000000), wk =   0.0740741
        k(   26) = (   0.1666667  -0.4725183   0.1666667), wk =   0.0370370
        k(   27) = (   0.1666667  -0.4725183   0.3333333), wk =   0.0740741
        k(   28) = (   0.1666667  -0.4725183  -0.5000000), wk =   0.0370370
        k(   29) = (   0.3333333   0.0000000   0.3333333), wk =   0.0370370
        k(   30) = (   0.3333333   0.0000000  -0.5000000), wk =   0.0370370
        k(   31) = (   0.3333333   0.1575061   0.3333333), wk =   0.0740741
        k(   32) = (   0.3333333   0.1575061  -0.5000000), wk =   0.0740741
        k(   33) = (   0.3333333   0.3150122   0.3333333), wk =   0.0740741
        k(   34) = (   0.3333333   0.3150122  -0.5000000), wk =   0.0740741
        k(   35) = (   0.3333333  -0.4725183   0.3333333), wk =   0.0370370
        k(   36) = (   0.3333333  -0.4725183  -0.5000000), wk =   0.0370370
        k(   37) = (  -0.5000000   0.0000000  -0.5000000), wk =   0.0092593
        k(   38) = (  -0.5000000   0.1575061  -0.5000000), wk =   0.0185185
        k(   39) = (  -0.5000000   0.3150122  -0.5000000), wk =   0.0185185
        k(   40) = (  -0.5000000  -0.4725183  -0.5000000), wk =   0.0092593

     Initial potential from superposition of free atoms

     starting charge  367.99656, renormalised to  368.00000
     Starting wfc are  232 randomized atomic wfcs

     Self-consistent Calculation

     iteration #  1     ecut=   120.00 Ry     beta= 0.70
     Davidson diagonalization with overlap
     ethr =  1.00E-02,  avg # of iterations =  5.0

     total energy              =   -6253.97716055 Ry
     Harris-Foulkes estimate   =   -6264.58523063 Ry
     estimated scf accuracy    <      13.43120293 Ry

[...]

     End of self-consistent calculation

          k = 0.0000 0.0000 0.0000 ( 62239 PWs)   bands (ev):

   -66.1751 -66.1747 -66.1741 -66.1741 -66.1737 -66.1737 -66.1731 -66.1727
   -30.5653 -30.5614 -30.5614 -30.5577 -30.5264 -30.5229 -30.5196 -30.5196
   -30.5168 -30.5153 -30.5112 -30.5112 -30.5014 -30.5004 -30.5004 -30.5003
   -30.4227 -30.4227 -30.4193 -30.4178 -30.4161 -30.4161 -30.4122 -30.4111
   -20.3359 -20.3358 -20.3358 -20.3358 -20.3357 -20.3357 -20.3356 -20.3356
   -20.3176 -20.3173 -20.3173 -20.3171 -20.3140 -20.3137 -20.3133 -20.3133
   -20.3130 -20.3127 -20.3127 -20.3126 -20.3124 -20.3124 -20.3124 -20.3121
   -20.3118 -20.3114 -20.3114 -20.3113 -20.3106 -20.3105 -20.3104 -20.3100
   -20.3039 -20.3038 -20.3034 -20.3034 -20.3034 -20.3029 -20.3029 -20.3029
   -20.3003 -20.3003 -20.3000 -20.3000 -20.2999 -20.2998 -20.2996 -20.2996
   -20.2958 -20.2957 -20.2953 -20.2951 -20.2946 -20.2946 -20.2942 -20.2940
    -9.9499  -9.6777  -9.5046  -9.5046  -9.2444  -9.2444  -9.0575  -9.0550
    -9.0429  -8.8659  -8.8415  -8.8415  -7.8539  -7.7890  -7.7889  -7.7875
    -7.7873  -7.7644  -7.7580  -7.7357  -7.6347  -7.6347  -7.6100  -7.6100
     1.1865   1.1867   1.2704   1.2704   1.2888   1.2888   1.3811   1.6371
     1.6446   1.6446   1.6518   1.8607   2.3819   2.4557   2.5830   2.5906
     2.7352   2.7352   4.1340   4.1340   4.3534   4.3543   4.8306   4.8337
     4.8337   4.8519   4.8598   4.8598   5.0488   5.0488   5.0818   5.4496
     5.4497   5.5159   5.5159   5.5323   5.5323   5.5947   5.5947   5.8186
     5.8186   5.8789   5.8805   5.9303   5.9635   6.0214   6.0269   6.1014
     6.1023   6.2428   6.2439   6.5697   6.5697   6.8120   6.8120   6.8379
     6.8393   6.8701   7.0073   7.0137   7.0791   7.0791   7.3745   7.3745
     7.4251   7.4251   7.7714   7.7852   8.0712   8.0712   8.1347   8.1462
     9.2538   9.2586   9.9945   9.9973  10.0335  10.0335  12.2235  12.2235
[...]
W        0.244610020   0.218140012   0.750150034    0   0   0
W        0.750149990   0.781859972   0.755390012    0   0   0
W        0.744610010   0.281860003   0.749849998    0   0   0
W        0.250150034   0.718139997   0.744610020    0   0   0
W       -0.244610037   0.218140012  -0.750150017    0   0   0
W        0.249849998   0.781859972   0.244610010    0   0   0
O        0.255940012   0.008320000   0.254300009    0   0   0
O       -0.254300055   0.991680023  -0.744060037    0   0   0
O        0.244060037   0.491679992   0.754299989    0   0   0
O        0.754300009   0.508319977   0.755939995    0   0   0
O        0.744059991   0.008320000   0.745700026    0   0   0
O        0.254300006   0.991680023   0.744060020    0   0   0
O       -0.244060037   0.491679992  -0.754300055    0   0   0
O        0.245700043   0.508319977   0.244059991    0   0   0
O        0.498089975   0.256399998   0.699540004    0   0   0
O        0.499610013   0.745899960   0.800459963    0   0   0
O       -0.998089943   0.243599987   1.199540037    0   0   0
O        0.000389928   0.754099888   0.300460012    0   0   0
O        0.501910025   0.256399998   0.300460012    0   0   0
O        0.500389987   0.745899960   1.199540037    0   0   0
O       -0.001910084   0.243599987   0.800459963    0   0   0
O       -1.000389955   0.754099888   0.699540004    0   0   0
O        0.699540037   0.245899990   2.000389955    0   0   0
O        0.300459996   0.743599941   0.498089975    0   0   0
O        0.800459963   0.254099995   0.500389987    0   0   0
O        0.199540020   0.756399907   1.998089943    0   0   0
O        0.300459996   0.245899990   0.999610072    0   0   0
O        0.699540037   0.743599941   0.501910025    0   0   0
O        0.199540020   0.254099995   0.499610013    0   0   0
O        0.800459963   0.756399907   1.001910084    0   0   0
End final coordinates

     A final scf calculation at the relaxed structure.
     The G-vectors are recalculated for the final unit cell
     Results may differ from those at the preceding step.

     bravais-lattice index     =            0
     lattice parameter (alat)  =      13.8397  a.u.
     unit-cell volume          =    2802.9589 (a.u.)^3
     number of atoms/cell      =           32
     number of atomic types    =            2
     number of electrons       =       368.00
     number of Kohn-Sham states=          221
     kinetic-energy cutoff     =     120.0000  Ry
     charge density cutoff     =     480.0000  Ry
     convergence threshold     =      1.0E-10
     mixing beta               =       0.7000
     number of iterations used =            8  plain     mixing
     Exchange-correlation      = SLA PW NOGX NOGC ( 1  4  0  0 0 0)

     celldm(1)=  13.839685  celldm(2)=   0.000000  celldm(3)=   0.000000
     celldm(4)=   0.000000  celldm(5)=   0.000000  celldm(6)=   0.000000

     crystal axes: (cart. coord. in units of alat)
               a(1) = (   1.000087   0.000000   0.000000 )
               a(2) = (   0.000000   1.057213   0.000000 )
               a(3) = (   0.000000   0.000000   1.000087 )

     reciprocal axes: (cart. coord. in units 2 pi/alat)
               b(1) = (  0.999913  0.000000  0.000000 )
               b(2) = (  0.000000  0.945883  0.000000 )
               b(3) = (  0.000000  0.000000  0.999913 )

     PseudoPot. # 1 for W  read from file:
     /cluster/scratch/mnoe/QE/pps/W_ONCV_LDA-4.0.upf
     MD5 check sum: ba0307d5d4cd419d6f1d13dc49d7c13a
     Pseudo is Norm-conserving + core correction, Zval = 28.0
     Generated using ONCVPSP code by D. R. Hamann
     Using radial grid of 1380 points,  8 beta functions with:
                l(1) =   0
                l(2) =   0
                l(3) =   1
                l(4) =   1
                l(5) =   2
                l(6) =   2
                l(7) =   3
                l(8) =   3

     PseudoPot. # 2 for O  read from file:
     /cluster/scratch/mnoe/QE/pps/O_ONCV_LDA-3.0.upf
     MD5 check sum: a1bd6164e7280c17a38c229939bfbd54
     Pseudo is Norm-conserving + core correction, Zval =  6.0
     Generated using ONCVPSP code by D. R. Hamann
     Using radial grid of  926 points,  5 beta functions with:
                l(1) =   0
                l(2) =   0
                l(3) =   1
                l(4) =   1
                l(5) =   2

     atomic species   valence    mass     pseudopotential
        W             28.00   183.84000     W ( 1.00)
        O              6.00    15.99940     O ( 1.00)

      8 Sym. Ops. (no inversion) found ( 4 have fractional translation)

   Cartesian axes

     site n.     atom                  positions (alat units)
         1           W   tau(   1) = (   0.2554122   0.2979861   0.2501717  )
         2           W   tau(   2) = (  -0.2501718   0.7592271  -0.7446748  )
         3           W   tau(   3) = (   0.2446313   0.2306205   0.7502153  )
         4           W   tau(   4) = (   0.7502152   0.8265927   0.7554557  )
         5           W   tau(   5) = (   0.7446747   0.2979861   0.7499152  )
         6           W   tau(   6) = (   0.2501718   0.7592271   0.7446748  )
         7           W   tau(   7) = (  -0.2446313   0.2306205  -0.7502152  )
         8           W   tau(   8) = (   0.2498717   0.8265927   0.2446313  )
         9           O   tau(   9) = (   0.2559623   0.0087960   0.2543221  )
        10           O   tau(  10) = (  -0.2543222   1.0484172  -0.7441247  )
        11           O   tau(  11) = (   0.2440813   0.5198106   0.7543656  )
        12           O   tau(  12) = (   0.7543656   0.5374026   0.7560057  )
        13           O   tau(  13) = (   0.7441247   0.0087960   0.7457649  )
        14           O   tau(  14) = (   0.2543221   1.0484172   0.7441247  )
        15           O   tau(  15) = (  -0.2440813   0.5198106  -0.7543656  )
        16           O   tau(  16) = (   0.2457214   0.5374026   0.2440812  )
        17           O   tau(  17) = (   0.4981333   0.2710695   0.6996008  )
        18           O   tau(  18) = (   0.4996534   0.7885753   0.8005296  )
        19           O   tau(  19) = (  -0.9981767   0.2575371   1.1996443  )
        20           O   tau(  20) = (   0.0003900   0.7972443   0.3004861  )
        21           O   tau(  21) = (   0.5019537   0.2710695   0.3004861  )
        22           O   tau(  22) = (   0.5004335   0.7885753   1.1996443  )
        23           O   tau(  23) = (  -0.0019103   0.2575371   0.8005296  )
        24           O   tau(  24) = (  -1.0004769   0.7972443   0.6996008  )
        25           O   tau(  25) = (   0.6996009   0.2599687   2.0005639  )
        26           O   tau(  26) = (   0.3004861   0.7861437   0.4981333  )
        27           O   tau(  27) = (   0.8005296   0.2686379   0.5004335  )
        28           O   tau(  28) = (   0.1995574   0.7996759   1.9982637  )
        29           O   tau(  29) = (   0.3004861   0.2599687   0.9996970  )
        30           O   tau(  30) = (   0.6996009   0.7861437   0.5019537  )
        31           O   tau(  31) = (   0.1995574   0.2686379   0.4996534  )
        32           O   tau(  32) = (   0.8005296   0.7996759   1.0019972  )

     number of k points=    40  gaussian smearing, width (Ry)=  0.0007
                       cart. coord. in units 2pi/alat
        k(    1) = (   0.0000000   0.0000000   0.0000000), wk =   0.0092593
        k(    2) = (   0.0000000   0.0000000   0.1666522), wk =   0.0370370
        k(    3) = (   0.0000000   0.0000000   0.3333044), wk =   0.0370370
        k(    4) = (   0.0000000   0.0000000  -0.4999565), wk =   0.0185185
        k(    5) = (   0.0000000   0.1576472   0.0000000), wk =   0.0185185
        k(    6) = (   0.0000000   0.1576472   0.1666522), wk =   0.0740741
        k(    7) = (   0.0000000   0.1576472   0.3333044), wk =   0.0740741
        k(    8) = (   0.0000000   0.1576472  -0.4999565), wk =   0.0370370
        k(    9) = (   0.0000000   0.3152943   0.0000000), wk =   0.0185185
        k(   10) = (   0.0000000   0.3152943   0.1666522), wk =   0.0740741
        k(   11) = (   0.0000000   0.3152943   0.3333044), wk =   0.0740741
        k(   12) = (   0.0000000   0.3152943  -0.4999565), wk =   0.0370370
        k(   13) = (   0.0000000  -0.4729415   0.0000000), wk =   0.0092593
        k(   14) = (   0.0000000  -0.4729415   0.1666522), wk =   0.0370370
        k(   15) = (   0.0000000  -0.4729415   0.3333044), wk =   0.0370370
        k(   16) = (   0.0000000  -0.4729415  -0.4999565), wk =   0.0185185
        k(   17) = (   0.1666522   0.0000000   0.1666522), wk =   0.0370370
        k(   18) = (   0.1666522   0.0000000   0.3333044), wk =   0.0740741
        k(   19) = (   0.1666522   0.0000000  -0.4999565), wk =   0.0370370
        k(   20) = (   0.1666522   0.1576472   0.1666522), wk =   0.0740741
        k(   21) = (   0.1666522   0.1576472   0.3333044), wk =   0.1481481
        k(   22) = (   0.1666522   0.1576472  -0.4999565), wk =   0.0740741
        k(   23) = (   0.1666522   0.3152943   0.1666522), wk =   0.0740741
        k(   24) = (   0.1666522   0.3152943   0.3333044), wk =   0.1481481
        k(   25) = (   0.1666522   0.3152943  -0.4999565), wk =   0.0740741
        k(   26) = (   0.1666522  -0.4729415   0.1666522), wk =   0.0370370
        k(   27) = (   0.1666522  -0.4729415   0.3333044), wk =   0.0740741
        k(   28) = (   0.1666522  -0.4729415  -0.4999565), wk =   0.0370370
        k(   29) = (   0.3333044   0.0000000   0.3333044), wk =   0.0370370
        k(   30) = (   0.3333044   0.0000000  -0.4999565), wk =   0.0370370
        k(   31) = (   0.3333044   0.1576472   0.3333044), wk =   0.0740741
        k(   32) = (   0.3333044   0.1576472  -0.4999565), wk =   0.0740741
        k(   33) = (   0.3333044   0.3152943   0.3333044), wk =   0.0740741
        k(   34) = (   0.3333044   0.3152943  -0.4999565), wk =   0.0740741
        k(   35) = (   0.3333044  -0.4729415   0.3333044), wk =   0.0370370
        k(   36) = (   0.3333044  -0.4729415  -0.4999565), wk =   0.0370370
        k(   37) = (  -0.4999565   0.0000000  -0.4999565), wk =   0.0092593
        k(   38) = (  -0.4999565   0.1576472  -0.4999565), wk =   0.0185185
        k(   39) = (  -0.4999565   0.3152943  -0.4999565), wk =   0.0185185
        k(   40) = (  -0.4999565  -0.4729415  -0.4999565), wk =   0.0092593

     Initial potential from superposition of free atoms

     starting charge  367.99656, renormalised to  368.00000
     Starting wfc are  232 randomized atomic wfcs

     Writing output data file Landau_6.save

     Self-consistent Calculation

[...]

     total energy              =   -6261.10992753 Ry
     Harris-Foulkes estimate   =   -6261.10992753 Ry
     estimated scf accuracy    <          4.6E-10 Ry

     iteration # 14     ecut=   120.00 Ry     beta= 0.70
     Davidson diagonalization with overlap
     ethr =  1.26E-13,  avg # of iterations =  2.0

     End of self-consistent calculation

[...]

          k = 0.3333-0.4729-0.5000 ( 62152 PWs)   bands (ev):

[...]

          k =-0.5000-0.4729-0.5000 ( 62216 PWs)   bands (ev):

   -66.1599 -66.1599 -66.1599 -66.1599 -66.1599 -66.1599 -66.1599 -66.1599
   -30.5244 -30.5243 -30.5241 -30.5241 -30.5241 -30.5241 -30.5239 -30.5239
   -30.4563 -30.4562 -30.4562 -30.4562 -30.4561 -30.4561 -30.4558 -30.4558
   -30.4489 -30.4488 -30.4487 -30.4487 -30.4485 -30.4485 -30.4485 -30.4485
   -20.3211 -20.3211 -20.3211 -20.3211 -20.3210 -20.3210 -20.3210 -20.3210
   -20.3003 -20.3003 -20.3003 -20.3003 -20.3003 -20.3003 -20.3003 -20.3002
   -20.2983 -20.2982 -20.2982 -20.2982 -20.2982 -20.2982 -20.2982 -20.2981
   -20.2965 -20.2965 -20.2965 -20.2965 -20.2965 -20.2965 -20.2965 -20.2964
   -20.2872 -20.2872 -20.2872 -20.2872 -20.2872 -20.2872 -20.2872 -20.2872
   -20.2845 -20.2845 -20.2845 -20.2845 -20.2845 -20.2845 -20.2845 -20.2844
   -20.2825 -20.2825 -20.2825 -20.2825 -20.2825 -20.2825 -20.2825 -20.2825
    -8.9310  -8.9310  -8.9229  -8.9229  -8.9229  -8.9228  -8.9207  -8.9207
    -8.4149  -8.4149  -8.4049  -8.4049  -8.4049  -8.4049  -8.4016  -8.4016
    -8.3286  -8.3286  -8.3286  -8.3286  -8.3281  -8.3280  -8.3161  -8.3160
     2.9890   2.9890   2.9944   2.9944   2.9944   2.9944   3.0041   3.0041
     3.1492   3.1492   3.1591   3.1592   3.1592   3.1592   3.1735   3.1735
     3.4084   3.4084   3.4608   3.4608   3.4608   3.4608   3.4980   3.4980
     4.1523   4.1523   4.1637   4.1637   4.1637   4.1637   4.1679   4.1679
     4.3856   4.3856   4.3857   4.3857   4.3924   4.3925   4.3957   4.3957
     4.4699   4.4700   4.4863   4.4863   4.4863   4.4863   4.4900   4.4901
     7.1621   7.1621   7.2124   7.2124   7.2125   7.2125   7.2724   7.2725
     7.3428   7.3428   7.3492   7.3492   7.3492   7.3493   7.3521   7.3522
     7.5985   7.5985   7.6112   7.6112   7.6112   7.6112   7.6279   7.6280
    11.8104  11.8104  11.8122  11.8122  11.8122  11.8122  11.8170  11.8170
    12.2482  12.2482  12.2917  12.2917  12.2917  12.2917  12.3465  12.3465
    12.5244  12.5244  12.5494  12.5495  12.5495  12.5495  12.5661  12.5661
    17.1531  17.1532  17.1727  17.1728  17.1728  17.1728  17.1877  17.1878
    17.3737  17.3737  17.3737  17.3737  17.3908

     the Fermi energy is     9.1516 ev

!    total energy              =   -6261.10992753 Ry
     Harris-Foulkes estimate   =   -6261.10992753 Ry
     estimated scf accuracy    <          5.7E-11 Ry

     The total energy is the sum of the following terms:

     one-electron contribution =   -4718.13970888 Ry
     hartree contribution      =    2595.94244123 Ry
     xc contribution           =    -965.66893743 Ry
     ewald contribution        =   -3173.24372244 Ry
     smearing contrib. (-TS)   =      -0.00000000 Ry

     convergence has been achieved in  14 iterations

     Forces acting on atoms (cartesian axes, Ry/au):

     atom    1 type  1   force =     0.00129888   -0.00049304    0.00028248
     atom    2 type  1   force =    -0.00028248    0.00049304    0.00129888
     atom    3 type  1   force =    -0.00129888    0.00049304    0.00028248
     atom    4 type  1   force =     0.00028248   -0.00049304    0.00129888
     atom    5 type  1   force =    -0.00129888   -0.00049304   -0.00028248
     atom    6 type  1   force =     0.00028248    0.00049304   -0.00129888
     atom    7 type  1   force =     0.00129888    0.00049304   -0.00028248
     atom    8 type  1   force =    -0.00028248   -0.00049304   -0.00129888
     atom    9 type  2   force =     0.00032438    0.00031247    0.00004558
     atom   10 type  2   force =    -0.00004558   -0.00031247    0.00032438
     atom   11 type  2   force =    -0.00032438   -0.00031247    0.00004558
     atom   12 type  2   force =     0.00004558    0.00031247    0.00032438
     atom   13 type  2   force =    -0.00032438    0.00031247   -0.00004558
     atom   14 type  2   force =     0.00004558   -0.00031247   -0.00032438
     atom   15 type  2   force =     0.00032438   -0.00031247   -0.00004558
     atom   16 type  2   force =    -0.00004558    0.00031247   -0.00032438
     atom   17 type  2   force =     0.00057108    0.00044205    0.00005099
     atom   18 type  2   force =    -0.00018066    0.00058444   -0.00016739
     atom   19 type  2   force =    -0.00057108   -0.00044205    0.00005099
     atom   20 type  2   force =     0.00018066   -0.00058444   -0.00016739
     atom   21 type  2   force =    -0.00057108    0.00044205   -0.00005099
     atom   22 type  2   force =     0.00018066    0.00058444    0.00016739
     atom   23 type  2   force =     0.00057108   -0.00044205   -0.00005099
     atom   24 type  2   force =    -0.00018066   -0.00058444    0.00016739
     atom   25 type  2   force =     0.00016739    0.00058444    0.00018066
     atom   26 type  2   force =    -0.00005099   -0.00044205    0.00057108
     atom   27 type  2   force =    -0.00016739   -0.00058444    0.00018066
     atom   28 type  2   force =     0.00005099    0.00044205    0.00057108
     atom   29 type  2   force =    -0.00016739    0.00058444   -0.00018066
     atom   30 type  2   force =     0.00005099   -0.00044205   -0.00057108
     atom   31 type  2   force =     0.00016739   -0.00058444   -0.00018066
     atom   32 type  2   force =    -0.00005099    0.00044205   -0.00057108

     Total force =     0.000000     Total SCF correction =     0.000000

     Computing stress (Cartesian axis) and pressure

          total   stress  (Ry/bohr**3)                   (kbar)     P=   -0.02
  -0.00000009   0.00000000   0.00000000         -0.01      0.00      0.00
   0.00000000  -0.00000033   0.00000000          0.00     -0.05      0.00
   0.00000000   0.00000000  -0.00000009          0.00      0.00     -0.01

     Writing output data file Landau_6.save

     General routines

     Parallel routines

   This run was terminated on:   1: 5: 9   1May2019

   JOB DONE.