     Program PWSCF v.6.4.1 starts on 21Nov2019 at 18: 3: 2

     K-points division:     npool     =      40
     Reading input from rscf.in

     Current dimensions of program PWSCF are:
     Max number of different atomic species (ntypx) = 10
     Max number of k-points (npk) =  40000
     Max angular momentum in pseudopotentials (lmaxx) =  3

     Subspace diagonalization in iterative solution of the eigenvalue problem:
     a serial algorithm will be used

     Message from routine setup:
     using ibrav=0 with symmetry is DISCOURAGED, use correct ibrav instead

     bravais-lattice index     =            0
     lattice parameter (alat)  =       9.7849  a.u.
     unit-cell volume          =    1402.1515 (a.u.)^3
     number of atoms/cell      =           16
     number of atomic types    =            2
     number of electrons       =       184.00
     number of Kohn-Sham states=          110
     kinetic-energy cutoff     =     120.0000  Ry
     charge density cutoff     =     480.0000  Ry
     convergence threshold     =      1.0E-08
     mixing beta               =       0.7000
     number of iterations used =            8  plain     mixing
     Exchange-correlation      = SLA PW NOGX NOGC ( 1  4  0  0 0 0)
     nstep                     =           50

     celldm(1)=   9.784926  celldm(2)=   0.000000  celldm(3)=   0.000000
     celldm(4)=   0.000000  celldm(5)=   0.000000  celldm(6)=   0.000000

     crystal axes: (cart. coord. in units of alat)
               a(1) = (   1.000000   0.000000   0.000000 )
               a(2) = (   0.000000   1.000000   0.000000 )
               a(3) = (   0.000000   0.000000   1.496657 )

     reciprocal axes: (cart. coord. in units 2 pi/alat)
               b(1) = (  1.000000  0.000000  0.000000 )
               b(2) = (  0.000000  1.000000  0.000000 )
               b(3) = (  0.000000  0.000000  0.668156 )

     PseudoPot. # 1 for W  read from file:
     /cluster/scratch/mnoe/QE/pps/W_ONCV_LDA-4.0.upf
     MD5 check sum: ba0307d5d4cd419d6f1d13dc49d7c13a
     Pseudo is Norm-conserving + core correction, Zval = 28.0
     Generated using ONCVPSP code by D. R. Hamann
     Using radial grid of 1380 points,  8 beta functions with:
                l(1) =   0
                l(2) =   0
                l(3) =   1
                l(4) =   1
                l(5) =   2
                l(6) =   2
                l(7) =   3
                l(8) =   3

     PseudoPot. # 2 for O  read from file:
     /cluster/scratch/mnoe/QE/pps/O_ONCV_LDA-3.0.upf
     MD5 check sum: b55cdb4f45ae2203d24ad12cf8d61a31
     Pseudo is Norm-conserving + core correction, Zval =  6.0
     Generated using ONCVPSP code by D. R. Hamann
     Using radial grid of  926 points,  5 beta functions with:
                l(1) =   0
                l(2) =   0
                l(3) =   1
                l(4) =   1
                l(5) =   2

     atomic species   valence    mass     pseudopotential
        W             28.00   183.84000     W ( 1.00)
        O              6.00    15.99940     O ( 1.00)

     16 Sym. Ops., with inversion, found (14 have fractional translation)

   Cartesian axes

     site n.     atom                  positions (alat units)
         1           W   tau(   1) = (   0.2500000   0.2500000   0.3076508  )
         2           W   tau(   2) = (   0.7500000   0.7500000   1.1890063  )
         3           W   tau(   3) = (   0.7500000   0.7500000   0.4406778  )
         4           W   tau(   4) = (   0.2500000   0.2500000   1.0559792  )
         5           O   tau(   5) = (   0.2500000   0.2500000   0.7002839  )
         6           O   tau(   6) = (   0.7500000   0.7500000   0.7963731  )
         7           O   tau(   7) = (   0.7500000   0.7500000   0.0480446  )
         8           O   tau(   8) = (   0.2500000   0.2500000   1.4486124  )
         9           O   tau(   9) = (   0.5143603   0.4856397   0.3741643  )
        10           O   tau(  10) = (   0.4856397   0.5143603   1.1224928  )
        11           O   tau(  11) = (  -0.0143603   1.0143603   0.3741643  )
        12           O   tau(  12) = (   1.0143602  -0.0143602   1.1224928  )
        13           O   tau(  13) = (   1.0143603   0.5143603   0.3741643  )
        14           O   tau(  14) = (  -0.0143602   0.4856397   1.1224928  )
        15           O   tau(  15) = (   0.4856397  -0.0143603   0.3741643  )
        16           O   tau(  16) = (   0.5143603   1.0143602   1.1224928  )

     number of k points=    60  gaussian smearing, width (Ry)=  0.0007
                       cart. coord. in units 2pi/alat
        k(    1) = (   0.0000000   0.0000000   0.0000000), wk =   0.0041152
        k(    2) = (   0.0000000   0.0000000   0.1113593), wk =   0.0082305
        k(    3) = (   0.0000000   0.0000000   0.2227186), wk =   0.0082305
        k(    4) = (   0.0000000   0.0000000  -0.3340779), wk =   0.0041152
        k(    5) = (   0.0000000   0.1111111   0.0000000), wk =   0.0164609
        k(    6) = (   0.0000000   0.1111111   0.1113593), wk =   0.0329218
        k(    7) = (   0.0000000   0.1111111   0.2227186), wk =   0.0329218
        k(    8) = (   0.0000000   0.1111111  -0.3340779), wk =   0.0164609
        k(    9) = (   0.0000000   0.2222222   0.0000000), wk =   0.0164609
        k(   10) = (   0.0000000   0.2222222   0.1113593), wk =   0.0329218
        k(   11) = (   0.0000000   0.2222222   0.2227186), wk =   0.0329218
        k(   12) = (   0.0000000   0.2222222  -0.3340779), wk =   0.0164609
        k(   13) = (   0.0000000   0.3333333   0.0000000), wk =   0.0164609
        k(   14) = (   0.0000000   0.3333333   0.1113593), wk =   0.0329218
        k(   15) = (   0.0000000   0.3333333   0.2227186), wk =   0.0329218
        k(   16) = (   0.0000000   0.3333333  -0.3340779), wk =   0.0164609
        k(   17) = (   0.0000000   0.4444444   0.0000000), wk =   0.0164609
        k(   18) = (   0.0000000   0.4444444   0.1113593), wk =   0.0329218
        k(   19) = (   0.0000000   0.4444444   0.2227186), wk =   0.0329218
        k(   20) = (   0.0000000   0.4444444  -0.3340779), wk =   0.0164609
        k(   21) = (   0.1111111   0.1111111   0.0000000), wk =   0.0164609
        k(   22) = (   0.1111111   0.1111111   0.1113593), wk =   0.0329218
        k(   23) = (   0.1111111   0.1111111   0.2227186), wk =   0.0329218
        k(   24) = (   0.1111111   0.1111111  -0.3340779), wk =   0.0164609
        k(   25) = (   0.1111111   0.2222222   0.0000000), wk =   0.0329218
        k(   26) = (   0.1111111   0.2222222   0.1113593), wk =   0.0658436
        k(   27) = (   0.1111111   0.2222222   0.2227186), wk =   0.0658436
        k(   28) = (   0.1111111   0.2222222  -0.3340779), wk =   0.0329218
        k(   29) = (   0.1111111   0.3333333   0.0000000), wk =   0.0329218
        k(   30) = (   0.1111111   0.3333333   0.1113593), wk =   0.0658436
        k(   31) = (   0.1111111   0.3333333   0.2227186), wk =   0.0658436
        k(   32) = (   0.1111111   0.3333333  -0.3340779), wk =   0.0329218
        k(   33) = (   0.1111111   0.4444444   0.0000000), wk =   0.0329218
        k(   34) = (   0.1111111   0.4444444   0.1113593), wk =   0.0658436
        k(   35) = (   0.1111111   0.4444444   0.2227186), wk =   0.0658436
        k(   36) = (   0.1111111   0.4444444  -0.3340779), wk =   0.0329218
        k(   37) = (   0.2222222   0.2222222   0.0000000), wk =   0.0164609
        k(   38) = (   0.2222222   0.2222222   0.1113593), wk =   0.0329218
        k(   39) = (   0.2222222   0.2222222   0.2227186), wk =   0.0329218
        k(   40) = (   0.2222222   0.2222222  -0.3340779), wk =   0.0164609
        k(   41) = (   0.2222222   0.3333333   0.0000000), wk =   0.0329218
        k(   42) = (   0.2222222   0.3333333   0.1113593), wk =   0.0658436
        k(   43) = (   0.2222222   0.3333333   0.2227186), wk =   0.0658436
        k(   44) = (   0.2222222   0.3333333  -0.3340779), wk =   0.0329218
        k(   45) = (   0.2222222   0.4444444   0.0000000), wk =   0.0329218
        k(   46) = (   0.2222222   0.4444444   0.1113593), wk =   0.0658436
        k(   47) = (   0.2222222   0.4444444   0.2227186), wk =   0.0658436
        k(   48) = (   0.2222222   0.4444444  -0.3340779), wk =   0.0329218
        k(   49) = (   0.3333333   0.3333333   0.0000000), wk =   0.0164609
        k(   50) = (   0.3333333   0.3333333   0.1113593), wk =   0.0329218
        k(   51) = (   0.3333333   0.3333333   0.2227186), wk =   0.0329218
        k(   52) = (   0.3333333   0.3333333  -0.3340779), wk =   0.0164609
        k(   53) = (   0.3333333   0.4444444   0.0000000), wk =   0.0329218
        k(   54) = (   0.3333333   0.4444444   0.1113593), wk =   0.0658436
        k(   55) = (   0.3333333   0.4444444   0.2227186), wk =   0.0658436
        k(   56) = (   0.3333333   0.4444444  -0.3340779), wk =   0.0329218
        k(   57) = (   0.4444444   0.4444444   0.0000000), wk =   0.0164609
        k(   58) = (   0.4444444   0.4444444   0.1113593), wk =   0.0329218
        k(   59) = (   0.4444444   0.4444444   0.2227186), wk =   0.0329218
        k(   60) = (   0.4444444   0.4444444  -0.3340779), wk =   0.0164609

     Initial potential from superposition of free atoms

     starting charge  183.99828, renormalised to  184.00000
     Starting wfcs are  116 randomized atomic wfcs

     Self-consistent Calculation

     iteration #  1     ecut=   120.00 Ry     beta= 0.70
     Davidson diagonalization with overlap
     ethr =  1.00E-02,  avg # of iterations =  4.3

     total energy              =   -3126.74385022 Ry
     Harris-Foulkes estimate   =   -3132.26513300 Ry
     estimated scf accuracy    <       6.98200842 Ry

[...]

     End of self-consistent calculation

          k = 0.0000 0.0000 0.0000 ( 31095 PWs)   bands (ev):

   -66.1974 -66.1970 -66.1958 -66.1954 -30.5817 -30.5817 -30.5783 -30.5783
   -30.4925 -30.4925 -30.4900 -30.4900 -30.4505 -30.4471 -30.3910 -30.3890
   -20.3622 -20.3621 -20.3621 -20.3620 -20.3607 -20.3607 -20.3607 -20.3607
   -20.3581 -20.3581 -20.3581 -20.3581 -20.3356 -20.3355 -20.3350 -20.3348
   -20.3274 -20.3269 -20.3238 -20.3238 -20.3226 -20.3226 -20.3216 -20.3213
   -20.3213 -20.3211 -20.3201 -20.3201 -10.0600  -9.7817  -9.1127  -9.0927
    -8.8415  -8.5847  -7.7798  -7.7798  -7.7623  -7.7623  -7.5724  -7.4218
     0.9393   0.9442   1.3386   1.3962   1.6189   1.7542   2.3031   2.4008
     2.5471   2.5471   3.8473   3.8473   4.9596   5.2810   5.2810   5.6113
     5.6113   5.9264   5.9264   6.0137   6.2049   6.2796   6.2796   6.8251
     6.8251   6.8693   7.1096   7.1687   7.1687   7.2437   7.2437   7.3741
     8.3824   8.3879   8.5112   8.5112   8.9493   8.9651   9.6339   9.6339
    12.3199  12.3199  13.4635  13.5497  13.5497  13.7810  13.7957  14.2489
    14.2489  14.5564  14.5566  14.6714  15.3080  16.4830

[...]

     the Fermi energy is     8.7739 ev

!    total energy              =   -3130.46187606 Ry
     Harris-Foulkes estimate   =   -3130.46187606 Ry
     estimated scf accuracy    <          2.4E-09 Ry

     The total energy is the sum of the following terms:

     one-electron contribution =   -2372.35303998 Ry
     hartree contribution      =    1304.64077894 Ry
[...]
O        0.485639688  -0.014360283   0.250000000    0   0   0
O        0.514360312   1.014360220   0.750000000    0   0   0

     Writing output data file Landau_37.save/
     NEW-OLD atomic charge density approx. for the potential
     extrapolated charge  185.15121, renormalised to  184.00000

[...]

     enthalpy old            =   -3130.4618760620 Ry
     enthalpy new            =   -3130.4773863171 Ry

     CASE: enthalpy_new < enthalpy_old

[...]

     number of scf cycles    =   4
     number of bfgs steps    =   3

     enthalpy old            =   -3130.4774175406 Ry
     enthalpy new            =   -3130.4774226789 Ry

     CASE: enthalpy_new < enthalpy_old

     small trust_radius: resetting bfgs history

     new trust radius        =       0.0000490939 bohr
     new conv_thr            =            1.0E-10 Ry

     new unit-cell volume =   1409.19154 a.u.^3 (   208.82064 Ang^3 )
     density =      7.37430 g/cm^3

[...]

ATOMIC_POSITIONS (crystal)
W        0.250000000   0.250000000   0.205558628    0   0   0
W        0.750000023   0.750000023   0.794441387    0   0   0
W        0.750000023   0.750000023   0.294441387    0   0   0
W        0.250000000   0.250000000   0.705558613    0   0   0
O        0.250000000   0.250000000   0.467898750    0   0   0
O        0.750000023   0.750000023   0.532101250    0   0   0
O        0.750000023   0.750000023   0.032101263    0   0   0
O        0.250000000   0.250000000   0.967898750    0   0   0
O        0.514360266   0.485639688   0.250000000    0   0   0
O        0.485639734   0.514360312   0.750000000    0   0   0
O       -0.014360283   1.014360312   0.250000000    0   0   0
O        1.014360220  -0.014360249   0.750000000    0   0   0
O        1.014360312   0.514360266   0.250000000    0   0   0
O       -0.014360249   0.485639734   0.750000000    0   0   0
O        0.485639688  -0.014360283   0.250000000    0   0   0
O        0.514360312   1.014360220   0.750000000    0   0   0

     Writing output data file Landau_37.save/
     NEW-OLD atomic charge density approx. for the potential
     extrapolated charge  183.99645, renormalised to  184.00000

[...]

     Threshold (ethr) on eigenvalues was too large:
     Diagonalizing with lowered threshold

     Davidson diagonalization with overlap
     ethr =  7.49E-10,  avg # of iterations =  2.1

[...]

     bfgs converged in   5 scf cycles and   4 bfgs steps
     (criteria: energy <  1.0E-07 Ry, force <  1.0E-07Ry/Bohr, cell <  5.0E-01kbar)

     End of BFGS Geometry Optimization

     Final enthalpy =   -3130.4774226769 Ry
Begin final coordinates
     new unit-cell volume =   1409.19154 a.u.^3 (   208.82064 Ang^3 )
     density =      7.37430 g/cm^3

CELL_PARAMETERS (angstrom)
   5.236837533   0.000000000   0.000000000
   0.000000000   5.236837533   0.000000000
   0.000000000   0.000000000   7.614391776

ATOMIC_POSITIONS (crystal)
W        0.250000000   0.250000000   0.205558628    0   0   0
W        0.750000023   0.750000023   0.794441387    0   0   0
W        0.750000023   0.750000023   0.294441387    0   0   0
W        0.250000000   0.250000000   0.705558613    0   0   0
O        0.250000000   0.250000000   0.467898750    0   0   0
O        0.750000023   0.750000023   0.532101250    0   0   0
O        0.750000023   0.750000023   0.032101263    0   0   0
O        0.250000000   0.250000000   0.967898750    0   0   0
O        0.514360266   0.485639688   0.250000000    0   0   0
O        0.485639734   0.514360312   0.750000000    0   0   0
O       -0.014360283   1.014360312   0.250000000    0   0   0
O        1.014360220  -0.014360249   0.750000000    0   0   0
O        1.014360312   0.514360266   0.250000000    0   0   0
O       -0.014360249   0.485639734   0.750000000    0   0   0
O        0.485639688  -0.014360283   0.250000000    0   0   0
O        0.514360312   1.014360220   0.750000000    0   0   0
End final coordinates

     Writing output data file Landau_37.save/

     Final scf calculation at the relaxed structure.
     The G-vectors are recalculated for the final unit cell
     Results may differ from those at the preceding step.

     bravais-lattice index     =            0
     lattice parameter (alat)  =       9.7849  a.u.
     unit-cell volume          =    1409.1915 (a.u.)^3
     number of atoms/cell      =           16
     number of atomic types    =            2
     number of electrons       =       184.00
     number of Kohn-Sham states=          110
     kinetic-energy cutoff     =     120.0000  Ry
     charge density cutoff     =     480.0000  Ry
     convergence threshold     =      1.0E-10
     mixing beta               =       0.7000
     number of iterations used =            8  plain     mixing
     Exchange-correlation      = SLA PW NOGX NOGC ( 1  4  0  0 0 0)

     celldm(1)=   9.784926  celldm(2)=   0.000000  celldm(3)=   0.000000
     celldm(4)=   0.000000  celldm(5)=   0.000000  celldm(6)=   0.000000

     crystal axes: (cart. coord. in units of alat)
               a(1) = (   1.011371   0.000000   0.000000 )
               a(2) = (   0.000000   1.011371   0.000000 )
               a(3) = (   0.000000   0.000000   1.470539 )

     reciprocal axes: (cart. coord. in units 2 pi/alat)
               b(1) = (  0.988757  0.000000  0.000000 )
               b(2) = (  0.000000  0.988757  0.000000 )
               b(3) = (  0.000000  0.000000  0.680023 )

     PseudoPot. # 1 for W  read from file:
     /cluster/scratch/mnoe/QE/pps/W_ONCV_LDA-4.0.upf
     MD5 check sum: ba0307d5d4cd419d6f1d13dc49d7c13a
     Pseudo is Norm-conserving + core correction, Zval = 28.0
     Generated using ONCVPSP code by D. R. Hamann
     Using radial grid of 1380 points,  8 beta functions with:
                l(1) =   0
                l(2) =   0
                l(3) =   1
                l(4) =   1
                l(5) =   2
                l(6) =   2
                l(7) =   3
                l(8) =   3

     PseudoPot. # 2 for O  read from file:
     /cluster/scratch/mnoe/QE/pps/O_ONCV_LDA-3.0.upf
     MD5 check sum: b55cdb4f45ae2203d24ad12cf8d61a31
     Pseudo is Norm-conserving + core correction, Zval =  6.0
     Generated using ONCVPSP code by D. R. Hamann
     Using radial grid of  926 points,  5 beta functions with:
                l(1) =   0
                l(2) =   0
                l(3) =   1
                l(4) =   1
                l(5) =   2

     atomic species   valence    mass     pseudopotential
        W             28.00   183.84000     W ( 1.00)
        O              6.00    15.99940     O ( 1.00)

     16 Sym. Ops., with inversion, found (14 have fractional translation)

   Cartesian axes

     site n.     atom                  positions (alat units)
         1           W   tau(   1) = (   0.2528427   0.2528427   0.3022820  )
         2           W   tau(   2) = (   0.7585281   0.7585281   1.1682570  )
         3           W   tau(   3) = (   0.7585281   0.7585281   0.4329875  )
         4           W   tau(   4) = (   0.2528427   0.2528427   1.0375514  )
         5           O   tau(   5) = (   0.2528427   0.2528427   0.6880633  )
         6           O   tau(   6) = (   0.7585281   0.7585281   0.7824756  )
         7           O   tau(   7) = (   0.7585281   0.7585281   0.0472062  )
         8           O   tau(   8) = (   0.2528427   0.2528427   1.4233328  )
         9           O   tau(   9) = (   0.5202090   0.4911618   0.3676347  )
        10           O   tau(  10) = (   0.4911619   0.5202090   1.1029042  )
        11           O   tau(  11) = (  -0.0145236   1.0258944   0.3676347  )
        12           O   tau(  12) = (   1.0258943  -0.0145235   1.1029042  )
        13           O   tau(  13) = (   1.0258944   0.5202090   0.3676347  )
        14           O   tau(  14) = (  -0.0145235   0.4911619   1.1029042  )
        15           O   tau(  15) = (   0.4911618  -0.0145236   0.3676347  )
        16           O   tau(  16) = (   0.5202090   1.0258943   1.1029042  )

     number of k points=    60  gaussian smearing, width (Ry)=  0.0007
                       cart. coord. in units 2pi/alat
        k(    1) = (   0.0000000   0.0000000   0.0000000), wk =   0.0041152
        k(    2) = (   0.0000000   0.0000000   0.1133371), wk =   0.0082305
        k(    3) = (   0.0000000   0.0000000   0.2266743), wk =   0.0082305
        k(    4) = (   0.0000000   0.0000000  -0.3400114), wk =   0.0041152
        k(    5) = (   0.0000000   0.1098619   0.0000000), wk =   0.0164609
        k(    6) = (   0.0000000   0.1098619   0.1133371), wk =   0.0329218
        k(    7) = (   0.0000000   0.1098619   0.2266743), wk =   0.0329218
        k(    8) = (   0.0000000   0.1098619  -0.3400114), wk =   0.0164609
        k(    9) = (   0.0000000   0.2197238   0.0000000), wk =   0.0164609
        k(   10) = (   0.0000000   0.2197238   0.1133371), wk =   0.0329218
        k(   11) = (   0.0000000   0.2197238   0.2266743), wk =   0.0329218
        k(   12) = (   0.0000000   0.2197238  -0.3400114), wk =   0.0164609
        k(   13) = (   0.0000000   0.3295857   0.0000000), wk =   0.0164609
        k(   14) = (   0.0000000   0.3295857   0.1133371), wk =   0.0329218
        k(   15) = (   0.0000000   0.3295857   0.2266743), wk =   0.0329218
        k(   16) = (   0.0000000   0.3295857  -0.3400114), wk =   0.0164609
        k(   17) = (   0.0000000   0.4394476   0.0000000), wk =   0.0164609
        k(   18) = (   0.0000000   0.4394476   0.1133371), wk =   0.0329218
        k(   19) = (   0.0000000   0.4394476   0.2266743), wk =   0.0329218
        k(   20) = (   0.0000000   0.4394476  -0.3400114), wk =   0.0164609
        k(   21) = (   0.1098619   0.1098619   0.0000000), wk =   0.0164609
        k(   22) = (   0.1098619   0.1098619   0.1133371), wk =   0.0329218
        k(   23) = (   0.1098619   0.1098619   0.2266743), wk =   0.0329218
        k(   24) = (   0.1098619   0.1098619  -0.3400114), wk =   0.0164609
        k(   25) = (   0.1098619   0.2197238   0.0000000), wk =   0.0329218
        k(   26) = (   0.1098619   0.2197238   0.1133371), wk =   0.0658436
        k(   27) = (   0.1098619   0.2197238   0.2266743), wk =   0.0658436
        k(   28) = (   0.1098619   0.2197238  -0.3400114), wk =   0.0329218
        k(   29) = (   0.1098619   0.3295857   0.0000000), wk =   0.0329218
        k(   30) = (   0.1098619   0.3295857   0.1133371), wk =   0.0658436
        k(   31) = (   0.1098619   0.3295857   0.2266743), wk =   0.0658436
        k(   32) = (   0.1098619   0.3295857  -0.3400114), wk =   0.0329218
        k(   33) = (   0.1098619   0.4394476   0.0000000), wk =   0.0329218
        k(   34) = (   0.1098619   0.4394476   0.1133371), wk =   0.0658436
        k(   35) = (   0.1098619   0.4394476   0.2266743), wk =   0.0658436
        k(   36) = (   0.1098619   0.4394476  -0.3400114), wk =   0.0329218
        k(   37) = (   0.2197238   0.2197238   0.0000000), wk =   0.0164609
        k(   38) = (   0.2197238   0.2197238   0.1133371), wk =   0.0329218
        k(   39) = (   0.2197238   0.2197238   0.2266743), wk =   0.0329218
        k(   40) = (   0.2197238   0.2197238  -0.3400114), wk =   0.0164609
        k(   41) = (   0.2197238   0.3295857   0.0000000), wk =   0.0329218
        k(   42) = (   0.2197238   0.3295857   0.1133371), wk =   0.0658436
        k(   43) = (   0.2197238   0.3295857   0.2266743), wk =   0.0658436
        k(   44) = (   0.2197238   0.3295857  -0.3400114), wk =   0.0329218
        k(   45) = (   0.2197238   0.4394476   0.0000000), wk =   0.0329218
        k(   46) = (   0.2197238   0.4394476   0.1133371), wk =   0.0658436
        k(   47) = (   0.2197238   0.4394476   0.2266743), wk =   0.0658436
        k(   48) = (   0.2197238   0.4394476  -0.3400114), wk =   0.0329218
        k(   49) = (   0.3295857   0.3295857   0.0000000), wk =   0.0164609
        k(   50) = (   0.3295857   0.3295857   0.1133371), wk =   0.0329218
        k(   51) = (   0.3295857   0.3295857   0.2266743), wk =   0.0329218
        k(   52) = (   0.3295857   0.3295857  -0.3400114), wk =   0.0164609
        k(   53) = (   0.3295857   0.4394476   0.0000000), wk =   0.0329218
        k(   54) = (   0.3295857   0.4394476   0.1133371), wk =   0.0658436
        k(   55) = (   0.3295857   0.4394476   0.2266743), wk =   0.0658436
        k(   56) = (   0.3295857   0.4394476  -0.3400114), wk =   0.0329218
        k(   57) = (   0.4394476   0.4394476   0.0000000), wk =   0.0164609
        k(   58) = (   0.4394476   0.4394476   0.1133371), wk =   0.0329218
        k(   59) = (   0.4394476   0.4394476   0.2266743), wk =   0.0329218
        k(   60) = (   0.4394476   0.4394476  -0.3400114), wk =   0.0164609

     Initial potential from superposition of free atoms

     starting charge  183.99828, renormalised to  184.00000
     Starting wfcs are  116 randomized atomic wfcs

     Self-consistent Calculation

[...]

     total energy              =   -3130.47752849 Ry
     Harris-Foulkes estimate   =   -3130.47752849 Ry
     estimated scf accuracy    <          7.5E-10 Ry

     iteration # 13     ecut=   120.00 Ry     beta= 0.70
     Davidson diagonalization with overlap
     ethr =  4.09E-13,  avg # of iterations =  2.9

     End of self-consistent calculation

[...]

          k = 0.4394 0.4394-0.3400 ( 31330 PWs)   bands (ev):

   -66.2856 -66.2856 -66.2855 -66.2855 -30.6241 -30.6241 -30.6220 -30.6220
   -30.5701 -30.5701 -30.5696 -30.5696 -30.5399 -30.5399 -30.5378 -30.5378
   -20.4587 -20.4587 -20.4586 -20.4586 -20.4564 -20.4564 -20.4563 -20.4563
   -20.4532 -20.4532 -20.4531 -20.4531 -20.4296 -20.4296 -20.4296 -20.4296
   -20.4174 -20.4174 -20.4173 -20.4173 -20.4137 -20.4137 -20.4137 -20.4136
   -20.4115 -20.4115 -20.4114 -20.4114  -9.4151  -9.4151  -9.3749  -9.3749
    -8.4556  -8.4556  -8.4498  -8.4498  -7.8784  -7.8784  -7.8277  -7.8277
     1.2530   1.2530   1.3627   1.3627   3.0126   3.0126   3.0226   3.0226
     3.2962   3.2962   3.3168   3.3169   4.5087   4.5087   4.7016   4.7016
     5.2707   5.2707   5.4110   5.4110   5.8150   5.8150   5.9768   5.9768
     6.2784   6.2784   6.4084   6.4084   6.7481   6.7481   6.8579   6.8579
     7.6094   7.6094   7.6163   7.6163  11.1629  11.1629  11.2195  11.2195
    12.3219  12.3219  12.4286  12.4286  13.4982  13.4982  13.5946  13.5946
    14.9614  14.9614  15.1500  15.1501  17.8745  17.8745

     the Fermi energy is     8.6851 ev

!    total energy              =   -3130.47752849 Ry
     Harris-Foulkes estimate   =   -3130.47752849 Ry
     estimated scf accuracy    <          9.1E-12 Ry

     The total energy is the sum of the following terms:

     one-electron contribution =   -2376.34272015 Ry
     hartree contribution      =    1306.07557724 Ry
     xc contribution           =    -482.86622957 Ry
     ewald contribution        =   -1577.34415601 Ry
     smearing contrib. (-TS)   =      -0.00000000 Ry

     convergence has been achieved in  13 iterations

     Forces acting on atoms (cartesian axes, Ry/au):

     atom    1 type  1   force =     0.00000000    0.00000000   -0.02538500
     atom    2 type  1   force =     0.00000000    0.00000000    0.02538500
     atom    3 type  1   force =     0.00000000    0.00000000    0.02538500
     atom    4 type  1   force =     0.00000000    0.00000000   -0.02538500
     atom    5 type  2   force =     0.00000000    0.00000000    0.11885167
     atom    6 type  2   force =     0.00000000    0.00000000   -0.11885167
     atom    7 type  2   force =     0.00000000    0.00000000   -0.11885167
     atom    8 type  2   force =     0.00000000    0.00000000    0.11885167
     atom    9 type  2   force =     0.00121971   -0.00121971    0.00000000
     atom   10 type  2   force =    -0.00121971    0.00121971    0.00000000
     atom   11 type  2   force =    -0.00121971    0.00121971    0.00000000
     atom   12 type  2   force =     0.00121971   -0.00121971    0.00000000
     atom   13 type  2   force =     0.00121971    0.00121971    0.00000000
     atom   14 type  2   force =    -0.00121971   -0.00121971    0.00000000
     atom   15 type  2   force =    -0.00121971   -0.00121971    0.00000000
     atom   16 type  2   force =     0.00121971    0.00121971    0.00000000

     Total force =     0.000000     Total SCF correction =     0.000000

     Computing stress (Cartesian axis) and pressure

          total   stress  (Ry/bohr**3)                   (kbar)     P=    0.40
   0.00000448   0.00000000   0.00000000          0.66      0.00      0.00
   0.00000000   0.00000448   0.00000000          0.00      0.66      0.00
   0.00000000   0.00000000  -0.00000090          0.00      0.00     -0.13

     Writing output data file Landau_37.save/

     General routines

     Parallel routines

   This run was terminated on:  18:46:45  21Nov2019

   JOB DONE.