     Program PWSCF v.6.4.1 starts on 19Nov2019 at 19: 6:25

     K-points division:     npool     =      40
     Reading input from rscf.in

     Current dimensions of program PWSCF are:
     Max number of different atomic species (ntypx) = 10
     Max number of k-points (npk) =  40000
     Max angular momentum in pseudopotentials (lmaxx) =  3

     Subspace diagonalization in iterative solution of the eigenvalue problem:
     a serial algorithm will be used

     Message from routine setup:
     using ibrav=0 with symmetry is DISCOURAGED, use correct ibrav instead

     bravais-lattice index     =            0
     lattice parameter (alat)  =       9.7849  a.u.
     unit-cell volume          =    1402.1515 (a.u.)^3
     number of atoms/cell      =           16
     number of atomic types    =            2
     number of electrons       =       184.00
     number of Kohn-Sham states=          110
     kinetic-energy cutoff     =     120.0000  Ry
     charge density cutoff     =     480.0000  Ry
     convergence threshold     =      1.0E-08
     mixing beta               =       0.7000
     number of iterations used =            8  plain     mixing
     Exchange-correlation      = SLA PW NOGX NOGC ( 1  4  0  0 0 0)
     nstep                     =           50

     celldm(1)=   9.784926  celldm(2)=   0.000000  celldm(3)=   0.000000
     celldm(4)=   0.000000  celldm(5)=   0.000000  celldm(6)=   0.000000

     crystal axes: (cart. coord. in units of alat)
               a(1) = (   1.000000   0.000000   0.000000 )
               a(2) = (   0.000000   1.000000   0.000000 )
               a(3) = (   0.000000   0.000000   1.496657 )

     reciprocal axes: (cart. coord. in units 2 pi/alat)
               b(1) = (  1.000000  0.000000  0.000000 )
               b(2) = (  0.000000  1.000000  0.000000 )
               b(3) = (  0.000000  0.000000  0.668156 )

     PseudoPot. # 1 for W  read from file:
     /cluster/scratch/mnoe/QE/pps/W_ONCV_LDA-4.0.upf
     MD5 check sum: ba0307d5d4cd419d6f1d13dc49d7c13a
     Pseudo is Norm-conserving + core correction, Zval = 28.0
     Generated using ONCVPSP code by D. R. Hamann
     Using radial grid of 1380 points,  8 beta functions with:
                l(1) =   0
                l(2) =   0
                l(3) =   1
                l(4) =   1
                l(5) =   2
                l(6) =   2
                l(7) =   3
                l(8) =   3

     PseudoPot. # 2 for O  read from file:
     /cluster/scratch/mnoe/QE/pps/O_ONCV_LDA-3.0.upf
     MD5 check sum: b55cdb4f45ae2203d24ad12cf8d61a31
     Pseudo is Norm-conserving + core correction, Zval =  6.0
     Generated using ONCVPSP code by D. R. Hamann
     Using radial grid of  926 points,  5 beta functions with:
                l(1) =   0
                l(2) =   0
                l(3) =   1
                l(4) =   1
                l(5) =   2

     atomic species   valence    mass     pseudopotential
        W             28.00   183.84000     W ( 1.00)
        O              6.00    15.99940     O ( 1.00)

     16 Sym. Ops., with inversion, found (14 have fractional translation)

   Cartesian axes

     site n.     atom                  positions (alat units)
         1           W   tau(   1) = (   0.2500000   0.2500000   0.3076508  )
         2           W   tau(   2) = (   0.7500000   0.7500000   1.1890063  )
         3           W   tau(   3) = (   0.7500000   0.7500000   0.4406778  )
         4           W   tau(   4) = (   0.2500000   0.2500000   1.0559792  )
         5           O   tau(   5) = (   0.2500000   0.2500000   0.7002839  )
         6           O   tau(   6) = (   0.7500000   0.7500000   0.7963731  )
         7           O   tau(   7) = (   0.7500000   0.7500000   0.0480446  )
         8           O   tau(   8) = (   0.2500000   0.2500000   1.4486124  )
         9           O   tau(   9) = (   0.5143603   0.4856397   0.3741643  )
        10           O   tau(  10) = (   0.4856397   0.5143603   1.1224928  )
        11           O   tau(  11) = (  -0.0143603   1.0143603   0.3741643  )
        12           O   tau(  12) = (   1.0143602  -0.0143602   1.1224928  )
        13           O   tau(  13) = (   1.0143603   0.5143603   0.3741643  )
        14           O   tau(  14) = (  -0.0143602   0.4856397   1.1224928  )
        15           O   tau(  15) = (   0.4856397  -0.0143603   0.3741643  )
        16           O   tau(  16) = (   0.5143603   1.0143602   1.1224928  )

     number of k points=    40  gaussian smearing, width (Ry)=  0.0007
                       cart. coord. in units 2pi/alat
        k(    1) = (   0.0000000   0.0000000   0.0000000), wk =   0.0092593
        k(    2) = (   0.0000000   0.0000000   0.1113593), wk =   0.0185185
        k(    3) = (   0.0000000   0.0000000   0.2227186), wk =   0.0185185
        k(    4) = (   0.0000000   0.0000000  -0.3340779), wk =   0.0092593
        k(    5) = (   0.0000000   0.1666667   0.0000000), wk =   0.0370370
        k(    6) = (   0.0000000   0.1666667   0.1113593), wk =   0.0740741
        k(    7) = (   0.0000000   0.1666667   0.2227186), wk =   0.0740741
        k(    8) = (   0.0000000   0.1666667  -0.3340779), wk =   0.0370370
        k(    9) = (   0.0000000   0.3333333   0.0000000), wk =   0.0370370
        k(   10) = (   0.0000000   0.3333333   0.1113593), wk =   0.0740741
        k(   11) = (   0.0000000   0.3333333   0.2227186), wk =   0.0740741
        k(   12) = (   0.0000000   0.3333333  -0.3340779), wk =   0.0370370
        k(   13) = (   0.0000000  -0.5000000   0.0000000), wk =   0.0185185
        k(   14) = (   0.0000000  -0.5000000   0.1113593), wk =   0.0370370
        k(   15) = (   0.0000000  -0.5000000   0.2227186), wk =   0.0370370
        k(   16) = (   0.0000000  -0.5000000  -0.3340779), wk =   0.0185185
        k(   17) = (   0.1666667   0.1666667   0.0000000), wk =   0.0370370
        k(   18) = (   0.1666667   0.1666667   0.1113593), wk =   0.0740741
        k(   19) = (   0.1666667   0.1666667   0.2227186), wk =   0.0740741
        k(   20) = (   0.1666667   0.1666667  -0.3340779), wk =   0.0370370
        k(   21) = (   0.1666667   0.3333333   0.0000000), wk =   0.0740741
        k(   22) = (   0.1666667   0.3333333   0.1113593), wk =   0.1481481
        k(   23) = (   0.1666667   0.3333333   0.2227186), wk =   0.1481481
        k(   24) = (   0.1666667   0.3333333  -0.3340779), wk =   0.0740741
        k(   25) = (   0.1666667  -0.5000000   0.0000000), wk =   0.0370370
        k(   26) = (   0.1666667  -0.5000000   0.1113593), wk =   0.0740741
        k(   27) = (   0.1666667  -0.5000000   0.2227186), wk =   0.0740741
        k(   28) = (   0.1666667  -0.5000000  -0.3340779), wk =   0.0370370
        k(   29) = (   0.3333333   0.3333333   0.0000000), wk =   0.0370370
        k(   30) = (   0.3333333   0.3333333   0.1113593), wk =   0.0740741
        k(   31) = (   0.3333333   0.3333333   0.2227186), wk =   0.0740741
        k(   32) = (   0.3333333   0.3333333  -0.3340779), wk =   0.0370370
        k(   33) = (   0.3333333  -0.5000000   0.0000000), wk =   0.0370370
        k(   34) = (   0.3333333  -0.5000000   0.1113593), wk =   0.0740741
        k(   35) = (   0.3333333  -0.5000000   0.2227186), wk =   0.0740741
        k(   36) = (   0.3333333  -0.5000000  -0.3340779), wk =   0.0370370
        k(   37) = (  -0.5000000  -0.5000000   0.0000000), wk =   0.0092593
        k(   38) = (  -0.5000000  -0.5000000   0.1113593), wk =   0.0185185
        k(   39) = (  -0.5000000  -0.5000000   0.2227186), wk =   0.0185185
        k(   40) = (  -0.5000000  -0.5000000  -0.3340779), wk =   0.0092593

     Initial potential from superposition of free atoms

     starting charge  183.99828, renormalised to  184.00000
     Starting wfcs are  116 randomized atomic wfcs

     Self-consistent Calculation

     iteration #  1     ecut=   120.00 Ry     beta= 0.70
     Davidson diagonalization with overlap
     ethr =  1.00E-02,  avg # of iterations =  4.2

     total energy              =   -3126.74350109 Ry
     Harris-Foulkes estimate   =   -3132.26509115 Ry
     estimated scf accuracy    <       6.98243588 Ry

[...]

     End of self-consistent calculation

          k = 0.0000 0.0000 0.0000 ( 31095 PWs)   bands (ev):

   -66.1983 -66.1979 -66.1967 -66.1963 -30.5826 -30.5826 -30.5792 -30.5792
   -30.4934 -30.4934 -30.4909 -30.4909 -30.4511 -30.4477 -30.3916 -30.3896
   -20.3632 -20.3631 -20.3631 -20.3630 -20.3619 -20.3619 -20.3619 -20.3619
   -20.3593 -20.3593 -20.3592 -20.3592 -20.3365 -20.3364 -20.3358 -20.3357
   -20.3283 -20.3278 -20.3246 -20.3246 -20.3234 -20.3234 -20.3224 -20.3222
   -20.3222 -20.3219 -20.3209 -20.3209 -10.0597  -9.7812  -9.1122  -9.0923
    -8.8416  -8.5847  -7.7793  -7.7793  -7.7618  -7.7618  -7.5726  -7.4220
     0.9393   0.9442   1.3386   1.3963   1.6188   1.7539   2.3033   2.4010
     2.5472   2.5472   3.8475   3.8475   4.9597   5.2808   5.2808   5.6116
     5.6116   5.9267   5.9267   6.0140   6.2048   6.2795   6.2795   6.8251
     6.8251   6.8697   7.1100   7.1693   7.1693   7.2442   7.2442   7.3742
     8.3832   8.3886   8.5114   8.5114   8.9486   8.9644   9.6335   9.6335
    12.3195  12.3195  13.4631  13.5495  13.5495  13.7805  13.7953  14.2486
    14.2486  14.5560  14.5562  14.6714  15.3076  16.4828

[...]

          k =-0.5000-0.5000 0.0000 ( 31144 PWs)   bands (ev):

[...]

     the Fermi energy is     8.6389 ev

!    total energy              =   -3130.46175714 Ry
     Harris-Foulkes estimate   =   -3130.46175714 Ry
     estimated scf accuracy    <          2.9E-09 Ry

     The total energy is the sum of the following terms:

     one-electron contribution =   -2372.34832424 Ry
     hartree contribution      =    1304.63634765 Ry
     xc contribution           =    -482.93038120 Ry
     ewald contribution        =   -1579.81939935 Ry
     smearing contrib. (-TS)   =      -0.00000000 Ry

     convergence has been achieved in  12 iterations

     Forces acting on atoms (cartesian axes, Ry/au):

     atom    1 type  1   force =     0.00000000    0.00000000   -0.06346410
     atom    2 type  1   force =     0.00000000    0.00000000    0.06346410
     atom    3 type  1   force =     0.00000000    0.00000000    0.06346410
     atom    4 type  1   force =     0.00000000    0.00000000   -0.06346410
     atom    5 type  2   force =     0.00000000    0.00000000    0.13902746
     atom    6 type  2   force =     0.00000000    0.00000000   -0.13902746
     atom    7 type  2   force =     0.00000000    0.00000000   -0.13902746
     atom    8 type  2   force =     0.00000000    0.00000000    0.13902746
     atom    9 type  2   force =     0.00308184   -0.00308184    0.00000000
     atom   10 type  2   force =    -0.00308184    0.00308184    0.00000000
     atom   11 type  2   force =    -0.00308184    0.00308184    0.00000000
     atom   12 type  2   force =     0.00308184   -0.00308184    0.00000000
     atom   13 type  2   force =     0.00308184    0.00308184    0.00000000
     atom   14 type  2   force =    -0.00308184   -0.00308184    0.00000000
     atom   15 type  2   force =    -0.00308184   -0.00308184    0.00000000
[...]
   0.00000000   0.00000000  -0.00065819          0.00      0.00    -96.82

     BFGS Geometry Optimization

     number of scf cycles    =   1
     number of bfgs steps    =   0

     enthalpy new            =   -3130.4617571386 Ry

     new trust radius        =       0.1232305275 bohr
     new conv_thr            =       0.0000000100 Ry

     new unit-cell volume =   1410.98756 a.u.^3 (   209.08678 Ang^3 )
     density =      7.36491 g/cm^3

CELL_PARAMETERS (angstrom)
   5.237519218   0.000000000   0.000000000
   0.000000000   5.237519218   0.000000000
   0.000000000   0.000000000   7.622111881

ATOMIC_POSITIONS (crystal)
W        0.250000000   0.250000000   0.205558628    0   0   0
W        0.750000023   0.750000023   0.794441387    0   0   0
W        0.750000023   0.750000023   0.294441387    0   0   0
W        0.250000000   0.250000000   0.705558613    0   0   0
O        0.250000000   0.250000000   0.467898750    0   0   0
O        0.750000023   0.750000023   0.532101250    0   0   0
O        0.750000023   0.750000023   0.032101263    0   0   0
O        0.250000000   0.250000000   0.967898750    0   0   0
O        0.514360266   0.485639688   0.250000000    0   0   0
O        0.485639734   0.514360312   0.750000000    0   0   0
O       -0.014360283   1.014360312   0.250000000    0   0   0
O        1.014360220  -0.014360249   0.750000000    0   0   0
O        1.014360312   0.514360266   0.250000000    0   0   0
O       -0.014360249   0.485639734   0.750000000    0   0   0
O        0.485639688  -0.014360283   0.250000000    0   0   0
O        0.514360312   1.014360220   0.750000000    0   0   0

     Writing output data file Landau_37.save/
     NEW-OLD atomic charge density approx. for the potential
     extrapolated charge  185.15226, renormalised to  184.00000

[...]

     enthalpy old            =   -3130.4617571386 Ry
     enthalpy new            =   -3130.4772670387 Ry

     CASE: enthalpy_new < enthalpy_old

[...]

     number of scf cycles    =   4
     number of bfgs steps    =   3

     enthalpy old            =   -3130.4772964592 Ry
     enthalpy new            =   -3130.4773035680 Ry

     CASE: enthalpy_new < enthalpy_old

     small trust_radius: resetting bfgs history

     new trust radius        =       0.0000475076 bohr
     new conv_thr            =            1.0E-10 Ry

     new unit-cell volume =   1409.20590 a.u.^3 (   208.82277 Ang^3 )
     density =      7.37422 g/cm^3

[...]

ATOMIC_POSITIONS (crystal)
W        0.250000000   0.250000000   0.205558628    0   0   0
W        0.750000023   0.750000023   0.794441387    0   0   0
W        0.750000023   0.750000023   0.294441387    0   0   0
W        0.250000000   0.250000000   0.705558613    0   0   0
O        0.250000000   0.250000000   0.467898750    0   0   0
O        0.750000023   0.750000023   0.532101250    0   0   0
O        0.750000023   0.750000023   0.032101263    0   0   0
O        0.250000000   0.250000000   0.967898750    0   0   0
O        0.514360266   0.485639688   0.250000000    0   0   0
O        0.485639734   0.514360312   0.750000000    0   0   0
O       -0.014360283   1.014360312   0.250000000    0   0   0
O        1.014360220  -0.014360249   0.750000000    0   0   0
O        1.014360312   0.514360266   0.250000000    0   0   0
O       -0.014360249   0.485639734   0.750000000    0   0   0
O        0.485639688  -0.014360283   0.250000000    0   0   0
O        0.514360312   1.014360220   0.750000000    0   0   0

     Writing output data file Landau_37.save/
     NEW-OLD atomic charge density approx. for the potential
     extrapolated charge  184.00284, renormalised to  184.00000

[...]

     Threshold (ethr) on eigenvalues was too large:
     Diagonalizing with lowered threshold

     Davidson diagonalization with overlap
     ethr =  4.83E-10,  avg # of iterations =  2.1

[...]

     bfgs converged in   5 scf cycles and   4 bfgs steps
     (criteria: energy <  1.0E-07 Ry, force <  1.0E-07Ry/Bohr, cell <  5.0E-01kbar)

     End of BFGS Geometry Optimization

     Final enthalpy =   -3130.4773035725 Ry
Begin final coordinates
     new unit-cell volume =   1409.20590 a.u.^3 (   208.82277 Ang^3 )
     density =      7.37422 g/cm^3

CELL_PARAMETERS (angstrom)
   5.236852767   0.000000000   0.000000000
   0.000000000   5.236852767   0.000000000
   0.000000000   0.000000000   7.614425060

ATOMIC_POSITIONS (crystal)
W        0.250000000   0.250000000   0.205558628    0   0   0
W        0.750000023   0.750000023   0.794441387    0   0   0
W        0.750000023   0.750000023   0.294441387    0   0   0
W        0.250000000   0.250000000   0.705558613    0   0   0
O        0.250000000   0.250000000   0.467898750    0   0   0
O        0.750000023   0.750000023   0.532101250    0   0   0
O        0.750000023   0.750000023   0.032101263    0   0   0
O        0.250000000   0.250000000   0.967898750    0   0   0
O        0.514360266   0.485639688   0.250000000    0   0   0
O        0.485639734   0.514360312   0.750000000    0   0   0
O       -0.014360283   1.014360312   0.250000000    0   0   0
O        1.014360220  -0.014360249   0.750000000    0   0   0
O        1.014360312   0.514360266   0.250000000    0   0   0
O       -0.014360249   0.485639734   0.750000000    0   0   0
O        0.485639688  -0.014360283   0.250000000    0   0   0
O        0.514360312   1.014360220   0.750000000    0   0   0
End final coordinates

     Writing output data file Landau_37.save/

     Final scf calculation at the relaxed structure.
     The G-vectors are recalculated for the final unit cell
     Results may differ from those at the preceding step.

     bravais-lattice index     =            0
     lattice parameter (alat)  =       9.7849  a.u.
     unit-cell volume          =    1409.2059 (a.u.)^3
     number of atoms/cell      =           16
     number of atomic types    =            2
     number of electrons       =       184.00
     number of Kohn-Sham states=          110
     kinetic-energy cutoff     =     120.0000  Ry
     charge density cutoff     =     480.0000  Ry
     convergence threshold     =      1.0E-10
     mixing beta               =       0.7000
     number of iterations used =            8  plain     mixing
     Exchange-correlation      = SLA PW NOGX NOGC ( 1  4  0  0 0 0)

     celldm(1)=   9.784926  celldm(2)=   0.000000  celldm(3)=   0.000000
     celldm(4)=   0.000000  celldm(5)=   0.000000  celldm(6)=   0.000000

     crystal axes: (cart. coord. in units of alat)
               a(1) = (   1.011374   0.000000   0.000000 )
               a(2) = (   0.000000   1.011374   0.000000 )
               a(3) = (   0.000000   0.000000   1.470545 )

     reciprocal axes: (cart. coord. in units 2 pi/alat)
               b(1) = (  0.988754  0.000000  0.000000 )
               b(2) = (  0.000000  0.988754  0.000000 )
               b(3) = (  0.000000  0.000000  0.680020 )

     PseudoPot. # 1 for W  read from file:
     /cluster/scratch/mnoe/QE/pps/W_ONCV_LDA-4.0.upf
     MD5 check sum: ba0307d5d4cd419d6f1d13dc49d7c13a
     Pseudo is Norm-conserving + core correction, Zval = 28.0
     Generated using ONCVPSP code by D. R. Hamann
     Using radial grid of 1380 points,  8 beta functions with:
                l(1) =   0
                l(2) =   0
                l(3) =   1
                l(4) =   1
                l(5) =   2
                l(6) =   2
                l(7) =   3
                l(8) =   3

     PseudoPot. # 2 for O  read from file:
     /cluster/scratch/mnoe/QE/pps/O_ONCV_LDA-3.0.upf
     MD5 check sum: b55cdb4f45ae2203d24ad12cf8d61a31
     Pseudo is Norm-conserving + core correction, Zval =  6.0
     Generated using ONCVPSP code by D. R. Hamann
     Using radial grid of  926 points,  5 beta functions with:
                l(1) =   0
                l(2) =   0
                l(3) =   1
                l(4) =   1
                l(5) =   2

     atomic species   valence    mass     pseudopotential
        W             28.00   183.84000     W ( 1.00)
        O              6.00    15.99940     O ( 1.00)

     16 Sym. Ops., with inversion, found (14 have fractional translation)

   Cartesian axes

     site n.     atom                  positions (alat units)
         1           W   tau(   1) = (   0.2528434   0.2528434   0.3022833  )
         2           W   tau(   2) = (   0.7585303   0.7585303   1.1682621  )
         3           W   tau(   3) = (   0.7585303   0.7585303   0.4329894  )
         4           W   tau(   4) = (   0.2528434   0.2528434   1.0375560  )
         5           O   tau(   5) = (   0.2528434   0.2528434   0.6880663  )
         6           O   tau(   6) = (   0.7585303   0.7585303   0.7824790  )
         7           O   tau(   7) = (   0.7585303   0.7585303   0.0472064  )
         8           O   tau(   8) = (   0.2528434   0.2528434   1.4233390  )
         9           O   tau(   9) = (   0.5202105   0.4911632   0.3676363  )
        10           O   tau(  10) = (   0.4911633   0.5202105   1.1029090  )
        11           O   tau(  11) = (  -0.0145236   1.0258974   0.3676363  )
        12           O   tau(  12) = (   1.0258973  -0.0145236   1.1029090  )
        13           O   tau(  13) = (   1.0258974   0.5202105   0.3676363  )
        14           O   tau(  14) = (  -0.0145236   0.4911633   1.1029090  )
        15           O   tau(  15) = (   0.4911632  -0.0145236   0.3676363  )
        16           O   tau(  16) = (   0.5202105   1.0258973   1.1029090  )

     number of k points=    40  gaussian smearing, width (Ry)=  0.0007
                       cart. coord. in units 2pi/alat
        k(    1) = (   0.0000000   0.0000000   0.0000000), wk =   0.0092593
        k(    2) = (   0.0000000   0.0000000   0.1133366), wk =   0.0185185
        k(    3) = (   0.0000000   0.0000000   0.2266733), wk =   0.0185185
        k(    4) = (   0.0000000   0.0000000  -0.3400099), wk =   0.0092593
        k(    5) = (   0.0000000   0.1647924   0.0000000), wk =   0.0370370
        k(    6) = (   0.0000000   0.1647924   0.1133366), wk =   0.0740741
        k(    7) = (   0.0000000   0.1647924   0.2266733), wk =   0.0740741
        k(    8) = (   0.0000000   0.1647924  -0.3400099), wk =   0.0370370
        k(    9) = (   0.0000000   0.3295847   0.0000000), wk =   0.0370370
        k(   10) = (   0.0000000   0.3295847   0.1133366), wk =   0.0740741
        k(   11) = (   0.0000000   0.3295847   0.2266733), wk =   0.0740741
        k(   12) = (   0.0000000   0.3295847  -0.3400099), wk =   0.0370370
        k(   13) = (   0.0000000  -0.4943771   0.0000000), wk =   0.0185185
        k(   14) = (   0.0000000  -0.4943771   0.1133366), wk =   0.0370370
        k(   15) = (   0.0000000  -0.4943771   0.2266733), wk =   0.0370370
        k(   16) = (   0.0000000  -0.4943771  -0.3400099), wk =   0.0185185
        k(   17) = (   0.1647924   0.1647924   0.0000000), wk =   0.0370370
        k(   18) = (   0.1647924   0.1647924   0.1133366), wk =   0.0740741
        k(   19) = (   0.1647924   0.1647924   0.2266733), wk =   0.0740741
        k(   20) = (   0.1647924   0.1647924  -0.3400099), wk =   0.0370370
        k(   21) = (   0.1647924   0.3295847   0.0000000), wk =   0.0740741
        k(   22) = (   0.1647924   0.3295847   0.1133366), wk =   0.1481481
        k(   23) = (   0.1647924   0.3295847   0.2266733), wk =   0.1481481
        k(   24) = (   0.1647924   0.3295847  -0.3400099), wk =   0.0740741
        k(   25) = (   0.1647924  -0.4943771   0.0000000), wk =   0.0370370
        k(   26) = (   0.1647924  -0.4943771   0.1133366), wk =   0.0740741
        k(   27) = (   0.1647924  -0.4943771   0.2266733), wk =   0.0740741
        k(   28) = (   0.1647924  -0.4943771  -0.3400099), wk =   0.0370370
        k(   29) = (   0.3295847   0.3295847   0.0000000), wk =   0.0370370
        k(   30) = (   0.3295847   0.3295847   0.1133366), wk =   0.0740741
        k(   31) = (   0.3295847   0.3295847   0.2266733), wk =   0.0740741
        k(   32) = (   0.3295847   0.3295847  -0.3400099), wk =   0.0370370
        k(   33) = (   0.3295847  -0.4943771   0.0000000), wk =   0.0370370
        k(   34) = (   0.3295847  -0.4943771   0.1133366), wk =   0.0740741
        k(   35) = (   0.3295847  -0.4943771   0.2266733), wk =   0.0740741
        k(   36) = (   0.3295847  -0.4943771  -0.3400099), wk =   0.0370370
        k(   37) = (  -0.4943771  -0.4943771   0.0000000), wk =   0.0092593
        k(   38) = (  -0.4943771  -0.4943771   0.1133366), wk =   0.0185185
        k(   39) = (  -0.4943771  -0.4943771   0.2266733), wk =   0.0185185
        k(   40) = (  -0.4943771  -0.4943771  -0.3400099), wk =   0.0092593

     Initial potential from superposition of free atoms

     starting charge  183.99828, renormalised to  184.00000
     Starting wfcs are  116 randomized atomic wfcs

     Self-consistent Calculation

[...]

     total energy              =   -3130.47740904 Ry
     Harris-Foulkes estimate   =   -3130.47740904 Ry
     estimated scf accuracy    <          7.4E-10 Ry

     iteration # 13     ecut=   120.00 Ry     beta= 0.70
     Davidson diagonalization with overlap
     ethr =  4.02E-13,  avg # of iterations =  3.0

     End of self-consistent calculation

[...]

          k = 0.3296-0.4944-0.3400 ( 31320 PWs)   bands (ev):

[...]

          k =-0.4944-0.4944-0.3400 ( 31328 PWs)   bands (ev):

   -66.2867 -66.2867 -66.2866 -66.2866 -30.6254 -30.6254 -30.6254 -30.6254
   -30.5706 -30.5706 -30.5706 -30.5706 -30.5388 -30.5388 -30.5388 -30.5388
   -20.4601 -20.4601 -20.4601 -20.4601 -20.4576 -20.4576 -20.4576 -20.4576
   -20.4544 -20.4544 -20.4544 -20.4544 -20.4308 -20.4307 -20.4307 -20.4307
   -20.4184 -20.4184 -20.4184 -20.4184 -20.4148 -20.4148 -20.4148 -20.4148
   -20.4125 -20.4125 -20.4125 -20.4125  -9.4094  -9.4094  -9.4094  -9.4094
    -8.4529  -8.4529  -8.4529  -8.4529  -7.8291  -7.8291  -7.8291  -7.8291
     1.2525   1.2525   1.2525   1.2525   3.0141   3.0141   3.0141   3.0141
     3.2964   3.2964   3.2964   3.2964   4.6683   4.6683   4.6683   4.6683
     5.3851   5.3851   5.3851   5.3851   5.9705   5.9705   5.9705   5.9705
     6.2736   6.2736   6.2736   6.2736   6.7503   6.7503   6.7503   6.7503
     7.6136   7.6136   7.6136   7.6136  11.1637  11.1637  11.1637  11.1637
    12.4058  12.4058  12.4058  12.4058  13.5931  13.5931  13.5931  13.5931
    14.9667  14.9667  14.9667  14.9667  18.0456  18.0456

     the Fermi energy is     8.8373 ev

!    total energy              =   -3130.47740904 Ry
     Harris-Foulkes estimate   =   -3130.47740904 Ry
     estimated scf accuracy    <          8.6E-12 Ry

     The total energy is the sum of the following terms:

     one-electron contribution =   -2376.34620194 Ry
     hartree contribution      =    1306.07384142 Ry
     xc contribution           =    -482.86622199 Ry
     ewald contribution        =   -1577.33882653 Ry
     smearing contrib. (-TS)   =      -0.00000000 Ry

     convergence has been achieved in  13 iterations

     Forces acting on atoms (cartesian axes, Ry/au):

     atom    1 type  1   force =     0.00000000    0.00000000   -0.02537241
     atom    2 type  1   force =     0.00000000    0.00000000    0.02537241
     atom    3 type  1   force =     0.00000000    0.00000000    0.02537241
     atom    4 type  1   force =     0.00000000    0.00000000   -0.02537241
     atom    5 type  2   force =     0.00000000    0.00000000    0.11886357
     atom    6 type  2   force =     0.00000000    0.00000000   -0.11886357
     atom    7 type  2   force =     0.00000000    0.00000000   -0.11886357
     atom    8 type  2   force =     0.00000000    0.00000000    0.11886357
     atom    9 type  2   force =     0.00122076   -0.00122076    0.00000000
     atom   10 type  2   force =    -0.00122076    0.00122076    0.00000000
     atom   11 type  2   force =    -0.00122076    0.00122076    0.00000000
     atom   12 type  2   force =     0.00122076   -0.00122076    0.00000000
     atom   13 type  2   force =     0.00122076    0.00122076    0.00000000
     atom   14 type  2   force =    -0.00122076   -0.00122076    0.00000000
     atom   15 type  2   force =    -0.00122076   -0.00122076    0.00000000
     atom   16 type  2   force =     0.00122076    0.00122076    0.00000000

     Total force =     0.000000     Total SCF correction =     0.000000

     Computing stress (Cartesian axis) and pressure

          total   stress  (Ry/bohr**3)                   (kbar)     P=    0.36
   0.00000429   0.00000000   0.00000000          0.63      0.00      0.00
   0.00000000   0.00000429   0.00000000          0.00      0.63      0.00
   0.00000000   0.00000000  -0.00000116          0.00      0.00     -0.17

     Writing output data file Landau_37.save/

     General routines

     Parallel routines

   This run was terminated on:  19:24: 1  19Nov2019

   JOB DONE.