     Program PWSCF v.6.2 (svn rev. 14038) starts on 28Aug2019 at 14:55: 4

     K-points division:     npool     =      64
     Reading input from scf.in

     Current dimensions of program PWSCF are:
     Max number of different atomic species (ntypx) = 10
     Max number of k-points (npk) =  40000
     Max angular momentum in pseudopotentials (lmaxx) =  3

     Subspace diagonalization in iterative solution of the eigenvalue problem:
     a serial algorithm will be used

     bravais-lattice index     =            0
     lattice parameter (alat)  =      13.8218  a.u.
     unit-cell volume          =    2775.7858 (a.u.)^3
     number of atoms/cell      =           32
     number of atomic types    =            2
     number of electrons       =       368.52
     number of Kohn-Sham states=          221
     kinetic-energy cutoff     =     120.0000  Ry
     charge density cutoff     =     480.0000  Ry
     convergence threshold     =      1.0E-08
     mixing beta               =       0.7000
     number of iterations used =            8  plain     mixing
     Exchange-correlation      = SLA PW NOGX NOGC ( 1  4  0  0 0 0)

     celldm(1)=  13.821839  celldm(2)=   0.000000  celldm(3)=   0.000000
     celldm(4)=   0.000000  celldm(5)=   0.000000  celldm(6)=   0.000000

     crystal axes: (cart. coord. in units of alat)
               a(1) = (   1.000000   0.000000   0.000000 )
               a(2) = (   0.000000   1.044840   0.000000 )
               a(3) = (   0.000000   0.000000   1.006095 )

     reciprocal axes: (cart. coord. in units 2 pi/alat)
               b(1) = (  1.000000  0.000000  0.000000 )
               b(2) = (  0.000000  0.957085  0.000000 )
               b(3) = (  0.000000  0.000000  0.993942 )

     PseudoPot. # 1 for W  read from file:
     /cluster/scratch/mnoe/QE/pps/W_ONCV_LDA-4.0.upf
     MD5 check sum: ba0307d5d4cd419d6f1d13dc49d7c13a
     Pseudo is Norm-conserving + core correction, Zval = 28.0
     Generated using ONCVPSP code by D. R. Hamann
     Using radial grid of 1380 points,  8 beta functions with:
                l(1) =   0
                l(2) =   0
                l(3) =   1
                l(4) =   1
                l(5) =   2
                l(6) =   2
                l(7) =   3
                l(8) =   3

     PseudoPot. # 2 for O  read from file:
     /cluster/scratch/mnoe/QE/pps/O_ONCV_LDA-3.0.upf
     MD5 check sum: b55cdb4f45ae2203d24ad12cf8d61a31
     Pseudo is Norm-conserving + core correction, Zval =  6.0
     Generated using ONCVPSP code by D. R. Hamann
     Using radial grid of  926 points,  5 beta functions with:
                l(1) =   0
                l(2) =   0
                l(3) =   1
                l(4) =   1
                l(5) =   2

     atomic species   valence    mass     pseudopotential
        W             28.00   183.84000     W ( 1.00)
        O              6.00    15.99940     O ( 1.00)

      8 Sym. Ops., with inversion, found ( 6 have fractional translation)

   Cartesian axes

     site n.     atom                  positions (alat units)
         1           W   tau(   1) = (   0.2342800   0.2944985   0.0149405  )
         2           W   tau(   2) = (   0.7657200   0.7503412   0.9911540  )
         3           W   tau(   3) = (   0.2657200   0.2279214   0.5179878  )
         4           W   tau(   4) = (   0.7342800   0.8169184   0.4881068  )
         5           W   tau(   5) = (   0.7657200   0.2944985   0.4881068  )
         6           W   tau(   6) = (   0.2342800   0.7503412   0.5179878  )
         7           W   tau(   7) = (   0.7342800   0.2279214   0.9911540  )
         8           W   tau(   8) = (   0.2657200   0.8169184   0.0149405  )
         9           O   tau(   9) = (   0.2209900   0.0086931   0.0046482  )
        10           O   tau(  10) = (   0.7790100   1.0361467   1.0014464  )
        11           O   tau(  11) = (   0.2790100   0.5137268   0.5076954  )
        12           O   tau(  12) = (   0.7209900   0.5311129   0.4983991  )
        13           O   tau(  13) = (   0.7790100   0.0086931   0.4983991  )
        14           O   tau(  14) = (   0.2209900   1.0361467   0.5076954  )
        15           O   tau(  15) = (   0.7209900   0.5137268   1.0014464  )
        16           O   tau(  16) = (   0.2790100   0.5311129   0.0046482  )
        17           O   tau(  17) = (   0.5043000   0.2301155   0.4522797  )
        18           O   tau(  18) = (   0.4957000   0.8147242   0.5538148  )
        19           O   tau(  19) = (   0.9957000   0.2923044   0.9553270  )
        20           O   tau(  20) = (   0.0043000   0.7525353   0.0507675  )
        21           O   tau(  21) = (   0.4957000   0.2301155   0.0507675  )
        22           O   tau(  22) = (   0.5043000   0.8147242   0.9553270  )
        23           O   tau(  23) = (   0.0043000   0.2923044   0.5538148  )
        24           O   tau(  24) = (   0.9957000   0.7525353   0.4522797  )
        25           O   tau(  25) = (   0.6995400   0.2544185   0.7480112  )
        26           O   tau(  26) = (   0.3004600   0.7904213   0.2580834  )
        27           O   tau(  27) = (   0.8004600   0.2680014   0.2449639  )
        28           O   tau(  28) = (   0.1995400   0.7768384   0.7611306  )
        29           O   tau(  29) = (   0.3004600   0.2544185   0.7611306  )
        30           O   tau(  30) = (   0.6995400   0.7904213   0.2449639  )
        31           O   tau(  31) = (   0.1995400   0.2680014   0.2580834  )
        32           O   tau(  32) = (   0.8004600   0.7768384   0.7480112  )

     number of k points=    64  gaussian smearing, width (Ry)=  0.0007
                       cart. coord. in units 2pi/alat
        k(    1) = (   0.0000000   0.0000000   0.0000000), wk =   0.0092593
        k(    2) = (   0.0000000   0.0000000   0.1656571), wk =   0.0185185
        k(    3) = (   0.0000000   0.0000000   0.3313141), wk =   0.0185185
        k(    4) = (   0.0000000   0.0000000  -0.4969712), wk =   0.0092593
        k(    5) = (   0.0000000   0.1595141   0.0000000), wk =   0.0185185
        k(    6) = (   0.0000000   0.1595141   0.1656571), wk =   0.0370370
        k(    7) = (   0.0000000   0.1595141   0.3313141), wk =   0.0370370
        k(    8) = (   0.0000000   0.1595141  -0.4969712), wk =   0.0185185
        k(    9) = (   0.0000000   0.3190282   0.0000000), wk =   0.0185185
        k(   10) = (   0.0000000   0.3190282   0.1656571), wk =   0.0370370
        k(   11) = (   0.0000000   0.3190282   0.3313141), wk =   0.0370370
        k(   12) = (   0.0000000   0.3190282  -0.4969712), wk =   0.0185185
        k(   13) = (   0.0000000  -0.4785423   0.0000000), wk =   0.0092593
        k(   14) = (   0.0000000  -0.4785423   0.1656571), wk =   0.0185185
        k(   15) = (   0.0000000  -0.4785423   0.3313141), wk =   0.0185185
        k(   16) = (   0.0000000  -0.4785423  -0.4969712), wk =   0.0092593
        k(   17) = (   0.1666667   0.0000000   0.0000000), wk =   0.0185185
        k(   18) = (   0.1666667   0.0000000   0.1656571), wk =   0.0370370
        k(   19) = (   0.1666667   0.0000000   0.3313141), wk =   0.0370370
        k(   20) = (   0.1666667   0.0000000  -0.4969712), wk =   0.0185185
        k(   21) = (   0.1666667   0.1595141   0.0000000), wk =   0.0370370
        k(   22) = (   0.1666667   0.1595141   0.1656571), wk =   0.0740741
        k(   23) = (   0.1666667   0.1595141   0.3313141), wk =   0.0740741
        k(   24) = (   0.1666667   0.1595141  -0.4969712), wk =   0.0370370
        k(   25) = (   0.1666667   0.3190282   0.0000000), wk =   0.0370370
        k(   26) = (   0.1666667   0.3190282   0.1656571), wk =   0.0740741
        k(   27) = (   0.1666667   0.3190282   0.3313141), wk =   0.0740741
        k(   28) = (   0.1666667   0.3190282  -0.4969712), wk =   0.0370370
        k(   29) = (   0.1666667  -0.4785423   0.0000000), wk =   0.0185185
        k(   30) = (   0.1666667  -0.4785423   0.1656571), wk =   0.0370370
        k(   31) = (   0.1666667  -0.4785423   0.3313141), wk =   0.0370370
        k(   32) = (   0.1666667  -0.4785423  -0.4969712), wk =   0.0185185
        k(   33) = (   0.3333333   0.0000000   0.0000000), wk =   0.0185185
        k(   34) = (   0.3333333   0.0000000   0.1656571), wk =   0.0370370
        k(   35) = (   0.3333333   0.0000000   0.3313141), wk =   0.0370370
        k(   36) = (   0.3333333   0.0000000  -0.4969712), wk =   0.0185185
        k(   37) = (   0.3333333   0.1595141   0.0000000), wk =   0.0370370
        k(   38) = (   0.3333333   0.1595141   0.1656571), wk =   0.0740741
        k(   39) = (   0.3333333   0.1595141   0.3313141), wk =   0.0740741
        k(   40) = (   0.3333333   0.1595141  -0.4969712), wk =   0.0370370
        k(   41) = (   0.3333333   0.3190282   0.0000000), wk =   0.0370370
        k(   42) = (   0.3333333   0.3190282   0.1656571), wk =   0.0740741
        k(   43) = (   0.3333333   0.3190282   0.3313141), wk =   0.0740741
        k(   44) = (   0.3333333   0.3190282  -0.4969712), wk =   0.0370370
        k(   45) = (   0.3333333  -0.4785423   0.0000000), wk =   0.0185185
        k(   46) = (   0.3333333  -0.4785423   0.1656571), wk =   0.0370370
        k(   47) = (   0.3333333  -0.4785423   0.3313141), wk =   0.0370370
        k(   48) = (   0.3333333  -0.4785423  -0.4969712), wk =   0.0185185
        k(   49) = (  -0.5000000   0.0000000   0.0000000), wk =   0.0092593
        k(   50) = (  -0.5000000   0.0000000   0.1656571), wk =   0.0185185
        k(   51) = (  -0.5000000   0.0000000   0.3313141), wk =   0.0185185
        k(   52) = (  -0.5000000   0.0000000  -0.4969712), wk =   0.0092593
        k(   53) = (  -0.5000000   0.1595141   0.0000000), wk =   0.0185185
        k(   54) = (  -0.5000000   0.1595141   0.1656571), wk =   0.0370370
        k(   55) = (  -0.5000000   0.1595141   0.3313141), wk =   0.0370370
        k(   56) = (  -0.5000000   0.1595141  -0.4969712), wk =   0.0185185
        k(   57) = (  -0.5000000   0.3190282   0.0000000), wk =   0.0185185
        k(   58) = (  -0.5000000   0.3190282   0.1656571), wk =   0.0370370
        k(   59) = (  -0.5000000   0.3190282   0.3313141), wk =   0.0370370
        k(   60) = (  -0.5000000   0.3190282  -0.4969712), wk =   0.0185185
        k(   61) = (  -0.5000000  -0.4785423   0.0000000), wk =   0.0092593
        k(   62) = (  -0.5000000  -0.4785423   0.1656571), wk =   0.0185185
        k(   63) = (  -0.5000000  -0.4785423   0.3313141), wk =   0.0185185
        k(   64) = (  -0.5000000  -0.4785423  -0.4969712), wk =   0.0092593

     Initial potential from superposition of free atoms

     starting charge  367.99656, renormalised to  368.52000
     Starting wfc are  232 randomized atomic wfcs

     Self-consistent Calculation

     iteration #  1     ecut=   120.00 Ry     beta= 0.70
     Davidson diagonalization with overlap
     ethr =  1.00E-02,  avg # of iterations =  5.1

     total energy              =   -6253.54072445 Ry
     Harris-Foulkes estimate   =   -6264.25386003 Ry
     estimated scf accuracy    <      13.50843264 Ry

[...]

     total energy              =   -6260.72426435 Ry
     Harris-Foulkes estimate   =   -6260.72426436 Ry
     estimated scf accuracy    <       0.00000002 Ry

     iteration # 13     ecut=   120.00 Ry     beta= 0.70
     Davidson diagonalization with overlap
     ethr =  5.36E-12,  avg # of iterations =  2.6

     End of self-consistent calculation

          k = 0.0000 0.0000 0.0000 ( 61647 PWs)   bands (ev):

   -65.8483 -65.8477 -65.8474 -65.8472 -65.8468 -65.8467 -65.8463 -65.8458
   -30.2876 -30.2803 -30.2793 -30.2719 -30.2427 -30.2338 -30.2306 -30.2205
   -30.2199 -30.2104 -30.2044 -30.1957 -30.1903 -30.1856 -30.1797 -30.1619
   -30.1229 -30.1213 -30.1158 -30.1135 -30.1026 -30.0959 -30.0942 -30.0877
   -19.9993 -19.9992 -19.9988 -19.9986 -19.9980 -19.9979 -19.9974 -19.9973
   -19.9853 -19.9850 -19.9848 -19.9843 -19.9842 -19.9839 -19.9839 -19.9832
   -19.9817 -19.9815 -19.9805 -19.9803 -19.9796 -19.9790 -19.9782 -19.9778
   -19.9778 -19.9771 -19.9770 -19.9764 -19.9760 -19.9756 -19.9755 -19.9751
   -19.9667 -19.9666 -19.9663 -19.9663 -19.9637 -19.9635 -19.9632 -19.9631
   -19.9507 -19.9506 -19.9495 -19.9495 -19.9450 -19.9450 -19.9440 -19.9439
   -19.9412 -19.9411 -19.9400 -19.9399 -19.9372 -19.9371 -19.9359 -19.9359
    -9.7529  -9.4309  -9.3061  -9.2993  -8.9999  -8.9629  -8.8899  -8.7774
    -8.7558  -8.6796  -8.6346  -8.6289  -7.7270  -7.6436  -7.6227  -7.5896
    -7.5852  -7.5741  -7.5706  -7.5254  -7.4814  -7.4550  -7.4456  -7.4349
     1.5269   1.5402   1.5847   1.5878   1.6159   1.6253   1.6694   1.8141
     1.8257   1.8985   1.9241   2.1285   2.5904   2.6873   2.7238   2.7676
     2.8674   2.9416   4.2928   4.3825   4.5396   4.7377   4.8324   4.9411
     4.9883   5.0009   5.0190   5.0207   5.2655   5.3086   5.3935   5.5539
     5.6752   5.7182   5.7479   5.7543   5.8316   5.8445   5.9474   5.9762
     5.9827   6.0140   6.0360   6.0753   6.1200   6.1549   6.1918   6.2911
     6.3226   6.4172   6.4592   6.6841   6.7080   6.9245   6.9494   7.0162
     7.0287   7.1142   7.1207   7.1291   7.1296   7.2120   7.3783   7.4216
     7.4948   7.5332   7.8943   7.9219   8.0912   8.1573   8.2788   8.3308
     9.8993   9.9306  10.3409  10.3518  10.4043  10.4207  12.3635  12.4695
    12.5814  12.6398  12.7122  12.7420  12.7566  12.8518  12.9299  12.9508
    13.4456  13.4671  13.5079  13.5739  13.8155  13.9145  14.2841  14.2873
    14.7746  14.7766  15.0445  15.0884  15.6383  15.6787  15.8202  16.1512
    16.2686  16.9433  17.0777  17.2290  17.7832

[...]

          k = 0.3333-0.4785-0.4970 ( 61584 PWs)   bands (ev):

[...]

          k =-0.5000 0.0000 0.0000 ( 61648 PWs)   bands (ev):

[...]

          k =-0.5000-0.4785-0.4970 ( 61664 PWs)   bands (ev):

   -65.8470 -65.8470 -65.8470 -65.8470 -65.8470 -65.8470 -65.8470 -65.8470
   -30.2498 -30.2498 -30.2498 -30.2498 -30.2489 -30.2489 -30.2489 -30.2489
   -30.1737 -30.1737 -30.1737 -30.1737 -30.1711 -30.1711 -30.1711 -30.1711
   -30.1364 -30.1364 -30.1364 -30.1364 -30.1337 -30.1337 -30.1337 -30.1337
   -19.9983 -19.9983 -19.9983 -19.9983 -19.9982 -19.9982 -19.9982 -19.9982
   -19.9844 -19.9844 -19.9844 -19.9844 -19.9842 -19.9842 -19.9842 -19.9842
   -19.9797 -19.9797 -19.9797 -19.9797 -19.9794 -19.9794 -19.9794 -19.9794
   -19.9769 -19.9769 -19.9769 -19.9769 -19.9765 -19.9765 -19.9765 -19.9765
   -19.9650 -19.9650 -19.9650 -19.9650 -19.9647 -19.9647 -19.9647 -19.9647
   -19.9474 -19.9474 -19.9474 -19.9474 -19.9474 -19.9474 -19.9474 -19.9474
   -19.9387 -19.9386 -19.9386 -19.9386 -19.9386 -19.9385 -19.9385 -19.9385
    -8.7598  -8.7598  -8.7598  -8.7598  -8.7282  -8.7282  -8.7282  -8.7282
    -8.2244  -8.2244  -8.2244  -8.2244  -8.1742  -8.1742  -8.1742  -8.1742
    -8.1437  -8.1437  -8.1437  -8.1437  -8.1005  -8.1005  -8.1005  -8.1005
     3.0703   3.0703   3.0703   3.0703   3.1729   3.1729   3.1729   3.1729
     3.3495   3.3495   3.3495   3.3495   3.4826   3.4826   3.4826   3.4826
     3.5443   3.5443   3.5443   3.5443   3.7526   3.7526   3.7526   3.7526
     4.3377   4.3377   4.3377   4.3377   4.3734   4.3735   4.3735   4.3735
     4.5431   4.5431   4.5431   4.5431   4.6271   4.6271   4.6271   4.6271
     4.7082   4.7082   4.7082   4.7082   4.7975   4.7975   4.7975   4.7975
     7.2421   7.2422   7.2422   7.2422   7.4354   7.4354   7.4354   7.4354
     7.5024   7.5024   7.5024   7.5024   7.5723   7.5723   7.5723   7.5723
     7.7182   7.7182   7.7182   7.7182   7.8055   7.8055   7.8055   7.8055
    12.1230  12.1230  12.1230  12.1231  12.1518  12.1518  12.1518  12.1518
    12.4071  12.4071  12.4071  12.4071  12.6034  12.6034  12.6034  12.6034
    12.7644  12.7644  12.7644  12.7644  12.8890  12.8890  12.8890  12.8890
    17.2011  17.2011  17.2011  17.2011  17.3093  17.3093  17.3093  17.3093
    17.5475  17.5476  17.5476  17.5476  17.6425

     the Fermi energy is    10.2310 ev

!    total energy              =   -6260.72426435 Ry
     Harris-Foulkes estimate   =   -6260.72426435 Ry
     estimated scf accuracy    <          1.3E-09 Ry

     The total energy is the sum of the following terms:

     one-electron contribution =   -4668.52443666 Ry
     hartree contribution      =    2575.05688698 Ry
     xc contribution           =    -966.23422505 Ry
     ewald contribution        =   -3201.02247010 Ry
     smearing contrib. (-TS)   =      -0.00001951 Ry

     convergence has been achieved in  13 iterations

     Writing output data file Landau_34.save

     General routines

     Parallel routines

   This run was terminated on:  15: 5:35  28Aug2019

   JOB DONE.