     Program PWSCF v.6.4.1 starts on  3Dec2019 at 16: 7:48

     K-points division:     npool     =      40
     Reading input from scf.in

     Current dimensions of program PWSCF are:
     Max number of different atomic species (ntypx) = 10
     Max number of k-points (npk) =  40000
     Max angular momentum in pseudopotentials (lmaxx) =  3

     Subspace diagonalization in iterative solution of the eigenvalue problem:
     a serial algorithm will be used

     Message from routine setup:
     using ibrav=0 with symmetry is DISCOURAGED, use correct ibrav instead

     bravais-lattice index     =            0
     lattice parameter (alat)  =       9.7849  a.u.
     unit-cell volume          =    1402.1515 (a.u.)^3
     number of atoms/cell      =           16
     number of atomic types    =            2
     number of electrons       =       184.30
     number of Kohn-Sham states=          111
     kinetic-energy cutoff     =     120.0000  Ry
     charge density cutoff     =     480.0000  Ry
     convergence threshold     =      1.0E-08
     mixing beta               =       0.7000
     number of iterations used =            8  plain     mixing
     Exchange-correlation      = SLA PW NOGX NOGC ( 1  4  0  0 0 0)

     celldm(1)=   9.784926  celldm(2)=   0.000000  celldm(3)=   0.000000
     celldm(4)=   0.000000  celldm(5)=   0.000000  celldm(6)=   0.000000

     crystal axes: (cart. coord. in units of alat)
               a(1) = (   1.000000   0.000000   0.000000 )
               a(2) = (   0.000000   1.000000   0.000000 )
               a(3) = (   0.000000   0.000000   1.496657 )

     reciprocal axes: (cart. coord. in units 2 pi/alat)
               b(1) = (  1.000000  0.000000  0.000000 )
               b(2) = (  0.000000  1.000000  0.000000 )
               b(3) = (  0.000000  0.000000  0.668156 )

     PseudoPot. # 1 for W  read from file:
     /cluster/scratch/mnoe/QE/pps/W_ONCV_LDA-4.0.upf
     MD5 check sum: ba0307d5d4cd419d6f1d13dc49d7c13a
     Pseudo is Norm-conserving + core correction, Zval = 28.0
     Generated using ONCVPSP code by D. R. Hamann
     Using radial grid of 1380 points,  8 beta functions with:
                l(1) =   0
                l(2) =   0
                l(3) =   1
                l(4) =   1
                l(5) =   2
                l(6) =   2
                l(7) =   3
                l(8) =   3

     PseudoPot. # 2 for O  read from file:
     /cluster/scratch/mnoe/QE/pps/O_ONCV_LDA-3.0.upf
     MD5 check sum: b55cdb4f45ae2203d24ad12cf8d61a31
     Pseudo is Norm-conserving + core correction, Zval =  6.0
     Generated using ONCVPSP code by D. R. Hamann
     Using radial grid of  926 points,  5 beta functions with:
                l(1) =   0
                l(2) =   0
                l(3) =   1
                l(4) =   1
                l(5) =   2

     atomic species   valence    mass     pseudopotential
        W             28.00   183.84000     W ( 1.00)
        O              6.00    15.99940     O ( 1.00)

     16 Sym. Ops., with inversion, found (14 have fractional translation)

   Cartesian axes

     site n.     atom                  positions (alat units)
         1           W   tau(   1) = (   0.2500000   0.2500000   0.3264508  )
         2           W   tau(   2) = (   0.7500000   0.7500000   1.1702062  )
         3           W   tau(   3) = (   0.7500000   0.7500000   0.4218777  )
         4           W   tau(   4) = (   0.2500000   0.2500000   1.0747793  )
         5           O   tau(   5) = (   0.2500000   0.2500000   0.7358614  )
         6           O   tau(   6) = (   0.7500000   0.7500000   0.7607956  )
         7           O   tau(   7) = (   0.7500000   0.7500000   0.0124671  )
         8           O   tau(   8) = (   0.2500000   0.2500000   1.4841899  )
         9           O   tau(   9) = (   0.4494100   0.5505900   0.3741643  )
        10           O   tau(  10) = (   0.5505900   0.4494100   1.1224928  )
        11           O   tau(  11) = (   0.0505900   0.9494100   0.3741643  )
        12           O   tau(  12) = (   0.9494099   0.0505900   1.1224928  )
        13           O   tau(  13) = (   0.9494100   0.4494100   0.3741643  )
        14           O   tau(  14) = (   0.0505900   0.5505900   1.1224928  )
        15           O   tau(  15) = (   0.5505900   0.0505900   0.3741643  )
        16           O   tau(  16) = (   0.4494100   0.9494099   1.1224928  )

     number of k points=    60  gaussian smearing, width (Ry)=  0.0007
                       cart. coord. in units 2pi/alat
        k(    1) = (   0.0000000   0.0000000   0.0000000), wk =   0.0041152
        k(    2) = (   0.0000000   0.0000000   0.1113593), wk =   0.0082305
        k(    3) = (   0.0000000   0.0000000   0.2227186), wk =   0.0082305
        k(    4) = (   0.0000000   0.0000000  -0.3340779), wk =   0.0041152
        k(    5) = (   0.0000000   0.1111111   0.0000000), wk =   0.0164609
        k(    6) = (   0.0000000   0.1111111   0.1113593), wk =   0.0329218
        k(    7) = (   0.0000000   0.1111111   0.2227186), wk =   0.0329218
        k(    8) = (   0.0000000   0.1111111  -0.3340779), wk =   0.0164609
        k(    9) = (   0.0000000   0.2222222   0.0000000), wk =   0.0164609
        k(   10) = (   0.0000000   0.2222222   0.1113593), wk =   0.0329218
        k(   11) = (   0.0000000   0.2222222   0.2227186), wk =   0.0329218
        k(   12) = (   0.0000000   0.2222222  -0.3340779), wk =   0.0164609
        k(   13) = (   0.0000000   0.3333333   0.0000000), wk =   0.0164609
        k(   14) = (   0.0000000   0.3333333   0.1113593), wk =   0.0329218
        k(   15) = (   0.0000000   0.3333333   0.2227186), wk =   0.0329218
        k(   16) = (   0.0000000   0.3333333  -0.3340779), wk =   0.0164609
        k(   17) = (   0.0000000   0.4444444   0.0000000), wk =   0.0164609
        k(   18) = (   0.0000000   0.4444444   0.1113593), wk =   0.0329218
        k(   19) = (   0.0000000   0.4444444   0.2227186), wk =   0.0329218
        k(   20) = (   0.0000000   0.4444444  -0.3340779), wk =   0.0164609
        k(   21) = (   0.1111111   0.1111111   0.0000000), wk =   0.0164609
        k(   22) = (   0.1111111   0.1111111   0.1113593), wk =   0.0329218
        k(   23) = (   0.1111111   0.1111111   0.2227186), wk =   0.0329218
        k(   24) = (   0.1111111   0.1111111  -0.3340779), wk =   0.0164609
        k(   25) = (   0.1111111   0.2222222   0.0000000), wk =   0.0329218
        k(   26) = (   0.1111111   0.2222222   0.1113593), wk =   0.0658436
        k(   27) = (   0.1111111   0.2222222   0.2227186), wk =   0.0658436
        k(   28) = (   0.1111111   0.2222222  -0.3340779), wk =   0.0329218
        k(   29) = (   0.1111111   0.3333333   0.0000000), wk =   0.0329218
        k(   30) = (   0.1111111   0.3333333   0.1113593), wk =   0.0658436
        k(   31) = (   0.1111111   0.3333333   0.2227186), wk =   0.0658436
        k(   32) = (   0.1111111   0.3333333  -0.3340779), wk =   0.0329218
        k(   33) = (   0.1111111   0.4444444   0.0000000), wk =   0.0329218
        k(   34) = (   0.1111111   0.4444444   0.1113593), wk =   0.0658436
        k(   35) = (   0.1111111   0.4444444   0.2227186), wk =   0.0658436
        k(   36) = (   0.1111111   0.4444444  -0.3340779), wk =   0.0329218
        k(   37) = (   0.2222222   0.2222222   0.0000000), wk =   0.0164609
        k(   38) = (   0.2222222   0.2222222   0.1113593), wk =   0.0329218
        k(   39) = (   0.2222222   0.2222222   0.2227186), wk =   0.0329218
        k(   40) = (   0.2222222   0.2222222  -0.3340779), wk =   0.0164609
        k(   41) = (   0.2222222   0.3333333   0.0000000), wk =   0.0329218
        k(   42) = (   0.2222222   0.3333333   0.1113593), wk =   0.0658436
        k(   43) = (   0.2222222   0.3333333   0.2227186), wk =   0.0658436
        k(   44) = (   0.2222222   0.3333333  -0.3340779), wk =   0.0329218
        k(   45) = (   0.2222222   0.4444444   0.0000000), wk =   0.0329218
        k(   46) = (   0.2222222   0.4444444   0.1113593), wk =   0.0658436
        k(   47) = (   0.2222222   0.4444444   0.2227186), wk =   0.0658436
        k(   48) = (   0.2222222   0.4444444  -0.3340779), wk =   0.0329218
        k(   49) = (   0.3333333   0.3333333   0.0000000), wk =   0.0164609
        k(   50) = (   0.3333333   0.3333333   0.1113593), wk =   0.0329218
        k(   51) = (   0.3333333   0.3333333   0.2227186), wk =   0.0329218
        k(   52) = (   0.3333333   0.3333333  -0.3340779), wk =   0.0164609
        k(   53) = (   0.3333333   0.4444444   0.0000000), wk =   0.0329218
        k(   54) = (   0.3333333   0.4444444   0.1113593), wk =   0.0658436
        k(   55) = (   0.3333333   0.4444444   0.2227186), wk =   0.0658436
        k(   56) = (   0.3333333   0.4444444  -0.3340779), wk =   0.0329218
        k(   57) = (   0.4444444   0.4444444   0.0000000), wk =   0.0164609
        k(   58) = (   0.4444444   0.4444444   0.1113593), wk =   0.0329218
        k(   59) = (   0.4444444   0.4444444   0.2227186), wk =   0.0329218
        k(   60) = (   0.4444444   0.4444444  -0.3340779), wk =   0.0164609

     Initial potential from superposition of free atoms

     starting charge  183.99828, renormalised to  184.30000
     Starting wfcs are  116 randomized atomic wfcs

     Self-consistent Calculation

     iteration #  1     ecut=   120.00 Ry     beta= 0.70
     Davidson diagonalization with overlap
     ethr =  1.00E-02,  avg # of iterations =  5.0

     total energy              =   -3126.72740211 Ry
     Harris-Foulkes estimate   =   -3132.13338185 Ry
     estimated scf accuracy    <       6.81006083 Ry

[...]

     total energy              =   -3130.34294579 Ry
     Harris-Foulkes estimate   =   -3130.34294581 Ry
     estimated scf accuracy    <       0.00000004 Ry

     iteration # 12     ecut=   120.00 Ry     beta= 0.70
     Davidson diagonalization with overlap
     ethr =  2.16E-11,  avg # of iterations =  2.0

     End of self-consistent calculation

          k = 0.0000 0.0000 0.0000 ( 31095 PWs)   bands (ev):

   -66.0310 -66.0306 -66.0290 -66.0286 -30.4753 -30.4688 -30.4154 -30.4101
   -30.3652 -30.3652 -30.3619 -30.3619 -30.2686 -30.2686 -30.2659 -30.2659
   -20.1834 -20.1829 -20.1795 -20.1794 -20.1793 -20.1792 -20.1779 -20.1774
   -20.1705 -20.1705 -20.1695 -20.1695 -20.1677 -20.1677 -20.1667 -20.1667
   -20.1560 -20.1559 -20.1553 -20.1553 -20.1266 -20.1266 -20.1266 -20.1266
   -20.1219 -20.1219 -20.1219 -20.1219  -9.9138  -9.6238  -9.0659  -8.9980
    -8.9860  -8.8553  -7.8476  -7.7361  -7.5707  -7.5707  -7.5494  -7.5494
     1.2683   1.2689   1.4095   1.6591   1.7079   1.9056   2.4411   2.5157
     2.7503   2.7503   4.1724   4.1724   5.0592   5.0592   5.0828   5.5520
     5.5520   5.5604   5.5604   5.8340   5.8340   5.9607   5.9752   6.8206
     6.8206   6.9123   7.0450   7.0497   7.4477   7.4477   7.4923   7.4923
     7.8255   7.8397   8.0971   8.0971   9.3439   9.3517  10.0885  10.0885
    12.3404  12.3404  12.9589  12.9619  13.4708  13.4708  13.8357  14.2240
    14.2240  14.8729  15.5208  15.5244  15.5355  16.8694  17.4387

[...]

          k = 0.4444 0.4444-0.3341 ( 31138 PWs)   bands (ev):

   -66.0298 -66.0298 -66.0298 -66.0298 -30.4426 -30.4426 -30.4425 -30.4425
   -30.3688 -30.3688 -30.3659 -30.3658 -30.2659 -30.2659 -30.2630 -30.2630
   -20.1804 -20.1804 -20.1804 -20.1804 -20.1793 -20.1793 -20.1793 -20.1793
   -20.1701 -20.1701 -20.1700 -20.1700 -20.1672 -20.1672 -20.1671 -20.1671
   -20.1557 -20.1556 -20.1556 -20.1556 -20.1281 -20.1281 -20.1280 -20.1279
   -20.1207 -20.1207 -20.1205 -20.1205  -9.2779  -9.2779  -9.2324  -9.2324
    -8.4307  -8.4307  -8.4252  -8.4251  -7.7708  -7.7708  -7.7103  -7.7103
     1.3626   1.3626   1.4750   1.4750   3.2204   3.2204   3.2264   3.2264
     3.4813   3.4813   3.5064   3.5064   4.7102   4.7102   4.9538   4.9538
     5.2575   5.2575   5.3399   5.3399   5.9763   5.9763   6.1373   6.1373
     6.1574   6.1574   6.3096   6.3096   6.7752   6.7752   6.8651   6.8651
     7.4718   7.4718   7.4823   7.4823  11.3764  11.3765  11.4347  11.4347
    12.3447  12.3447  12.4050  12.4050  13.5536  13.5536  13.6364  13.6364
    15.7290  15.7290  15.8573  15.8573  18.0545  18.0545  18.2927

     the Fermi energy is     9.9248 ev

!    total energy              =   -3130.34294579 Ry
     Harris-Foulkes estimate   =   -3130.34294580 Ry
     estimated scf accuracy    <          2.1E-09 Ry

     The total energy is the sum of the following terms:

     one-electron contribution =   -2361.18044842 Ry
     hartree contribution      =    1299.87764185 Ry
     xc contribution           =    -483.16683895 Ry
     ewald contribution        =   -1585.87329152 Ry
     smearing contrib. (-TS)   =      -0.00000876 Ry

     convergence has been achieved in  12 iterations

     Writing output data file chempot_6.save/

     General routines

     Parallel routines

   This run was terminated on:  16:13:55   3Dec2019

   JOB DONE.