     Program PWSCF v.6.2 (svn rev. 14038) starts on 20Mar2020 at  0: 0:18

     K-points division:     npool     =      40
     Reading input from rscf.in

     Current dimensions of program PWSCF are:
     Max number of different atomic species (ntypx) = 10
     Max number of k-points (npk) =  40000
     Max angular momentum in pseudopotentials (lmaxx) =  3

     Subspace diagonalization in iterative solution of the eigenvalue problem:
     a serial algorithm will be used

     bravais-lattice index     =            0
     lattice parameter (alat)  =      13.8397  a.u.
     unit-cell volume          =    2804.9816 (a.u.)^3
     number of atoms/cell      =           32
     number of atomic types    =            2
     number of electrons       =       368.00
     number of Kohn-Sham states=          221
     kinetic-energy cutoff     =     120.0000  Ry
     charge density cutoff     =     480.0000  Ry
     convergence threshold     =      1.0E-08
     mixing beta               =       0.7000
     number of iterations used =            8  plain     mixing
     Exchange-correlation      = SLA PW NOGX NOGC ( 1  4  0  0 0 0)
     nstep                     =           50

     celldm(1)=  13.839685  celldm(2)=   0.000000  celldm(3)=   0.000000
     celldm(4)=   0.000000  celldm(5)=   0.000000  celldm(6)=   0.000000

     crystal axes: (cart. coord. in units of alat)
               a(1) = (   1.000000   0.000000   0.000000 )
               a(2) = (   0.000000   1.058160   0.000000 )
               a(3) = (   0.000000   0.000000   1.000000 )

     reciprocal axes: (cart. coord. in units 2 pi/alat)
               b(1) = (  1.000000  0.000000  0.000000 )
               b(2) = (  0.000000  0.945037  0.000000 )
               b(3) = (  0.000000  0.000000  1.000000 )

     PseudoPot. # 1 for W  read from file:
     /cluster/scratch/mnoe/QE/pps/W_ONCV_LDA-4.0.upf
     MD5 check sum: ba0307d5d4cd419d6f1d13dc49d7c13a
     Pseudo is Norm-conserving + core correction, Zval = 28.0
     Generated using ONCVPSP code by D. R. Hamann
     Using radial grid of 1380 points,  8 beta functions with:
                l(1) =   0
                l(2) =   0
                l(3) =   1
                l(4) =   1
                l(5) =   2
                l(6) =   2
                l(7) =   3
                l(8) =   3

     PseudoPot. # 2 for O  read from file:
     /cluster/scratch/mnoe/QE/pps/O_ONCV_LDA-3.0.upf
     MD5 check sum: a1bd6164e7280c17a38c229939bfbd54
     Pseudo is Norm-conserving + core correction, Zval =  6.0
     Generated using ONCVPSP code by D. R. Hamann
     Using radial grid of  926 points,  5 beta functions with:
                l(1) =   0
                l(2) =   0
                l(3) =   1
                l(4) =   1
                l(5) =   2

     atomic species   valence    mass     pseudopotential
        W             28.00   183.84000     W ( 1.00)
        O              6.00    15.99940     O ( 1.00)

      8 Sym. Ops., with inversion, found ( 6 have fractional translation)

   Cartesian axes

     site n.     atom                  positions (alat units)
         1           W   tau(   1) = (   0.2446873   0.2886954   0.0050169  )
         2           W   tau(   2) = (   0.7553127   0.7694647  -0.0050169  )
         3           W   tau(   3) = (   0.2553127   0.2403847   0.5050169  )
         4           W   tau(   4) = (   0.7446872   0.8177755   0.4949831  )
         5           W   tau(   5) = (   0.7553127   0.2886954   0.4949831  )
         6           W   tau(   6) = (   0.2446873   0.7694647   0.5050169  )
         7           W   tau(   7) = (   0.7446872   0.2403847  -0.0050169  )
         8           W   tau(   8) = (   0.2553127   0.8177755   0.0050169  )
         9           O   tau(   9) = (   0.2401987   0.0062001   0.0015594  )
        10           O   tau(  10) = (   0.7598012  -0.0062002  -0.0015594  )
        11           O   tau(  11) = (   0.2598013   0.5228799   0.5015594  )
        12           O   tau(  12) = (   0.7401987   0.5352802   0.4984406  )
        13           O   tau(  13) = (   0.7598012   0.0062001   0.4984406  )
        14           O   tau(  14) = (   0.2401987  -0.0062002   0.5015594  )
        15           O   tau(  15) = (   0.7401987   0.5228799  -0.0015594  )
        16           O   tau(  16) = (   0.2598013   0.5352802   0.0015594  )
        17           O   tau(  17) = (   0.5014531   0.2539013   0.4716257  )
        18           O   tau(  18) = (   0.4985469   0.8042588   0.5283743  )
        19           O   tau(  19) = (  -0.0014531   0.2751787   0.9716258  )
        20           O   tau(  20) = (   0.0014531   0.7829814   0.0283742  )
        21           O   tau(  21) = (   0.4985469   0.2539013   0.0283742  )
        22           O   tau(  22) = (   0.5014531   0.8042588   0.9716258  )
        23           O   tau(  23) = (   0.0014531   0.2751787   0.5283743  )
        24           O   tau(  24) = (  -0.0014531   0.7829814   0.4716257  )
        25           O   tau(  25) = (   0.7216257   0.2622184   0.7477973  )
        26           O   tau(  26) = (   0.2783742   0.7959417   0.2522026  )
        27           O   tau(  27) = (   0.7783744   0.2668616   0.2477974  )
        28           O   tau(  28) = (   0.2216257   0.7912985   0.7522026  )
        29           O   tau(  29) = (   0.2783742   0.2622184   0.7522026  )
        30           O   tau(  30) = (   0.7216257   0.7959417   0.2477974  )
        31           O   tau(  31) = (   0.2216257   0.2668616   0.2522026  )
        32           O   tau(  32) = (   0.7783744   0.7912985   0.7477973  )

     number of k points=    64  gaussian smearing, width (Ry)=  0.0007
                       cart. coord. in units 2pi/alat
        k(    1) = (   0.0000000   0.0000000   0.0000000), wk =   0.0092593
        k(    2) = (   0.0000000   0.0000000   0.1666667), wk =   0.0185185
        k(    3) = (   0.0000000   0.0000000   0.3333333), wk =   0.0185185
        k(    4) = (   0.0000000   0.0000000  -0.5000000), wk =   0.0092593
        k(    5) = (   0.0000000   0.1575061   0.0000000), wk =   0.0185185
        k(    6) = (   0.0000000   0.1575061   0.1666667), wk =   0.0370370
        k(    7) = (   0.0000000   0.1575061   0.3333333), wk =   0.0370370
        k(    8) = (   0.0000000   0.1575061  -0.5000000), wk =   0.0185185
        k(    9) = (   0.0000000   0.3150122   0.0000000), wk =   0.0185185
        k(   10) = (   0.0000000   0.3150122   0.1666667), wk =   0.0370370
        k(   11) = (   0.0000000   0.3150122   0.3333333), wk =   0.0370370
        k(   12) = (   0.0000000   0.3150122  -0.5000000), wk =   0.0185185
        k(   13) = (   0.0000000  -0.4725183   0.0000000), wk =   0.0092593
        k(   14) = (   0.0000000  -0.4725183   0.1666667), wk =   0.0185185
        k(   15) = (   0.0000000  -0.4725183   0.3333333), wk =   0.0185185
        k(   16) = (   0.0000000  -0.4725183  -0.5000000), wk =   0.0092593
        k(   17) = (   0.1666667   0.0000000   0.1666667), wk =   0.0370370
        k(   18) = (   0.1666667   0.0000000   0.3333333), wk =   0.0370370
        k(   19) = (   0.1666667   0.0000000  -0.5000000), wk =   0.0185185
        k(   20) = (   0.1666667   0.1575061   0.1666667), wk =   0.0740741
        k(   21) = (   0.1666667   0.1575061   0.3333333), wk =   0.0740741
        k(   22) = (   0.1666667   0.1575061  -0.5000000), wk =   0.0370370
        k(   23) = (   0.1666667   0.3150122   0.1666667), wk =   0.0740741
        k(   24) = (   0.1666667   0.3150122   0.3333333), wk =   0.0740741
        k(   25) = (   0.1666667   0.3150122  -0.5000000), wk =   0.0370370
        k(   26) = (   0.1666667  -0.4725183   0.1666667), wk =   0.0370370
        k(   27) = (   0.1666667  -0.4725183   0.3333333), wk =   0.0370370
        k(   28) = (   0.1666667  -0.4725183  -0.5000000), wk =   0.0185185
        k(   29) = (   0.3333333   0.0000000   0.3333333), wk =   0.0370370
        k(   30) = (   0.3333333   0.0000000  -0.5000000), wk =   0.0185185
        k(   31) = (   0.3333333   0.1575061   0.3333333), wk =   0.0740741
        k(   32) = (   0.3333333   0.1575061  -0.5000000), wk =   0.0370370
        k(   33) = (   0.3333333   0.3150122   0.3333333), wk =   0.0740741
        k(   34) = (   0.3333333   0.3150122  -0.5000000), wk =   0.0370370
        k(   35) = (   0.3333333  -0.4725183   0.3333333), wk =   0.0370370
        k(   36) = (   0.3333333  -0.4725183  -0.5000000), wk =   0.0185185
        k(   37) = (  -0.5000000   0.0000000  -0.5000000), wk =   0.0092593
        k(   38) = (  -0.5000000   0.1575061  -0.5000000), wk =   0.0185185
        k(   39) = (  -0.5000000   0.3150122  -0.5000000), wk =   0.0185185
        k(   40) = (  -0.5000000  -0.4725183  -0.5000000), wk =   0.0092593
        k(   41) = (   0.1666667   0.0000000   0.0000000), wk =   0.0185185
        k(   42) = (   0.3333333   0.0000000   0.0000000), wk =   0.0185185
        k(   43) = (  -0.5000000   0.0000000   0.0000000), wk =   0.0092593
        k(   44) = (   0.1666667  -0.1575061   0.0000000), wk =   0.0370370
        k(   45) = (   0.3333333  -0.1575061   0.0000000), wk =   0.0370370
        k(   46) = (  -0.5000000  -0.1575061   0.0000000), wk =   0.0185185
        k(   47) = (   0.1666667  -0.3150122   0.0000000), wk =   0.0370370
        k(   48) = (   0.3333333  -0.3150122   0.0000000), wk =   0.0370370
        k(   49) = (  -0.5000000  -0.3150122   0.0000000), wk =   0.0185185
        k(   50) = (   0.1666667   0.4725183   0.0000000), wk =   0.0185185
        k(   51) = (   0.3333333   0.4725183   0.0000000), wk =   0.0185185
        k(   52) = (  -0.5000000   0.4725183   0.0000000), wk =   0.0092593
        k(   53) = (   0.3333333   0.0000000   0.1666667), wk =   0.0370370
        k(   54) = (  -0.5000000   0.0000000   0.1666667), wk =   0.0185185
        k(   55) = (   0.3333333  -0.1575061   0.1666667), wk =   0.0740741
        k(   56) = (  -0.5000000  -0.1575061   0.1666667), wk =   0.0370370
        k(   57) = (   0.3333333  -0.3150122   0.1666667), wk =   0.0740741
        k(   58) = (  -0.5000000  -0.3150122   0.1666667), wk =   0.0370370
        k(   59) = (   0.3333333   0.4725183   0.1666667), wk =   0.0370370
        k(   60) = (  -0.5000000   0.4725183   0.1666667), wk =   0.0185185
        k(   61) = (  -0.5000000   0.0000000   0.3333333), wk =   0.0185185
        k(   62) = (  -0.5000000  -0.1575061   0.3333333), wk =   0.0370370
        k(   63) = (  -0.5000000  -0.3150122   0.3333333), wk =   0.0370370
        k(   64) = (  -0.5000000   0.4725183   0.3333333), wk =   0.0185185

     Initial potential from superposition of free atoms

     starting charge  367.99656, renormalised to  368.00000
     Starting wfc are  232 randomized atomic wfcs

     Self-consistent Calculation

     iteration #  1     ecut=   120.00 Ry     beta= 0.70
     Davidson diagonalization with overlap
     ethr =  1.00E-02,  avg # of iterations =  5.2

     total energy              =   -6254.04589226 Ry
     Harris-Foulkes estimate   =   -6264.55274864 Ry
     estimated scf accuracy    <      13.33582913 Ry

[...]

     End of self-consistent calculation

[...]
End final coordinates

     A final scf calculation at the relaxed structure.
     The G-vectors are recalculated for the final unit cell
     Results may differ from those at the preceding step.

     bravais-lattice index     =            0
     lattice parameter (alat)  =      13.8397  a.u.
     unit-cell volume          =    2865.0745 (a.u.)^3
     number of atoms/cell      =           32
     number of atomic types    =            2
     number of electrons       =       368.00
     number of Kohn-Sham states=          221
     kinetic-energy cutoff     =     120.0000  Ry
     charge density cutoff     =     480.0000  Ry
     convergence threshold     =      1.0E-10
     mixing beta               =       0.7000
     number of iterations used =            8  plain     mixing
     Exchange-correlation      = SLA PW NOGX NOGC ( 1  4  0  0 0 0)

     celldm(1)=  13.839685  celldm(2)=   0.000000  celldm(3)=   0.000000
     celldm(4)=   0.000000  celldm(5)=   0.000000  celldm(6)=   0.000000

     crystal axes: (cart. coord. in units of alat)
               a(1) = (   1.017710   0.000000   0.000000 )
               a(2) = (   0.000000   1.043061   0.000000 )
               a(3) = (   0.000000   0.000000   1.018177 )

     reciprocal axes: (cart. coord. in units 2 pi/alat)
               b(1) = (  0.982598  0.000000  0.000000 )
               b(2) = (  0.000000  0.958717  0.000000 )
               b(3) = (  0.000000  0.000000  0.982147 )

     PseudoPot. # 1 for W  read from file:
     /cluster/scratch/mnoe/QE/pps/W_ONCV_LDA-4.0.upf
     MD5 check sum: ba0307d5d4cd419d6f1d13dc49d7c13a
     Pseudo is Norm-conserving + core correction, Zval = 28.0
     Generated using ONCVPSP code by D. R. Hamann
     Using radial grid of 1380 points,  8 beta functions with:
                l(1) =   0
                l(2) =   0
                l(3) =   1
                l(4) =   1
                l(5) =   2
                l(6) =   2
                l(7) =   3
                l(8) =   3

     PseudoPot. # 2 for O  read from file:
     /cluster/scratch/mnoe/QE/pps/O_ONCV_LDA-3.0.upf
     MD5 check sum: a1bd6164e7280c17a38c229939bfbd54
     Pseudo is Norm-conserving + core correction, Zval =  6.0
     Generated using ONCVPSP code by D. R. Hamann
     Using radial grid of  926 points,  5 beta functions with:
                l(1) =   0
                l(2) =   0
                l(3) =   1
                l(4) =   1
                l(5) =   2

     atomic species   valence    mass     pseudopotential
        W             28.00   183.84000     W ( 1.00)
        O              6.00    15.99940     O ( 1.00)

      8 Sym. Ops., with inversion, found ( 6 have fractional translation)

   Cartesian axes

     site n.     atom                  positions (alat units)
         1           W   tau(   1) = (   0.2490207   0.2845760   0.0051081  )
         2           W   tau(   2) = (   0.7686893   0.7584851  -0.0051081  )
         3           W   tau(   3) = (   0.2598343   0.2369546   0.5141969  )
         4           W   tau(   4) = (   0.7578757   0.8061065   0.5039806  )
         5           W   tau(   5) = (   0.7686893   0.2845760   0.5039806  )
         6           W   tau(   6) = (   0.2490207   0.7584851   0.5141969  )
         7           W   tau(   7) = (   0.7578757   0.2369546  -0.0051081  )
         8           W   tau(   8) = (   0.2598343   0.8061065   0.0051081  )
         9           O   tau(   9) = (   0.2444527   0.0061116   0.0015877  )
        10           O   tau(  10) = (   0.7732574  -0.0061117  -0.0015877  )
        11           O   tau(  11) = (   0.2644024   0.5154189   0.5106764  )
        12           O   tau(  12) = (   0.7533077   0.5276422   0.5075010  )
        13           O   tau(  13) = (   0.7732574   0.0061116   0.5075010  )
        14           O   tau(  14) = (   0.2444527  -0.0061117   0.5106764  )
        15           O   tau(  15) = (   0.7533077   0.5154189  -0.0015877  )
        16           O   tau(  16) = (   0.2644024   0.5276422   0.0015877  )
        17           O   tau(  17) = (   0.5103339   0.2502783   0.4801987  )
        18           O   tau(  18) = (   0.5073762   0.7927827   0.5379788  )
        19           O   tau(  19) = (  -0.0014788   0.2712522   0.9892874  )
        20           O   tau(  20) = (   0.0014788   0.7718089   0.0288900  )
        21           O   tau(  21) = (   0.5073762   0.2502783   0.0288900  )
        22           O   tau(  22) = (   0.5103339   0.7927827   0.9892874  )
        23           O   tau(  23) = (   0.0014788   0.2712522   0.5379788  )
        24           O   tau(  24) = (  -0.0014788   0.7718089   0.4801987  )
        25           O   tau(  25) = (   0.7344058   0.2584768   0.7613904  )
        26           O   tau(  26) = (   0.2833043   0.7845843   0.2567870  )
        27           O   tau(  27) = (   0.7921595   0.2630537   0.2523017  )
        28           O   tau(  28) = (   0.2255508   0.7800073   0.7658757  )
        29           O   tau(  29) = (   0.2833043   0.2584768   0.7658757  )
        30           O   tau(  30) = (   0.7344058   0.7845843   0.2523017  )
        31           O   tau(  31) = (   0.2255508   0.2630537   0.2567870  )
        32           O   tau(  32) = (   0.7921595   0.7800073   0.7613904  )

     number of k points=    64  gaussian smearing, width (Ry)=  0.0007
                       cart. coord. in units 2pi/alat
        k(    1) = (   0.0000000   0.0000000   0.0000000), wk =   0.0092593
        k(    2) = (   0.0000000   0.0000000   0.1636912), wk =   0.0185185
        k(    3) = (   0.0000000   0.0000000   0.3273824), wk =   0.0185185
        k(    4) = (   0.0000000   0.0000000  -0.4910735), wk =   0.0092593
        k(    5) = (   0.0000000   0.1597861   0.0000000), wk =   0.0185185
        k(    6) = (   0.0000000   0.1597861   0.1636912), wk =   0.0370370
        k(    7) = (   0.0000000   0.1597861   0.3273824), wk =   0.0370370
        k(    8) = (   0.0000000   0.1597861  -0.4910735), wk =   0.0185185
        k(    9) = (   0.0000000   0.3195722   0.0000000), wk =   0.0185185
        k(   10) = (   0.0000000   0.3195722   0.1636912), wk =   0.0370370
        k(   11) = (   0.0000000   0.3195722   0.3273824), wk =   0.0370370
        k(   12) = (   0.0000000   0.3195722  -0.4910735), wk =   0.0185185
        k(   13) = (   0.0000000  -0.4793583   0.0000000), wk =   0.0092593
        k(   14) = (   0.0000000  -0.4793583   0.1636912), wk =   0.0185185
        k(   15) = (   0.0000000  -0.4793583   0.3273824), wk =   0.0185185
        k(   16) = (   0.0000000  -0.4793583  -0.4910735), wk =   0.0092593
        k(   17) = (   0.1637663   0.0000000   0.1636912), wk =   0.0370370
        k(   18) = (   0.1637663   0.0000000   0.3273824), wk =   0.0370370
        k(   19) = (   0.1637663   0.0000000  -0.4910735), wk =   0.0185185
        k(   20) = (   0.1637663   0.1597861   0.1636912), wk =   0.0740741
        k(   21) = (   0.1637663   0.1597861   0.3273824), wk =   0.0740741
        k(   22) = (   0.1637663   0.1597861  -0.4910735), wk =   0.0370370
        k(   23) = (   0.1637663   0.3195722   0.1636912), wk =   0.0740741
        k(   24) = (   0.1637663   0.3195722   0.3273824), wk =   0.0740741
        k(   25) = (   0.1637663   0.3195722  -0.4910735), wk =   0.0370370
        k(   26) = (   0.1637663  -0.4793583   0.1636912), wk =   0.0370370
        k(   27) = (   0.1637663  -0.4793583   0.3273824), wk =   0.0370370
        k(   28) = (   0.1637663  -0.4793583  -0.4910735), wk =   0.0185185
        k(   29) = (   0.3275327   0.0000000   0.3273824), wk =   0.0370370
        k(   30) = (   0.3275327   0.0000000  -0.4910735), wk =   0.0185185
        k(   31) = (   0.3275327   0.1597861   0.3273824), wk =   0.0740741
        k(   32) = (   0.3275327   0.1597861  -0.4910735), wk =   0.0370370
        k(   33) = (   0.3275327   0.3195722   0.3273824), wk =   0.0740741
        k(   34) = (   0.3275327   0.3195722  -0.4910735), wk =   0.0370370
        k(   35) = (   0.3275327  -0.4793583   0.3273824), wk =   0.0370370
        k(   36) = (   0.3275327  -0.4793583  -0.4910735), wk =   0.0185185
        k(   37) = (  -0.4912990   0.0000000  -0.4910735), wk =   0.0092593
        k(   38) = (  -0.4912990   0.1597861  -0.4910735), wk =   0.0185185
        k(   39) = (  -0.4912990   0.3195722  -0.4910735), wk =   0.0185185
        k(   40) = (  -0.4912990  -0.4793583  -0.4910735), wk =   0.0092593
        k(   41) = (   0.1637663   0.0000000   0.0000000), wk =   0.0185185
        k(   42) = (   0.3275327   0.0000000   0.0000000), wk =   0.0185185
        k(   43) = (  -0.4912990   0.0000000   0.0000000), wk =   0.0092593
        k(   44) = (   0.1637663  -0.1597861   0.0000000), wk =   0.0370370
        k(   45) = (   0.3275327  -0.1597861   0.0000000), wk =   0.0370370
        k(   46) = (  -0.4912990  -0.1597861   0.0000000), wk =   0.0185185
        k(   47) = (   0.1637663  -0.3195722   0.0000000), wk =   0.0370370
        k(   48) = (   0.3275327  -0.3195722   0.0000000), wk =   0.0370370
        k(   49) = (  -0.4912990  -0.3195722   0.0000000), wk =   0.0185185
        k(   50) = (   0.1637663   0.4793583   0.0000000), wk =   0.0185185
        k(   51) = (   0.3275327   0.4793583   0.0000000), wk =   0.0185185
        k(   52) = (  -0.4912990   0.4793583   0.0000000), wk =   0.0092593
        k(   53) = (   0.3275327   0.0000000   0.1636912), wk =   0.0370370
        k(   54) = (  -0.4912990   0.0000000   0.1636912), wk =   0.0185185
        k(   55) = (   0.3275327  -0.1597861   0.1636912), wk =   0.0740741
        k(   56) = (  -0.4912990  -0.1597861   0.1636912), wk =   0.0370370
        k(   57) = (   0.3275327  -0.3195722   0.1636912), wk =   0.0740741
        k(   58) = (  -0.4912990  -0.3195722   0.1636912), wk =   0.0370370
        k(   59) = (   0.3275327   0.4793583   0.1636912), wk =   0.0370370
        k(   60) = (  -0.4912990   0.4793583   0.1636912), wk =   0.0185185
        k(   61) = (  -0.4912990   0.0000000   0.3273824), wk =   0.0185185
        k(   62) = (  -0.4912990  -0.1597861   0.3273824), wk =   0.0370370
        k(   63) = (  -0.4912990  -0.3195722   0.3273824), wk =   0.0370370
        k(   64) = (  -0.4912990   0.4793583   0.3273824), wk =   0.0185185

     Initial potential from superposition of free atoms

     starting charge  367.99656, renormalised to  368.00000
     Starting wfc are  232 randomized atomic wfcs

     Writing output data file Landau_23.save

     Self-consistent Calculation

[...]

     total energy              =   -6261.09775529 Ry
     Harris-Foulkes estimate   =   -6261.09775529 Ry
     estimated scf accuracy    <          1.9E-09 Ry

     iteration # 14     ecut=   120.00 Ry     beta= 0.70
     Davidson diagonalization with overlap
     ethr =  5.21E-13,  avg # of iterations =  2.0

     End of self-consistent calculation

[...]

          k = 0.3275 0.4794 0.1637 ( 63604 PWs)   bands (ev):

[...]

          k =-0.4913 0.4794 0.3274 ( 63584 PWs)   bands (ev):

   -66.5618 -66.5617 -66.5617 -66.5617 -66.5614 -66.5614 -66.5614 -66.5614
   -30.8899 -30.8899 -30.8895 -30.8895 -30.8870 -30.8870 -30.8865 -30.8865
   -30.8725 -30.8725 -30.8723 -30.8723 -30.8517 -30.8517 -30.8511 -30.8511
   -30.8498 -30.8498 -30.8492 -30.8492 -30.8288 -30.8288 -30.8288 -30.8288
   -20.7325 -20.7325 -20.7325 -20.7325 -20.7324 -20.7324 -20.7324 -20.7324
   -20.7064 -20.7064 -20.7064 -20.7064 -20.7059 -20.7059 -20.7059 -20.7059
   -20.7043 -20.7043 -20.7043 -20.7042 -20.7041 -20.7041 -20.7041 -20.7041
   -20.7034 -20.7034 -20.7034 -20.7034 -20.7031 -20.7031 -20.7030 -20.7030
   -20.6979 -20.6979 -20.6979 -20.6979 -20.6972 -20.6972 -20.6972 -20.6972
   -20.6961 -20.6961 -20.6961 -20.6961 -20.6944 -20.6943 -20.6943 -20.6943
   -20.6940 -20.6940 -20.6939 -20.6939 -20.6924 -20.6924 -20.6924 -20.6924
    -9.4976  -9.4976  -9.4944  -9.4944  -9.1189  -9.1188  -9.1100  -9.1100
    -8.8885  -8.8885  -8.8806  -8.8806  -8.7416  -8.7416  -8.7296  -8.7295
    -8.7144  -8.7144  -8.7037  -8.7037  -8.4356  -8.4356  -8.4351  -8.4351
     1.8860   1.8860   1.8904   1.8904   2.7058   2.7058   2.7408   2.7408
     2.7964   2.7964   2.8152   2.8152   2.9221   2.9221   2.9681   2.9681
     3.0610   3.0610   3.0832   3.0832   3.3154   3.3154   3.3573   3.3573
     3.4328   3.4328   3.5070   3.5070   3.8682   3.8682   3.8840   3.8840
     3.9340   3.9340   3.9727   3.9727   4.0482   4.0482   4.0897   4.0897
     4.3206   4.3206   4.3950   4.3950   4.6910   4.6910   4.7011   4.7011
     6.7244   6.7244   6.7779   6.7780   6.8319   6.8320   6.8374   6.8375
     6.9916   6.9916   7.0412   7.0412   7.0738   7.0738   7.1044   7.1045
     7.1766   7.1766   7.2326   7.2326   7.3398   7.3398   7.3685   7.3686
    11.0591  11.0591  11.1025  11.1025  11.2531  11.2531  11.3255  11.3255
    11.7460  11.7460  11.7884  11.7885  11.8179  11.8179  11.8509  11.8509
    12.0994  12.0994  12.2192  12.2192  12.4056  12.4056  12.4878  12.4878
    16.2843  16.2843  16.3189  16.3189  16.7121  16.7122  16.7280  16.7280
    17.1653  17.1653  17.2693  17.2694  17.3579

     the Fermi energy is     8.5890 ev

!    total energy              =   -6261.09775529 Ry
     Harris-Foulkes estimate   =   -6261.09775529 Ry
     estimated scf accuracy    <          8.6E-11 Ry

     The total energy is the sum of the following terms:

     one-electron contribution =   -4812.63187704 Ry
     hartree contribution      =    2638.15044114 Ry
     xc contribution           =    -965.67427548 Ry
     ewald contribution        =   -3120.94204392 Ry
     smearing contrib. (-TS)   =      -0.00000000 Ry

     convergence has been achieved in  14 iterations

     Forces acting on atoms (cartesian axes, Ry/au):

     atom    1 type  1   force =    -0.00561664    0.01694216    0.00489456
     atom    2 type  1   force =     0.00561664   -0.01694216   -0.00489456
     atom    3 type  1   force =     0.00561664   -0.01694216    0.00489456
     atom    4 type  1   force =    -0.00561664    0.01694216   -0.00489456
     atom    5 type  1   force =     0.00561664    0.01694216   -0.00489456
     atom    6 type  1   force =    -0.00561664   -0.01694216    0.00489456
     atom    7 type  1   force =    -0.00561664   -0.01694216   -0.00489456
     atom    8 type  1   force =     0.00561664    0.01694216    0.00489456
     atom    9 type  2   force =    -0.00007078   -0.00901803   -0.00042889
     atom   10 type  2   force =     0.00007078    0.00901803    0.00042889
     atom   11 type  2   force =     0.00007078    0.00901803   -0.00042889
     atom   12 type  2   force =    -0.00007078   -0.00901803    0.00042889
     atom   13 type  2   force =     0.00007078   -0.00901803    0.00042889
     atom   14 type  2   force =    -0.00007078    0.00901803   -0.00042889
     atom   15 type  2   force =    -0.00007078    0.00901803    0.00042889
     atom   16 type  2   force =     0.00007078   -0.00901803   -0.00042889
     atom   17 type  2   force =    -0.00313474   -0.00055923   -0.00122784
     atom   18 type  2   force =     0.00313474    0.00055923    0.00122784
     atom   19 type  2   force =     0.00313474    0.00055923   -0.00122784
     atom   20 type  2   force =    -0.00313474   -0.00055923    0.00122784
     atom   21 type  2   force =     0.00313474   -0.00055923    0.00122784
     atom   22 type  2   force =    -0.00313474    0.00055923   -0.00122784
     atom   23 type  2   force =    -0.00313474    0.00055923    0.00122784
     atom   24 type  2   force =     0.00313474   -0.00055923   -0.00122784
     atom   25 type  2   force =    -0.00169769    0.00084196    0.00389578
     atom   26 type  2   force =     0.00169769   -0.00084196   -0.00389578
     atom   27 type  2   force =     0.00169769   -0.00084196    0.00389578
     atom   28 type  2   force =    -0.00169769    0.00084196   -0.00389578
     atom   29 type  2   force =     0.00169769    0.00084196   -0.00389578
     atom   30 type  2   force =    -0.00169769   -0.00084196    0.00389578
     atom   31 type  2   force =    -0.00169769   -0.00084196   -0.00389578
     atom   32 type  2   force =     0.00169769    0.00084196    0.00389578

     Total force =     0.000000     Total SCF correction =     0.000000

     Computing stress (Cartesian axis) and pressure

          total   stress  (Ry/bohr**3)                   (kbar)     P=    1.04
   0.00001012   0.00000000   0.00000000          1.49      0.00      0.00
   0.00000000   0.00000073   0.00000000          0.00      0.11      0.00
   0.00000000   0.00000000   0.00001038          0.00      0.00      1.53

     Writing output data file Landau_23.save

     General routines

     Parallel routines

   This run was terminated on:   3: 8: 8  20Mar2020

   JOB DONE.