     Program PWSCF v.6.2 (svn rev. 14038) starts on 10Sep2019 at 19: 2:37

     K-points division:     npool     =      40
     Reading input from scf.in

     Current dimensions of program PWSCF are:
     Max number of different atomic species (ntypx) = 10
     Max number of k-points (npk) =  40000
     Max angular momentum in pseudopotentials (lmaxx) =  3

     Subspace diagonalization in iterative solution of the eigenvalue problem:
     a serial algorithm will be used

     bravais-lattice index     =            0
     lattice parameter (alat)  =      13.9029  a.u.
     unit-cell volume          =    2739.0699 (a.u.)^3
     number of atoms/cell      =           32
     number of atomic types    =            2
     number of electrons       =       368.15
     number of Kohn-Sham states=          221
     kinetic-energy cutoff     =     120.0000  Ry
     charge density cutoff     =     480.0000  Ry
     convergence threshold     =      1.0E-08
     mixing beta               =       0.7000
     number of iterations used =            8  plain     mixing
     Exchange-correlation      = SLA PW NOGX NOGC ( 1  4  0  0 0 0)

     celldm(1)=  13.902912  celldm(2)=   0.000000  celldm(3)=   0.000000
     celldm(4)=   0.000000  celldm(5)=   0.000000  celldm(6)=   0.000000

     crystal axes: (cart. coord. in units of alat)
               a(1) = (   1.000000   0.000000   0.000000 )
               a(2) = (   0.000000   1.019262   0.000000 )
               a(3) = (   0.000000   0.000000   1.000000 )

     reciprocal axes: (cart. coord. in units 2 pi/alat)
               b(1) = (  1.000000  0.000000  0.000000 )
               b(2) = (  0.000000  0.981102  0.000000 )
               b(3) = (  0.000000  0.000000  1.000000 )

     PseudoPot. # 1 for W  read from file:
     /cluster/scratch/mnoe/QE/pps/W_ONCV_LDA-4.0.upf
     MD5 check sum: ba0307d5d4cd419d6f1d13dc49d7c13a
     Pseudo is Norm-conserving + core correction, Zval = 28.0
     Generated using ONCVPSP code by D. R. Hamann
     Using radial grid of 1380 points,  8 beta functions with:
                l(1) =   0
                l(2) =   0
                l(3) =   1
                l(4) =   1
                l(5) =   2
                l(6) =   2
                l(7) =   3
                l(8) =   3

     PseudoPot. # 2 for O  read from file:
     /cluster/scratch/mnoe/QE/pps/O_ONCV_LDA-3.0.upf
     MD5 check sum: ca1549d10c4e927e51167f6fca52ae32
     Pseudo is Norm-conserving + core correction, Zval =  6.0
     Generated using ONCVPSP code by D. R. Hamann
     Using radial grid of  926 points,  5 beta functions with:
                l(1) =   0
                l(2) =   0
                l(3) =   1
                l(4) =   1
                l(5) =   2

     atomic species   valence    mass     pseudopotential
        W             28.00   183.84000     W ( 1.00)
        O              6.00    15.99940     O ( 1.00)

      8 Sym. Ops. (no inversion) found ( 4 have fractional translation)

   Cartesian axes

     site n.     atom                  positions (alat units)
         1           W   tau(   1) = (   0.2832700   0.2872892   0.2509500  )
         2           W   tau(   2) = (  -0.2509500   0.7319727  -0.7167300  )
         3           W   tau(   3) = (   0.2167300   0.2223418   0.7509500  )
         4           W   tau(   4) = (   0.7509500   0.7969201   0.7832700  )
         5           W   tau(   5) = (   0.7167300   0.2872892   0.7490500  )
         6           W   tau(   6) = (   0.2509500   0.7319727   0.7167300  )
         7           W   tau(   7) = (  -0.2167300   0.2223418  -0.7509500  )
         8           W   tau(   8) = (   0.2490500   0.7969201   0.2167300  )
         9           O   tau(   9) = (   0.2866000   0.0084803   0.2765400  )
        10           O   tau(  10) = (  -0.2765401   1.0107816  -0.7134000  )
        11           O   tau(  11) = (   0.2134000   0.5011507   0.7765400  )
        12           O   tau(  12) = (   0.7765400   0.5181112   0.7866000  )
        13           O   tau(  13) = (   0.7134000   0.0084803   0.7234600  )
        14           O   tau(  14) = (   0.2765400   1.0107816   0.7134000  )
        15           O   tau(  15) = (  -0.2134000   0.5011507  -0.7765401  )
        16           O   tau(  16) = (   0.2234600   0.5181112   0.2134000  )
        17           O   tau(  17) = (   0.4882300   0.2950254   0.6995400  )
        18           O   tau(  18) = (   0.4975900   0.7386489   0.8004600  )
        19           O   tau(  19) = (  -0.9882300   0.2146056   1.1995400  )
        20           O   tau(  20) = (   0.0024101   0.7902439   0.3004600  )
        21           O   tau(  21) = (   0.5117700   0.2950254   0.3004600  )
        22           O   tau(  22) = (   0.5024100   0.7386489   1.1995400  )
        23           O   tau(  23) = (  -0.0117699   0.2146056   0.8004600  )
        24           O   tau(  24) = (  -1.0024100   0.7902439   0.6995400  )
        25           O   tau(  25) = (   0.6995400   0.2290180   2.0024100  )
        26           O   tau(  26) = (   0.3004600   0.7242365   0.4882300  )
        27           O   tau(  27) = (   0.8004600   0.2806130   0.5024100  )
        28           O   tau(  28) = (   0.1995400   0.8046563   1.9882300  )
        29           O   tau(  29) = (   0.3004600   0.2290180   0.9975899  )
        30           O   tau(  30) = (   0.6995400   0.7242365   0.5117700  )
        31           O   tau(  31) = (   0.1995400   0.2806130   0.4975900  )
        32           O   tau(  32) = (   0.8004600   0.8046563   1.0117699  )

     number of k points=    40  gaussian smearing, width (Ry)=  0.0007
                       cart. coord. in units 2pi/alat
        k(    1) = (   0.0000000   0.0000000   0.0000000), wk =   0.0092593
        k(    2) = (   0.0000000   0.0000000   0.1666667), wk =   0.0370370
        k(    3) = (   0.0000000   0.0000000   0.3333333), wk =   0.0370370
        k(    4) = (   0.0000000   0.0000000  -0.5000000), wk =   0.0185185
        k(    5) = (   0.0000000   0.1635170   0.0000000), wk =   0.0185185
        k(    6) = (   0.0000000   0.1635170   0.1666667), wk =   0.0740741
        k(    7) = (   0.0000000   0.1635170   0.3333333), wk =   0.0740741
        k(    8) = (   0.0000000   0.1635170  -0.5000000), wk =   0.0370370
        k(    9) = (   0.0000000   0.3270340   0.0000000), wk =   0.0185185
        k(   10) = (   0.0000000   0.3270340   0.1666667), wk =   0.0740741
        k(   11) = (   0.0000000   0.3270340   0.3333333), wk =   0.0740741
        k(   12) = (   0.0000000   0.3270340  -0.5000000), wk =   0.0370370
        k(   13) = (   0.0000000  -0.4905511   0.0000000), wk =   0.0092593
        k(   14) = (   0.0000000  -0.4905511   0.1666667), wk =   0.0370370
        k(   15) = (   0.0000000  -0.4905511   0.3333333), wk =   0.0370370
        k(   16) = (   0.0000000  -0.4905511  -0.5000000), wk =   0.0185185
        k(   17) = (   0.1666667   0.0000000   0.1666667), wk =   0.0370370
        k(   18) = (   0.1666667   0.0000000   0.3333333), wk =   0.0740741
        k(   19) = (   0.1666667   0.0000000  -0.5000000), wk =   0.0370370
        k(   20) = (   0.1666667   0.1635170   0.1666667), wk =   0.0740741
        k(   21) = (   0.1666667   0.1635170   0.3333333), wk =   0.1481481
        k(   22) = (   0.1666667   0.1635170  -0.5000000), wk =   0.0740741
        k(   23) = (   0.1666667   0.3270340   0.1666667), wk =   0.0740741
        k(   24) = (   0.1666667   0.3270340   0.3333333), wk =   0.1481481
        k(   25) = (   0.1666667   0.3270340  -0.5000000), wk =   0.0740741
        k(   26) = (   0.1666667  -0.4905511   0.1666667), wk =   0.0370370
        k(   27) = (   0.1666667  -0.4905511   0.3333333), wk =   0.0740741
        k(   28) = (   0.1666667  -0.4905511  -0.5000000), wk =   0.0370370
        k(   29) = (   0.3333333   0.0000000   0.3333333), wk =   0.0370370
        k(   30) = (   0.3333333   0.0000000  -0.5000000), wk =   0.0370370
        k(   31) = (   0.3333333   0.1635170   0.3333333), wk =   0.0740741
        k(   32) = (   0.3333333   0.1635170  -0.5000000), wk =   0.0740741
        k(   33) = (   0.3333333   0.3270340   0.3333333), wk =   0.0740741
        k(   34) = (   0.3333333   0.3270340  -0.5000000), wk =   0.0740741
        k(   35) = (   0.3333333  -0.4905511   0.3333333), wk =   0.0370370
        k(   36) = (   0.3333333  -0.4905511  -0.5000000), wk =   0.0370370
        k(   37) = (  -0.5000000   0.0000000  -0.5000000), wk =   0.0092593
        k(   38) = (  -0.5000000   0.1635170  -0.5000000), wk =   0.0185185
        k(   39) = (  -0.5000000   0.3270340  -0.5000000), wk =   0.0185185
        k(   40) = (  -0.5000000  -0.4905511  -0.5000000), wk =   0.0092593

     Initial potential from superposition of free atoms

     starting charge  367.99656, renormalised to  368.15000
     Starting wfc are  232 randomized atomic wfcs

     Self-consistent Calculation

     iteration #  1     ecut=   120.00 Ry     beta= 0.70
     Davidson diagonalization with overlap
     ethr =  1.00E-02,  avg # of iterations =  4.3

     total energy              =   -6253.84426569 Ry
     Harris-Foulkes estimate   =   -6264.37916580 Ry
     estimated scf accuracy    <      13.32891071 Ry

[...]

     total energy              =   -6260.93183575 Ry
     Harris-Foulkes estimate   =   -6260.93183579 Ry
     estimated scf accuracy    <       0.00000008 Ry

     iteration # 12     ecut=   120.00 Ry     beta= 0.70
     Davidson diagonalization with overlap
     ethr =  2.14E-11,  avg # of iterations =  2.0

     End of self-consistent calculation

          k = 0.0000 0.0000 0.0000 ( 60813 PWs)   bands (ev):

   -65.7006 -65.6999 -65.6997 -65.6997 -65.6990 -65.6990 -65.6988 -65.6981
   -30.2287 -30.2253 -30.2225 -30.2225 -30.1444 -30.1444 -30.1438 -30.1354
   -30.0630 -30.0555 -30.0555 -30.0481 -29.9853 -29.9816 -29.9816 -29.9775
   -29.9703 -29.9683 -29.9606 -29.9606 -29.8877 -29.8877 -29.8831 -29.8813
   -19.8518 -19.8516 -19.8514 -19.8514 -19.8510 -19.8510 -19.8508 -19.8506
   -19.8401 -19.8401 -19.8400 -19.8396 -19.8393 -19.8389 -19.8388 -19.8387
   -19.8335 -19.8334 -19.8331 -19.8331 -19.8288 -19.8287 -19.8287 -19.8283
   -19.8196 -19.8191 -19.8191 -19.8186 -19.8156 -19.8151 -19.8150 -19.8147
   -19.8134 -19.8134 -19.8132 -19.8129 -19.8125 -19.8124 -19.8124 -19.8121
   -19.8072 -19.8070 -19.8061 -19.8061 -19.8031 -19.8031 -19.8026 -19.8023
   -19.7985 -19.7981 -19.7978 -19.7978 -19.7959 -19.7959 -19.7956 -19.7951
    -9.5872  -9.2438  -9.1683  -9.1683  -8.7018  -8.7018  -8.6769  -8.5571
    -8.4099  -8.3153  -8.3137  -8.3137  -7.7385  -7.6686  -7.5539  -7.5539
    -7.3973  -7.3266  -7.3266  -7.2748  -7.2630  -7.2448  -7.1181  -7.1181
     1.7305   1.7852   1.8009   1.8009   1.9706   2.0106   2.0175   2.0175
     2.1916   2.1916   2.3039   2.4759   2.7312   2.8123   2.8946   3.0465
     3.0701   3.0701   4.5661   4.5661   4.8119   4.9517   4.9539   4.9992
     4.9992   5.1296   5.1414   5.1414   5.5330   5.5330   5.5509   5.7177
     5.7466   5.7806   5.8157   5.8157   6.0638   6.0638   6.1042   6.1175
     6.1454   6.1454   6.1655   6.2728   6.2728   6.2789   6.4148   6.4470
     6.5853   6.7244   6.7761   6.7761   6.9236   6.9906   7.2036   7.2036
     7.2201   7.3456   7.3625   7.3708   7.3708   7.5151   7.5151   7.5679
     7.8675   7.8675   8.0183   8.0771   8.2163   8.3358   8.3358   8.5136
    10.3506  10.5111  10.6674  10.6674  10.7007  10.7675  12.5021  12.5316
    12.5316  12.7147  12.7147  12.8352  13.0356  13.2482  13.2482  13.4120
    13.4504  13.6168  13.6170  13.6170  14.0668  14.0685  14.0685  14.3542
    15.0872  15.2567  15.2567  15.3104  15.6696  16.0361  16.1896  16.2521
    16.2521  17.0101  17.2660  17.2660  18.0856

[...]

          k = 0.3333-0.4906-0.5000 ( 60832 PWs)   bands (ev):

[...]

          k =-0.5000 0.0000-0.5000 ( 60868 PWs)   bands (ev):

[...]

          k =-0.5000-0.4906-0.5000 ( 60792 PWs)   bands (ev):

   -65.6994 -65.6994 -65.6994 -65.6994 -65.6994 -65.6994 -65.6994 -65.6993
   -30.1832 -30.1832 -30.1822 -30.1822 -30.1821 -30.1821 -30.1821 -30.1820
   -30.0204 -30.0204 -30.0203 -30.0203 -30.0203 -30.0203 -30.0195 -30.0195
   -29.9252 -29.9252 -29.9251 -29.9251 -29.9251 -29.9251 -29.9249 -29.9249
   -19.8512 -19.8512 -19.8512 -19.8512 -19.8512 -19.8512 -19.8512 -19.8512
   -19.8395 -19.8395 -19.8395 -19.8395 -19.8394 -19.8394 -19.8394 -19.8394
   -19.8311 -19.8311 -19.8311 -19.8311 -19.8310 -19.8310 -19.8309 -19.8309
   -19.8162 -19.8162 -19.8162 -19.8162 -19.8161 -19.8161 -19.8160 -19.8160
   -19.8139 -19.8139 -19.8139 -19.8139 -19.8138 -19.8138 -19.8138 -19.8138
   -19.8046 -19.8046 -19.8046 -19.8046 -19.8045 -19.8045 -19.8045 -19.8045
   -19.7971 -19.7970 -19.7970 -19.7970 -19.7970 -19.7970 -19.7969 -19.7969
    -8.6748  -8.6748  -8.5984  -8.5984  -8.5771  -8.5771  -8.5771  -8.5771
    -8.1116  -8.1116  -8.0089  -8.0089  -8.0088  -8.0088  -7.9554  -7.9553
    -7.8290  -7.8290  -7.8290  -7.8290  -7.7493  -7.7493  -7.7293  -7.7293
     3.2186   3.2186   3.2205   3.2205   3.2205   3.2205   3.2923   3.2923
     3.3997   3.3997   3.5761   3.5761   3.5761   3.5761   3.7393   3.7393
     3.8212   3.8212   3.8925   3.8925   3.9315   3.9315   3.9315   3.9315
     4.4774   4.4774   4.4887   4.4887   4.6014   4.6014   4.6014   4.6014
     4.7753   4.7754   4.8031   4.8031   4.8031   4.8031   4.8847   4.8847
     4.9786   4.9786   5.0515   5.0515   5.0515   5.0515   5.0662   5.0662
     7.3087   7.3087   7.4515   7.4515   7.4516   7.4516   7.6235   7.6236
     7.7111   7.7111   7.7111   7.7111   7.7938   7.7939   7.8799   7.8799
     8.0183   8.0183   8.0183   8.0183   8.0394   8.0394   8.0950   8.0950
    12.2150  12.2150  12.2893  12.2893  12.2893  12.2893  12.3562  12.3562
    12.6861  12.6861  12.6861  12.6861  12.7427  12.7428  12.9048  12.9048
    12.9747  12.9747  13.1234  13.1234  13.1235  13.1235  13.1615  13.1615
    17.0698  17.0698  17.0698  17.0698  17.2185  17.2186  17.2616  17.2616
    17.6432  17.6432  17.7281  17.7281  17.7281

     the Fermi energy is    10.5646 ev

!    total energy              =   -6260.93183576 Ry
     Harris-Foulkes estimate   =   -6260.93183577 Ry
     estimated scf accuracy    <          9.2E-09 Ry

     The total energy is the sum of the following terms:

     one-electron contribution =   -4597.15760142 Ry
     hartree contribution      =    2541.34527419 Ry
     xc contribution           =    -965.77776682 Ry
     ewald contribution        =   -3239.34173942 Ry
     smearing contrib. (-TS)   =      -0.00000229 Ry

     convergence has been achieved in  12 iterations

     Writing output data file Landau_37.save

     General routines

     Parallel routines

   This run was terminated on:  19:12:31  10Sep2019

   JOB DONE.