     Program PWSCF v.6.2 (svn rev. 14038) starts on 28Feb2020 at 18:37:42

     K-points division:     npool     =      40
     Reading input from rscf.in

     Current dimensions of program PWSCF are:
     Max number of different atomic species (ntypx) = 10
     Max number of k-points (npk) =  40000
     Max angular momentum in pseudopotentials (lmaxx) =  3

     Subspace diagonalization in iterative solution of the eigenvalue problem:
     a serial algorithm will be used

     bravais-lattice index     =            0
     lattice parameter (alat)  =      13.8397  a.u.
     unit-cell volume          =    2804.9816 (a.u.)^3
     number of atoms/cell      =           32
     number of atomic types    =            2
     number of electrons       =       368.00
     number of Kohn-Sham states=          221
     kinetic-energy cutoff     =     120.0000  Ry
     charge density cutoff     =     480.0000  Ry
     convergence threshold     =      1.0E-08
     mixing beta               =       0.7000
     number of iterations used =            8  plain     mixing
     Exchange-correlation      = SLA PW NOGX NOGC ( 1  4  0  0 0 0)
     nstep                     =           50

     celldm(1)=  13.839685  celldm(2)=   0.000000  celldm(3)=   0.000000
     celldm(4)=   0.000000  celldm(5)=   0.000000  celldm(6)=   0.000000

     crystal axes: (cart. coord. in units of alat)
               a(1) = (   1.000000   0.000000   0.000000 )
               a(2) = (   0.000000   1.058160   0.000000 )
               a(3) = (   0.000000   0.000000   1.000000 )

     reciprocal axes: (cart. coord. in units 2 pi/alat)
               b(1) = (  1.000000  0.000000  0.000000 )
               b(2) = (  0.000000  0.945037  0.000000 )
               b(3) = (  0.000000  0.000000  1.000000 )

     PseudoPot. # 1 for W  read from file:
     /cluster/scratch/mnoe/QE/pps/W_ONCV_LDA-4.0.upf
     MD5 check sum: ba0307d5d4cd419d6f1d13dc49d7c13a
     Pseudo is Norm-conserving + core correction, Zval = 28.0
     Generated using ONCVPSP code by D. R. Hamann
     Using radial grid of 1380 points,  8 beta functions with:
                l(1) =   0
                l(2) =   0
                l(3) =   1
                l(4) =   1
                l(5) =   2
                l(6) =   2
                l(7) =   3
                l(8) =   3

     PseudoPot. # 2 for O  read from file:
     /cluster/scratch/mnoe/QE/pps/O_ONCV_LDA-3.0.upf
     MD5 check sum: a1bd6164e7280c17a38c229939bfbd54
     Pseudo is Norm-conserving + core correction, Zval =  6.0
     Generated using ONCVPSP code by D. R. Hamann
     Using radial grid of  926 points,  5 beta functions with:
                l(1) =   0
                l(2) =   0
                l(3) =   1
                l(4) =   1
                l(5) =   2

     atomic species   valence    mass     pseudopotential
        W             28.00   183.84000     W ( 1.00)
        O              6.00    15.99940     O ( 1.00)

      8 Sym. Ops. (no inversion) found ( 4 have fractional translation)

   Cartesian axes

     site n.     atom                  positions (alat units)
         1           W   tau(   1) = (   0.2841700   0.3119083   0.2509700  )
         2           W   tau(   2) = (  -0.2509700   0.7462517  -0.7158300  )
         3           W   tau(   3) = (   0.2158300   0.2171717   0.7509700  )
         4           W   tau(   4) = (   0.7509700   0.8409883   0.7841700  )
         5           W   tau(   5) = (   0.7158300   0.3119083   0.7490300  )
         6           W   tau(   6) = (   0.2509700   0.7462517   0.7158300  )
         7           W   tau(   7) = (  -0.2158300   0.2171717  -0.7509700  )
         8           W   tau(   8) = (   0.2490300   0.8409883   0.2158300  )
         9           O   tau(   9) = (   0.2875800   0.0346429   0.2772600  )
        10           O   tau(  10) = (  -0.2772600   1.0235172  -0.7124200  )
        11           O   tau(  11) = (   0.2124200   0.4944371   0.7772600  )
        12           O   tau(  12) = (   0.7772600   0.5637230   0.7875800  )
        13           O   tau(  13) = (   0.7124200   0.0346429   0.7227400  )
        14           O   tau(  14) = (   0.2772600   1.0235172   0.7124200  )
        15           O   tau(  15) = (  -0.2124200   0.4944371  -0.7772600  )
        16           O   tau(  16) = (   0.2227400   0.5637230   0.2124200  )
        17           O   tau(  17) = (   0.4879100   0.3074167   0.7662414  )
        18           O   tau(  18) = (   0.4975100   0.7661078   0.7337586  )
        19           O   tau(  19) = (  -0.9879099   0.2216634   1.2662414  )
        20           O   tau(  20) = (   0.0024899   0.8211322   0.2337586  )
        21           O   tau(  21) = (   0.5120900   0.3074167   0.2337586  )
        22           O   tau(  22) = (   0.5024900   0.7661078   1.2662414  )
        23           O   tau(  23) = (  -0.0120901   0.2216634   0.7337586  )
        24           O   tau(  24) = (  -1.0024900   0.8211322   0.7662414  )
        25           O   tau(  25) = (   0.7662415   0.2370279   2.0024899  )
        26           O   tau(  26) = (   0.2337586   0.7507434   0.4879100  )
        27           O   tau(  27) = (   0.7337586   0.2920522   0.5024900  )
        28           O   tau(  28) = (   0.2662415   0.8364966   1.9879100  )
        29           O   tau(  29) = (   0.2337586   0.2370279   0.9975101  )
        30           O   tau(  30) = (   0.7662415   0.7507434   0.5120900  )
        31           O   tau(  31) = (   0.2662415   0.2920522   0.4975100  )
        32           O   tau(  32) = (   0.7337586   0.8364966   1.0120901  )

     number of k points=    40  gaussian smearing, width (Ry)=  0.0007
                       cart. coord. in units 2pi/alat
        k(    1) = (   0.0000000   0.0000000   0.0000000), wk =   0.0092593
        k(    2) = (   0.0000000   0.0000000   0.1666667), wk =   0.0370370
        k(    3) = (   0.0000000   0.0000000   0.3333333), wk =   0.0370370
        k(    4) = (   0.0000000   0.0000000  -0.5000000), wk =   0.0185185
        k(    5) = (   0.0000000   0.1575061   0.0000000), wk =   0.0185185
        k(    6) = (   0.0000000   0.1575061   0.1666667), wk =   0.0740741
        k(    7) = (   0.0000000   0.1575061   0.3333333), wk =   0.0740741
        k(    8) = (   0.0000000   0.1575061  -0.5000000), wk =   0.0370370
        k(    9) = (   0.0000000   0.3150122   0.0000000), wk =   0.0185185
        k(   10) = (   0.0000000   0.3150122   0.1666667), wk =   0.0740741
        k(   11) = (   0.0000000   0.3150122   0.3333333), wk =   0.0740741
        k(   12) = (   0.0000000   0.3150122  -0.5000000), wk =   0.0370370
        k(   13) = (   0.0000000  -0.4725183   0.0000000), wk =   0.0092593
        k(   14) = (   0.0000000  -0.4725183   0.1666667), wk =   0.0370370
        k(   15) = (   0.0000000  -0.4725183   0.3333333), wk =   0.0370370
        k(   16) = (   0.0000000  -0.4725183  -0.5000000), wk =   0.0185185
        k(   17) = (   0.1666667   0.0000000   0.1666667), wk =   0.0370370
        k(   18) = (   0.1666667   0.0000000   0.3333333), wk =   0.0740741
        k(   19) = (   0.1666667   0.0000000  -0.5000000), wk =   0.0370370
        k(   20) = (   0.1666667   0.1575061   0.1666667), wk =   0.0740741
        k(   21) = (   0.1666667   0.1575061   0.3333333), wk =   0.1481481
        k(   22) = (   0.1666667   0.1575061  -0.5000000), wk =   0.0740741
        k(   23) = (   0.1666667   0.3150122   0.1666667), wk =   0.0740741
        k(   24) = (   0.1666667   0.3150122   0.3333333), wk =   0.1481481
        k(   25) = (   0.1666667   0.3150122  -0.5000000), wk =   0.0740741
        k(   26) = (   0.1666667  -0.4725183   0.1666667), wk =   0.0370370
        k(   27) = (   0.1666667  -0.4725183   0.3333333), wk =   0.0740741
        k(   28) = (   0.1666667  -0.4725183  -0.5000000), wk =   0.0370370
        k(   29) = (   0.3333333   0.0000000   0.3333333), wk =   0.0370370
        k(   30) = (   0.3333333   0.0000000  -0.5000000), wk =   0.0370370
        k(   31) = (   0.3333333   0.1575061   0.3333333), wk =   0.0740741
        k(   32) = (   0.3333333   0.1575061  -0.5000000), wk =   0.0740741
        k(   33) = (   0.3333333   0.3150122   0.3333333), wk =   0.0740741
        k(   34) = (   0.3333333   0.3150122  -0.5000000), wk =   0.0740741
        k(   35) = (   0.3333333  -0.4725183   0.3333333), wk =   0.0370370
        k(   36) = (   0.3333333  -0.4725183  -0.5000000), wk =   0.0370370
        k(   37) = (  -0.5000000   0.0000000  -0.5000000), wk =   0.0092593
        k(   38) = (  -0.5000000   0.1575061  -0.5000000), wk =   0.0185185
        k(   39) = (  -0.5000000   0.3150122  -0.5000000), wk =   0.0185185
        k(   40) = (  -0.5000000  -0.4725183  -0.5000000), wk =   0.0092593

     Initial potential from superposition of free atoms

     starting charge  367.99656, renormalised to  368.00000
     Starting wfc are  232 randomized atomic wfcs

     Self-consistent Calculation

     iteration #  1     ecut=   120.00 Ry     beta= 0.70
     Davidson diagonalization with overlap
     ethr =  1.00E-02,  avg # of iterations =  4.6

     total energy              =   -6253.36486399 Ry
     Harris-Foulkes estimate   =   -6264.25291910 Ry
     estimated scf accuracy    <      13.77494084 Ry

[...]

     End of self-consistent calculation

          k = 0.0000 0.0000 0.0000 ( 62239 PWs)   bands (ev):

   -66.1358 -66.1354 -66.1351 -66.1351 -66.1346 -66.1346 -66.1343 -66.1339
   -30.8021 -30.8010 -30.7983 -30.7983 -30.7127 -30.7127 -30.7104 -30.7097
   -30.4803 -30.4798 -30.4734 -30.4734 -30.3989 -30.3989 -30.3940 -30.3939
   -30.2731 -30.2714 -30.2714 -30.2698 -30.2214 -30.2206 -30.2205 -30.2198
   -20.3042 -20.3041 -20.3040 -20.3040 -20.3008 -20.3008 -20.3005 -20.3005
   -20.2850 -20.2850 -20.2846 -20.2846 -20.2832 -20.2832 -20.2831 -20.2831
   -20.2682 -20.2681 -20.2681 -20.2680 -20.2669 -20.2668 -20.2668 -20.2665
   -20.2627 -20.2625 -20.2620 -20.2620 -20.2616 -20.2616 -20.2610 -20.2608
   -20.2446 -20.2444 -20.2444 -20.2441 -20.2424 -20.2419 -20.2419 -20.2415
   -20.2308 -20.2306 -20.2306 -20.2303 -20.2275 -20.2272 -20.2271 -20.2269
   -20.2230 -20.2227 -20.2227 -20.2227 -20.2219 -20.2219 -20.2219 -20.2218
   -10.0814  -9.8925  -9.7260  -9.7260  -9.2456  -9.2456  -9.0072  -8.9996
    -8.3444  -8.3072  -8.2065  -8.2065  -8.1387  -8.1232  -8.1232  -8.1156
    -7.8473  -7.8469  -7.7983  -7.7983  -7.2217  -7.1380  -7.1380  -7.0588
     0.9881   1.0041   1.1398   1.1398   1.4576   1.4576   1.5495   1.5699
     2.0661   2.1583   2.3228   2.3314   2.3314   2.3637   2.6819   2.6918
     2.7467   2.7467   3.9353   3.9353   4.0516   4.1379   4.1379   4.2467
     4.4549   4.4549   4.8129   4.8249   5.0007   5.0762   5.1765   5.1765
     5.2684   5.4043   5.4043   5.5191   5.6778   5.6778   5.7797   5.7838
     5.8030   5.8030   5.9716   6.0420   6.0560   6.0560   6.1132   6.3407
     6.3856   6.5116   6.5116   6.5382   6.8964   6.9484   6.9484   7.0322
     7.0322   7.0737   7.1906   7.2763   7.2764   7.3758   7.4971   7.5897
     7.5897   7.6254   7.9759   8.0162   8.2719   8.4272   8.4272   8.4370
     9.8380  10.0728  10.0728  10.1801  10.3183  10.4819  12.3181  12.5283
[...]
W        0.215829959   0.205235209   0.750970005    0   0   0
W        0.750969990   0.794764758   0.784170041    0   0   0
W        0.715830010   0.294764789   0.749030012    0   0   0
W        0.250969988   0.705235211   0.715829976    0   0   0
W       -0.215829992   0.205235209  -0.750969972    0   0   0
W        0.249029995   0.794764758   0.215830010    0   0   0
O        0.287579984   0.032738801   0.277259996    0   0   0
O       -0.277260008   0.967261253  -0.712420016    0   0   0
O        0.212420016   0.467261186   0.777260008    0   0   0
O        0.777259996   0.532738818   0.787579984    0   0   0
O        0.712420004   0.032738801   0.722739992    0   0   0
O        0.277260008   0.967261253   0.712420016    0   0   0
O       -0.212420016   0.467261186  -0.777260008    0   0   0
O        0.222739992   0.532738818   0.212420004    0   0   0
O        0.487909990   0.290519993   0.766241450    0   0   0
O        0.497510024   0.723999910   0.733758592    0   0   0
O       -0.987909941   0.209480022   1.266241428    0   0   0
O        0.002489929   0.775999999   0.233758617    0   0   0
O        0.512090010   0.290519993   0.233758617    0   0   0
O        0.502489976   0.723999910   1.266241428    0   0   0
O       -0.012090091   0.209480022   0.733758592    0   0   0
O       -1.002489961   0.775999999   0.766241450    0   0   0
O        0.766241520   0.224000002   2.002489944    0   0   0
O        0.233758605   0.709479992   0.487909973    0   0   0
O        0.733758554   0.276000013   0.502489993    0   0   0
O        0.266241467   0.790519917   1.987909958    0   0   0
O        0.233758605   0.224000002   0.997510088    0   0   0
O        0.766241520   0.709479992   0.512090027    0   0   0
O        0.266241467   0.276000013   0.497510007    0   0   0
O        0.733758554   0.790519917   1.012090074    0   0   0
End final coordinates

     A final scf calculation at the relaxed structure.
     The G-vectors are recalculated for the final unit cell
     Results may differ from those at the preceding step.

     bravais-lattice index     =            0
     lattice parameter (alat)  =      13.8397  a.u.
     unit-cell volume          =    2791.2020 (a.u.)^3
     number of atoms/cell      =           32
     number of atomic types    =            2
     number of electrons       =       368.00
     number of Kohn-Sham states=          221
     kinetic-energy cutoff     =     120.0000  Ry
     charge density cutoff     =     480.0000  Ry
     convergence threshold     =      1.0E-10
     mixing beta               =       0.7000
     number of iterations used =            8  plain     mixing
     Exchange-correlation      = SLA PW NOGX NOGC ( 1  4  0  0 0 0)

     celldm(1)=  13.839685  celldm(2)=   0.000000  celldm(3)=   0.000000
     celldm(4)=   0.000000  celldm(5)=   0.000000  celldm(6)=   0.000000

     crystal axes: (cart. coord. in units of alat)
               a(1) = (   1.020754   0.000000   0.000000 )
               a(2) = (   0.000000   1.010580   0.000000 )
               a(3) = (   0.000000   0.000000   1.020754 )

     reciprocal axes: (cart. coord. in units 2 pi/alat)
               b(1) = (  0.979668  0.000000  0.000000 )
               b(2) = (  0.000000  0.989531  0.000000 )
               b(3) = (  0.000000  0.000000  0.979668 )

     PseudoPot. # 1 for W  read from file:
     /cluster/scratch/mnoe/QE/pps/W_ONCV_LDA-4.0.upf
     MD5 check sum: ba0307d5d4cd419d6f1d13dc49d7c13a
     Pseudo is Norm-conserving + core correction, Zval = 28.0
     Generated using ONCVPSP code by D. R. Hamann
     Using radial grid of 1380 points,  8 beta functions with:
                l(1) =   0
                l(2) =   0
                l(3) =   1
                l(4) =   1
                l(5) =   2
                l(6) =   2
                l(7) =   3
                l(8) =   3

     PseudoPot. # 2 for O  read from file:
     /cluster/scratch/mnoe/QE/pps/O_ONCV_LDA-3.0.upf
     MD5 check sum: a1bd6164e7280c17a38c229939bfbd54
     Pseudo is Norm-conserving + core correction, Zval =  6.0
     Generated using ONCVPSP code by D. R. Hamann
     Using radial grid of  926 points,  5 beta functions with:
                l(1) =   0
                l(2) =   0
                l(3) =   1
                l(4) =   1
                l(5) =   2

     atomic species   valence    mass     pseudopotential
        W             28.00   183.84000     W ( 1.00)
        O              6.00    15.99940     O ( 1.00)

      8 Sym. Ops. (no inversion) found ( 4 have fractional translation)

   Cartesian axes

     site n.     atom                  positions (alat units)
         1           W   tau(   1) = (   0.2900676   0.2978833   0.2561786  )
         2           W   tau(   2) = (  -0.2561786   0.7126964  -0.7306862  )
         3           W   tau(   3) = (   0.2203093   0.2074065   0.7665555  )
         4           W   tau(   4) = (   0.7665555   0.8031731   0.8004446  )
         5           W   tau(   5) = (   0.7306862   0.2978833   0.7645753  )
         6           W   tau(   6) = (   0.2561786   0.7126964   0.7306862  )
         7           W   tau(   7) = (  -0.2203093   0.2074065  -0.7665555  )
         8           W   tau(   8) = (   0.2541983   0.8031731   0.2203093  )
         9           O   tau(   9) = (   0.2935484   0.0330852   0.2830142  )
        10           O   tau(  10) = (  -0.2830142   0.9774946  -0.7272055  )
        11           O   tau(  11) = (   0.2168286   0.4722047   0.7933912  )
        12           O   tau(  12) = (   0.7933911   0.5383750   0.8039253  )
        13           O   tau(  13) = (   0.7272055   0.0330852   0.7377396  )
        14           O   tau(  14) = (   0.2830142   0.9774946   0.7272055  )
        15           O   tau(  15) = (  -0.2168286   0.4722047  -0.7933912  )
        16           O   tau(  16) = (   0.2273627   0.5383750   0.2168285  )
        17           O   tau(  17) = (   0.4980360   0.2935936   0.7821439  )
        18           O   tau(  18) = (   0.5078353   0.7316596   0.7489869  )
        19           O   tau(  19) = (  -1.0084129   0.2116963   1.2925208  )
        20           O   tau(  20) = (   0.0025416   0.7842098   0.2386100  )
        21           O   tau(  21) = (   0.5227179   0.2935936   0.2386100  )
        22           O   tau(  22) = (   0.5129186   0.7316596   1.2925208  )
        23           O   tau(  23) = (  -0.0123410   0.2116963   0.7489869  )
        24           O   tau(  24) = (  -1.0232955   0.7842098   0.7821439  )
        25           O   tau(  25) = (   0.7821440   0.2263698   2.0440493  )
        26           O   tau(  26) = (   0.2386100   0.7169861   0.4980360  )
        27           O   tau(  27) = (   0.7489869   0.2789200   0.5129186  )
        28           O   tau(  28) = (   0.2717670   0.7988834   2.0291668  )
        29           O   tau(  29) = (   0.2386100   0.2263698   1.0182123  )
        30           O   tau(  30) = (   0.7821440   0.7169861   0.5227179  )
        31           O   tau(  31) = (   0.2717670   0.2789200   0.5078353  )
        32           O   tau(  32) = (   0.7489869   0.7988834   1.0330948  )

     number of k points=    40  gaussian smearing, width (Ry)=  0.0007
                       cart. coord. in units 2pi/alat
        k(    1) = (   0.0000000   0.0000000   0.0000000), wk =   0.0092593
        k(    2) = (   0.0000000   0.0000000   0.1632780), wk =   0.0370370
        k(    3) = (   0.0000000   0.0000000   0.3265560), wk =   0.0370370
        k(    4) = (   0.0000000   0.0000000  -0.4898341), wk =   0.0185185
        k(    5) = (   0.0000000   0.1649218   0.0000000), wk =   0.0185185
        k(    6) = (   0.0000000   0.1649218   0.1632780), wk =   0.0740741
        k(    7) = (   0.0000000   0.1649218   0.3265560), wk =   0.0740741
        k(    8) = (   0.0000000   0.1649218  -0.4898341), wk =   0.0370370
        k(    9) = (   0.0000000   0.3298437   0.0000000), wk =   0.0185185
        k(   10) = (   0.0000000   0.3298437   0.1632780), wk =   0.0740741
        k(   11) = (   0.0000000   0.3298437   0.3265560), wk =   0.0740741
        k(   12) = (   0.0000000   0.3298437  -0.4898341), wk =   0.0370370
        k(   13) = (   0.0000000  -0.4947655   0.0000000), wk =   0.0092593
        k(   14) = (   0.0000000  -0.4947655   0.1632780), wk =   0.0370370
        k(   15) = (   0.0000000  -0.4947655   0.3265560), wk =   0.0370370
        k(   16) = (   0.0000000  -0.4947655  -0.4898341), wk =   0.0185185
        k(   17) = (   0.1632780   0.0000000   0.1632780), wk =   0.0370370
        k(   18) = (   0.1632780   0.0000000   0.3265560), wk =   0.0740741
        k(   19) = (   0.1632780   0.0000000  -0.4898341), wk =   0.0370370
        k(   20) = (   0.1632780   0.1649218   0.1632780), wk =   0.0740741
        k(   21) = (   0.1632780   0.1649218   0.3265560), wk =   0.1481481
        k(   22) = (   0.1632780   0.1649218  -0.4898341), wk =   0.0740741
        k(   23) = (   0.1632780   0.3298437   0.1632780), wk =   0.0740741
        k(   24) = (   0.1632780   0.3298437   0.3265560), wk =   0.1481481
        k(   25) = (   0.1632780   0.3298437  -0.4898341), wk =   0.0740741
        k(   26) = (   0.1632780  -0.4947655   0.1632780), wk =   0.0370370
        k(   27) = (   0.1632780  -0.4947655   0.3265560), wk =   0.0740741
        k(   28) = (   0.1632780  -0.4947655  -0.4898341), wk =   0.0370370
        k(   29) = (   0.3265560   0.0000000   0.3265560), wk =   0.0370370
        k(   30) = (   0.3265560   0.0000000  -0.4898341), wk =   0.0370370
        k(   31) = (   0.3265560   0.1649218   0.3265560), wk =   0.0740741
        k(   32) = (   0.3265560   0.1649218  -0.4898341), wk =   0.0740741
        k(   33) = (   0.3265560   0.3298437   0.3265560), wk =   0.0740741
        k(   34) = (   0.3265560   0.3298437  -0.4898341), wk =   0.0740741
        k(   35) = (   0.3265560  -0.4947655   0.3265560), wk =   0.0370370
        k(   36) = (   0.3265560  -0.4947655  -0.4898341), wk =   0.0370370
        k(   37) = (  -0.4898341   0.0000000  -0.4898341), wk =   0.0092593
        k(   38) = (  -0.4898341   0.1649218  -0.4898341), wk =   0.0185185
        k(   39) = (  -0.4898341   0.3298437  -0.4898341), wk =   0.0185185
        k(   40) = (  -0.4898341  -0.4947655  -0.4898341), wk =   0.0092593

     Initial potential from superposition of free atoms

     starting charge  367.99656, renormalised to  368.00000
     Starting wfc are  232 randomized atomic wfcs

     Writing output data file Landau_38.save

     Self-consistent Calculation

[...]

     total energy              =   -6260.87266126 Ry
     Harris-Foulkes estimate   =   -6260.87266126 Ry
     estimated scf accuracy    <          9.6E-10 Ry

     iteration # 14     ecut=   120.00 Ry     beta= 0.70
     Davidson diagonalization with overlap
     ethr =  2.60E-13,  avg # of iterations =  2.0

     End of self-consistent calculation

[...]

          k = 0.3266-0.4948-0.4898 ( 61928 PWs)   bands (ev):

[...]

          k =-0.4898-0.4948-0.4898 ( 61880 PWs)   bands (ev):

   -66.0400 -66.0400 -66.0400 -66.0400 -66.0400 -66.0400 -66.0400 -66.0400
   -30.5402 -30.5402 -30.5400 -30.5400 -30.5400 -30.5400 -30.5394 -30.5394
   -30.3001 -30.3001 -30.2982 -30.2981 -30.2981 -30.2981 -30.2966 -30.2965
   -30.2758 -30.2758 -30.2735 -30.2735 -30.2735 -30.2735 -30.2713 -30.2713
   -20.2190 -20.2190 -20.2190 -20.2190 -20.2189 -20.2189 -20.2189 -20.2189
   -20.2041 -20.2040 -20.2040 -20.2040 -20.2039 -20.2039 -20.2039 -20.2039
   -20.1755 -20.1755 -20.1754 -20.1754 -20.1754 -20.1754 -20.1754 -20.1754
   -20.1720 -20.1720 -20.1720 -20.1720 -20.1719 -20.1718 -20.1718 -20.1718
   -20.1514 -20.1514 -20.1511 -20.1511 -20.1511 -20.1511 -20.1510 -20.1510
   -20.1413 -20.1413 -20.1412 -20.1411 -20.1411 -20.1411 -20.1409 -20.1409
   -20.1295 -20.1295 -20.1295 -20.1295 -20.1295 -20.1295 -20.1295 -20.1295
    -8.9758  -8.9758  -8.9301  -8.9301  -8.9301  -8.9300  -8.8740  -8.8740
    -8.3431  -8.3431  -8.2662  -8.2662  -8.2662  -8.2662  -8.1804  -8.1804
    -8.0123  -8.0123  -7.9863  -7.9863  -7.9863  -7.9863  -7.9783  -7.9783
     2.8134   2.8134   2.8134   2.8134   2.8190   2.8190   2.9186   2.9186
     3.1827   3.1827   3.3217   3.3217   3.3217   3.3217   3.3297   3.3297
     3.3996   3.3996   3.6050   3.6050   3.6050   3.6050   3.6852   3.6852
     4.2572   4.2572   4.2572   4.2572   4.2580   4.2580   4.2613   4.2613
     4.4741   4.4741   4.5407   4.5407   4.5407   4.5407   4.5448   4.5448
     4.7915   4.7915   4.8090   4.8090   4.8090   4.8090   4.9327   4.9327
     7.3128   7.3128   7.3128   7.3128   7.3184   7.3184   7.3334   7.3334
     7.4369   7.4369   7.4369   7.4369   7.5186   7.5186   7.6496   7.6496
     7.9320   7.9320   7.9694   7.9694   7.9694   7.9694   7.9855   7.9855
    12.0628  12.0628  12.0884  12.0885  12.0885  12.0885  12.0966  12.0966
    12.2784  12.2784  12.4121  12.4121  12.4669  12.4669  12.4669  12.4669
    12.6692  12.6692  12.6931  12.6931  12.7456  12.7456  12.7456  12.7456
    16.5250  16.5250  16.6002  16.6002  16.6002  16.6002  16.8447  16.8447
    17.2899  17.2899  17.2899  17.2899  17.3632

     the Fermi energy is     9.0519 ev

!    total energy              =   -6260.87266126 Ry
     Harris-Foulkes estimate   =   -6260.87266126 Ry
     estimated scf accuracy    <          8.3E-11 Ry

     The total energy is the sum of the following terms:

     one-electron contribution =   -4674.92657354 Ry
     hartree contribution      =    2576.08219618 Ry
     xc contribution           =    -965.61278668 Ry
     ewald contribution        =   -3196.41549722 Ry
     smearing contrib. (-TS)   =      -0.00000000 Ry

     convergence has been achieved in  14 iterations

     Forces acting on atoms (cartesian axes, Ry/au):

     atom    1 type  1   force =    -0.09662362    0.00056166    0.00905294
     atom    2 type  1   force =    -0.00905294   -0.00056166   -0.09662362
     atom    3 type  1   force =     0.09662362   -0.00056166    0.00905294
     atom    4 type  1   force =     0.00905294    0.00056166   -0.09662362
     atom    5 type  1   force =     0.09662362    0.00056166   -0.00905294
     atom    6 type  1   force =     0.00905294   -0.00056166    0.09662362
     atom    7 type  1   force =    -0.09662362   -0.00056166   -0.00905294
     atom    8 type  1   force =    -0.00905294    0.00056166    0.09662362
     atom    9 type  2   force =    -0.00127375   -0.10865659   -0.02637136
     atom   10 type  2   force =     0.02637136    0.10865659   -0.00127375
     atom   11 type  2   force =     0.00127375    0.10865659   -0.02637136
     atom   12 type  2   force =    -0.02637136   -0.10865659   -0.00127375
     atom   13 type  2   force =     0.00127375   -0.10865659    0.02637136
     atom   14 type  2   force =    -0.02637136    0.10865659    0.00127375
     atom   15 type  2   force =    -0.00127375    0.10865659    0.02637136
     atom   16 type  2   force =     0.02637136   -0.10865659    0.00127375
     atom   17 type  2   force =    -0.05977472    0.00093237    0.00919941
     atom   18 type  2   force =     0.00751815   -0.01766877    0.00813198
     atom   19 type  2   force =     0.05977472   -0.00093237    0.00919941
     atom   20 type  2   force =    -0.00751815    0.01766877    0.00813198
     atom   21 type  2   force =     0.05977472    0.00093237   -0.00919941
     atom   22 type  2   force =    -0.00751815   -0.01766877   -0.00813198
     atom   23 type  2   force =    -0.05977472   -0.00093237   -0.00919941
     atom   24 type  2   force =     0.00751815    0.01766877   -0.00813198
     atom   25 type  2   force =    -0.00813198   -0.01766877   -0.00751815
     atom   26 type  2   force =    -0.00919941   -0.00093237   -0.05977472
     atom   27 type  2   force =     0.00813198    0.01766877   -0.00751815
     atom   28 type  2   force =     0.00919941    0.00093237   -0.05977472
     atom   29 type  2   force =     0.00813198   -0.01766877    0.00751815
     atom   30 type  2   force =     0.00919941   -0.00093237    0.05977472
     atom   31 type  2   force =    -0.00813198    0.01766877    0.00751815
     atom   32 type  2   force =    -0.00919941    0.00093237    0.05977472

     Total force =     0.000000     Total SCF correction =     0.000000

     Computing stress (Cartesian axis) and pressure

          total   stress  (Ry/bohr**3)                   (kbar)     P=    0.94
   0.00001030   0.00000000   0.00000000          1.51      0.00      0.00
   0.00000000  -0.00000146   0.00000000          0.00     -0.21      0.00
   0.00000000   0.00000000   0.00001030          0.00      0.00      1.51

     Writing output data file Landau_38.save

     General routines

     Parallel routines

   This run was terminated on:  20: 5:38  28Feb2020

   JOB DONE.